 $CONTRL COORD=PRINAXIS UNITS=ANGS NPRINT=3
         RUNTYP=ENERGY SCFTYP=RHF DFTTYP=BP86 $END
 $BASIS  GBASIS=STO NGAUSS=3 $END
 $GUESS  GUESS=HUCKEL $END
 $DFT DC=.T. IDCVER=3 $END
 $SYSTEM MWORDS=125 $END
 $DATA
divinylbenzene
c1
 C 6.0 0.27867948 -1.36683162 0.00000000
 C 6.0 1.32303041 -0.44173575 0.00000000
 C 6.0 1.04434506 0.92484978 0.00000000
 C 6.0 -0.27867948 1.36683162 0.00000000
 C 6.0 -1.32303041 0.44173575 0.00000000
 C 6.0 -1.04434506 -0.92484978 0.00000000
 H 1.0 2.36595443 -0.79037726 0.00000000
 H 1.0 1.86746094 1.65407997 0.00000000
 H 1.0 -2.36595443 0.79037726 0.00000000
 H 1.0 -1.86746094 -1.65407997 0.00000000
 C 6.0 -0.58659169 2.87589931 0.00000000
 C 6.0 0.36350188 3.80076420 0.00000000
 H 1.0 -1.65647768 3.12394312 0.00000000
 H 1.0 0.14429560 4.87693235 0.00000000
 H 1.0 1.43338788 3.55272039 0.00000000
 C 6.0 0.58659169 -2.87589931 0.00000000
 C 6.0 -0.36350188 -3.80076420 0.00000000
 H 1.0 1.65647768 -3.12394312 0.00000000
 H 1.0 -0.14429560 -4.87693235 0.00000000
 H 1.0 -1.43338788 -3.55272039 0.00000000
 $END
