 $contrl scftyp=rhf cityp=cis runtyp=energy exetyp=run
         units=angs coord=cart AIMPAC=.t. $end
 $basis  gbasis=sto ngauss=3 $end
 $cis    hamtyp=saps nstate=5 $end
 $data
water
C1
 O  8   0.000000    0.000000    0.000000
 H  1   0.990000    0.000000    0.000000
 H  1  -0.272881    0.951649    0.000000
 $end
 
