%chk=PhCCCC.chk
%mem=100MB
%nproc=1
#p b3lyp/sto-3g guess=read freq geom=allcheck

