! B3LYP NOCOSX NORI STO-3G TightSCF SP
%Pal NProcs 2 end
%MaxCore 500
%SCF
    AutoTRAH    True
    CNVDamp     False
    CNVZerner   False
    end
*xyz 0 1
C            -1.41525300     0.23022200     0.00000000
C             1.41525300    -0.23022200     0.00000000
C            -0.49513300     1.31446100     0.00000000
C             0.49513300    -1.31446100     0.00000000
C             0.88940900     1.09094900     0.00000000
C            -0.88940900    -1.09094900     0.00000000
H            -0.87955100     2.34373400     0.00000000
H             0.87955100    -2.34373400     0.00000000
H             1.57790400     1.94500600     0.00000000
H            -1.57790400    -1.94500600     0.00000000
C             2.88458400    -0.52108900     0.00000000
C            -2.88458400     0.52108900     0.00000000
H             3.14033600    -1.59196100     0.00000000
H            -3.14033600     1.59196100     0.00000000
C             3.88004300     0.38225400     0.00000000
C            -3.88004300    -0.38225400     0.00000000
H             3.69467700     1.46243900     0.00000000
H            -3.69467700    -1.46243900     0.00000000
H             4.93164500     0.07110500     0.00000000
H            -4.93164500    -0.07110500     0.00000000
*
