molecule dvb {
    C    0.0    0.0     0.0
}

set {
    basis aug-cc-pVQZ
    print_basis true
}

energy('scf')
