 $CONTRL COORD=CART UNITS=ANGS SCFTYP=RHF d5=.true. RUNTYP=ENERGY NPRINT=3 $END
 $BASIS  GBASIS=N31 NGAUSS=6 NPFUNC=1 NDFUNC=1 $END
 $GUESS  GUESS=HUCKEL $END
 $DATA
c atom
dnh  2

 C           6.0  -1.4152533224   0.2302217854   0.0000000000
 $END
