 $CONTRL COORD=CART UNITS=ANGS SCFTYP=RHF RUNTYP=HESSIAN NPRINT=3 ICHARG=-1 $END
 $BASIS  GBASIS=STO NGAUSS=3 $END
 $GUESS  GUESS=HUCKEL $END
 $DFT DFTTYP=B3LYP $END
 $DATA
cyanide ion
cnv  4

 C           6.0   0.0000000000   0.0000000000   0.0000000000
 N           7.0   1.1100000000  0.0000000000   0.0000000000
 $END
