 $CONTRL COORD=CART UNITS=ANGS SCFTYP=RHF RUNTYP=RAMAN NPRINT=3 $END
 $BASIS  GBASIS=STO NGAUSS=3 $END
 $GUESS  GUESS=HUCKEL $END
 $DFT DFTTYP=B3LYP $END
 $DATA
divinylbenzene
cnh  2

 C           6.0  -1.3939882447   0.2213755683   0.0000000000
 C           6.0   1.3939882447  -0.2213755683   0.0000000000
 C           6.0  -0.4919705715   1.2868407086   0.0000000000
 C           6.0   0.4919705715  -1.2868407086   0.0000000000
 C           6.0   0.8733456137   1.0731470812   0.0000000000
 C           6.0  -0.8733456137  -1.0731470812   0.0000000000
 H           1.0  -0.8715846529   2.3007508400   0.0000000000
 H           1.0   0.8715846529  -2.3007508400   0.0000000000
 H           1.0   1.5389282156   1.9253173698   0.0000000000
 H           1.0  -1.5389282156  -1.9253173698   0.0000000000
 C           6.0   2.8621079750  -0.5097799325   0.0000000000
 C           6.0  -2.8621079750   0.5097799325   0.0000000000
 H           1.0   3.1070578958  -1.5662206184   0.0000000000
 H           1.0  -3.1070578958   1.5662206184   0.0000000000
 C           6.0   3.8375160019   0.3700444858   0.0000000000
 C           6.0  -3.8375160019  -0.3700444858   0.0000000000
 H           1.0   3.6688910549   1.4371664215   0.0000000000
 H           1.0  -3.6688910549  -1.4371664215   0.0000000000
 H           1.0   4.8733853301   0.0604752833   0.0000000000
 H           1.0  -4.8733853301  -0.0604752833   0.0000000000
 $END
 $GRAD
E=     -379.7779551022  GMAX=   0.0000864  GRMS=   0.0000319
C            6.   -1.7995615894E-05    1.9158670154E-05    0.0000000000E+00
C            6.    1.7995615894E-05   -1.9158670154E-05    0.0000000000E+00
C            6.    3.1884940495E-05    2.2902770195E-05    0.0000000000E+00
C            6.   -3.1884940495E-05   -2.2902770195E-05    0.0000000000E+00
C            6.   -9.2974613703E-06    8.8093494850E-06    0.0000000000E+00
C            6.    9.2974613703E-06   -8.8093494850E-06    0.0000000000E+00
H            1.    5.6719692633E-05   -4.2080198783E-05    0.0000000000E+00
H            1.   -5.6719692633E-05    4.2080198783E-05    0.0000000000E+00
H            1.    8.6435587465E-05   -1.5078950424E-05    0.0000000000E+00
H            1.   -8.6435587465E-05    1.5078950424E-05    0.0000000000E+00
C            6.   -2.3912014532E-05    1.1293724560E-06    0.0000000000E+00
C            6.    2.3912014532E-05   -1.1293724560E-06    0.0000000000E+00
H            1.    1.1324622539E-05    7.0277215692E-05    0.0000000000E+00
H            1.   -1.1324622539E-05   -7.0277215692E-05    0.0000000000E+00
C            6.   -2.1220930912E-05    1.8506404738E-05    0.0000000000E+00
C            6.    2.1220930912E-05   -1.8506404738E-05    0.0000000000E+00
H            1.    7.0190523556E-05    5.9968436196E-05    0.0000000000E+00
H            1.   -7.0190523556E-05   -5.9968436196E-05    0.0000000000E+00
H            1.   -1.3255225618E-05   -1.7520278577E-05    0.0000000000E+00
H            1.    1.3255225618E-05    1.7520278577E-05    0.0000000000E+00
 $END
 $HESS
ENERGY IS     -379.7779551022 E(NUC) IS      452.1260015068
 1  1 8.71292892E-01-1.32063922E-02 0.00000000E+00 6.27703131E-03-2.87033984E-02
 1  2 0.00000000E+00-2.61258749E-01-1.78115202E-01 0.00000000E+00-2.83368123E-03
 1  3 4.69740160E-02 0.00000000E+00-6.82390311E-02-6.10793448E-03 0.00000000E+00
 1  4-2.08255346E-01 1.39244446E-01 0.00000000E+00 1.27614543E-02 1.63627158E-02
 1  5 0.00000000E+00-6.64730902E-03 5.10651151E-04 0.00000000E+00-5.59804508E-03
 1  6 1.57081703E-03 0.00000000E+00 1.58418642E-02-2.65264829E-02 0.00000000E+00
 1  7-3.74749650E-03-1.57650331E-03 0.00000000E+00-2.99706234E-01 6.14776329E-02
 1  8 0.00000000E+00 1.01677574E-04 2.82670373E-05 0.00000000E+00-6.45702512E-03
 1  9-5.02632339E-03 0.00000000E+00 9.46535242E-04 1.37626159E-03 0.00000000E+00
 1 10-4.54681167E-02-8.00330451E-03 0.00000000E+00-7.67457511E-05 2.02784231E-04
 1 11 0.00000000E+00 1.85902518E-03 7.50095821E-04 0.00000000E+00 1.97093854E-04
 1 12 1.35885860E-05 0.00000000E+00-9.89886825E-04-1.24569612E-03 0.00000000E+00
 2  1-1.32063922E-02 8.45931723E-01 0.00000000E+00-2.87033984E-02-1.62680204E-01
 2  2 0.00000000E+00-1.45983654E-02-3.14147771E-01 0.00000000E+00 1.88249822E-01
 2  3 5.00839736E-02 0.00000000E+00-1.46312608E-01 1.13640803E-01 0.00000000E+00
 2  4-1.93099289E-02-3.69064459E-01 0.00000000E+00-2.77512003E-02-1.63541740E-02
 2  5 0.00000000E+00-1.29546617E-03 6.87469547E-04 0.00000000E+00 3.56115498E-03
 2  6-9.78259507E-05 0.00000000E+00 1.71591050E-02-1.60701710E-02 0.00000000E+00
 2  7 6.59718920E-04 2.96271493E-04 0.00000000E+00 3.44930729E-02-1.46650440E-01
 2  8 0.00000000E+00-1.80272056E-04 1.36815980E-04 0.00000000E+00 3.70745771E-02
 2  9-1.94574430E-03 0.00000000E+00-9.77853652E-04-1.55908644E-04 0.00000000E+00
 2 10-2.75494660E-02 1.97112952E-02 0.00000000E+00 5.49852942E-05-1.50032623E-04
 2 11 0.00000000E+00 1.97401900E-03 7.12737598E-04 0.00000000E+00-2.23174701E-04
 2 12 1.00475431E-04 0.00000000E+00-3.11890749E-03-3.98464657E-03 0.00000000E+00
 3  1 0.00000000E+00 0.00000000E+00 2.03229036E-01 0.00000000E+00 0.00000000E+00
 3  2-1.22082873E-02 0.00000000E+00 0.00000000E+00-8.80464807E-02 0.00000000E+00
 3  3 0.00000000E+00 1.06603368E-02 0.00000000E+00 0.00000000E+00 1.07358659E-02
 3  4 0.00000000E+00 0.00000000E+00-8.88291555E-02 0.00000000E+00 0.00000000E+00
 3  5 4.05469782E-03 0.00000000E+00 0.00000000E+00 1.07500818E-02 0.00000000E+00
 3  6 0.00000000E+00 1.08292839E-02 0.00000000E+00 0.00000000E+00 4.34299185E-03
 3  7 0.00000000E+00 0.00000000E+00-1.07017902E-03 0.00000000E+00 0.00000000E+00
 3  8-8.30464426E-02 0.00000000E+00 0.00000000E+00 1.00408955E-04 0.00000000E+00
 3  9 0.00000000E+00 4.23814280E-03 0.00000000E+00 0.00000000E+00-2.58722898E-05
 3 10 0.00000000E+00 0.00000000E+00 8.41790660E-03 0.00000000E+00 0.00000000E+00
 3 11-7.88821453E-05 0.00000000E+00 0.00000000E+00-1.03692196E-02 0.00000000E+00
 3 12 0.00000000E+00 1.42176006E-04 0.00000000E+00 0.00000000E+00 1.61733954E-02
 4  1 6.27703131E-03-2.87033984E-02 0.00000000E+00 8.71292892E-01-1.32063922E-02
 4  2 0.00000000E+00-2.83368123E-03 4.69740160E-02 0.00000000E+00-2.61258749E-01
 4  3-1.78115202E-01 0.00000000E+00-2.08255346E-01 1.39244446E-01 0.00000000E+00
 4  4-6.82390311E-02-6.10793448E-03 0.00000000E+00-6.64730902E-03 5.10651151E-04
 4  5 0.00000000E+00 1.27614543E-02 1.63627158E-02 0.00000000E+00 1.58418642E-02
 4  6-2.65264829E-02 0.00000000E+00-5.59804508E-03 1.57081703E-03 0.00000000E+00
 4  7-2.99706234E-01 6.14776329E-02 0.00000000E+00-3.74749650E-03-1.57650331E-03
 4  8 0.00000000E+00-6.45702512E-03-5.02632339E-03 0.00000000E+00 1.01677574E-04
 4  9 2.82670373E-05 0.00000000E+00-4.54681167E-02-8.00330451E-03 0.00000000E+00
 4 10 9.46535242E-04 1.37626159E-03 0.00000000E+00 1.85902518E-03 7.50095821E-04
 4 11 0.00000000E+00-7.67457511E-05 2.02784231E-04 0.00000000E+00-9.89886825E-04
 4 12-1.24569612E-03 0.00000000E+00 1.97093854E-04 1.35885860E-05 0.00000000E+00
 5  1-2.87033984E-02-1.62680204E-01 0.00000000E+00-1.32063922E-02 8.45931723E-01
 5  2 0.00000000E+00 1.88249822E-01 5.00839736E-02 0.00000000E+00-1.45983654E-02
 5  3-3.14147771E-01 0.00000000E+00-1.93099289E-02-3.69064459E-01 0.00000000E+00
 5  4-1.46312608E-01 1.13640803E-01 0.00000000E+00-1.29546617E-03 6.87469547E-04
 5  5 0.00000000E+00-2.77512003E-02-1.63541740E-02 0.00000000E+00 1.71591050E-02
 5  6-1.60701710E-02 0.00000000E+00 3.56115498E-03-9.78259507E-05 0.00000000E+00
 5  7 3.44930729E-02-1.46650440E-01 0.00000000E+00 6.59718920E-04 2.96271493E-04
 5  8 0.00000000E+00 3.70745771E-02-1.94574430E-03 0.00000000E+00-1.80272056E-04
 5  9 1.36815980E-04 0.00000000E+00-2.75494660E-02 1.97112952E-02 0.00000000E+00
 5 10-9.77853652E-04-1.55908644E-04 0.00000000E+00 1.97401900E-03 7.12737598E-04
 5 11 0.00000000E+00 5.49852942E-05-1.50032623E-04 0.00000000E+00-3.11890749E-03
 5 12-3.98464657E-03 0.00000000E+00-2.23174701E-04 1.00475431E-04 0.00000000E+00
 6  1 0.00000000E+00 0.00000000E+00-1.22082873E-02 0.00000000E+00 0.00000000E+00
 6  2 2.03229036E-01 0.00000000E+00 0.00000000E+00 1.06603368E-02 0.00000000E+00
 6  3 0.00000000E+00-8.80464807E-02 0.00000000E+00 0.00000000E+00-8.88291555E-02
 6  4 0.00000000E+00 0.00000000E+00 1.07358659E-02 0.00000000E+00 0.00000000E+00
 6  5 1.07500818E-02 0.00000000E+00 0.00000000E+00 4.05469782E-03 0.00000000E+00
 6  6 0.00000000E+00 4.34299185E-03 0.00000000E+00 0.00000000E+00 1.08292839E-02
 6  7 0.00000000E+00 0.00000000E+00-8.30464426E-02 0.00000000E+00 0.00000000E+00
 6  8-1.07017902E-03 0.00000000E+00 0.00000000E+00 4.23814280E-03 0.00000000E+00
 6  9 0.00000000E+00 1.00408955E-04 0.00000000E+00 0.00000000E+00 8.41790660E-03
 6 10 0.00000000E+00 0.00000000E+00-2.58722898E-05 0.00000000E+00 0.00000000E+00
 6 11-1.03692196E-02 0.00000000E+00 0.00000000E+00-7.88821453E-05 0.00000000E+00
 6 12 0.00000000E+00 1.61733954E-02 0.00000000E+00 0.00000000E+00 1.42176006E-04
 7  1-2.61258749E-01-1.45983654E-02 0.00000000E+00-2.83368123E-03 1.88249822E-01
 7  2 0.00000000E+00 8.74918265E-01-7.00374820E-02 0.00000000E+00-1.52963512E-01
 7  3-5.45199653E-02 0.00000000E+00-4.19786466E-01-5.39513519E-02 0.00000000E+00
 7  4 1.41339339E-01-1.02884109E-01 0.00000000E+00-1.27917361E-01 1.26991222E-01
 7  5 0.00000000E+00-4.45982709E-04-1.11795625E-03 0.00000000E+00-1.48928537E-02
 7  6 1.34340259E-02 0.00000000E+00-1.94892662E-03 4.52492627E-03 0.00000000E+00
 7  7 7.10348686E-03 5.05462430E-04 0.00000000E+00-4.42428477E-02-3.80069045E-02
 7  8 0.00000000E+00 3.82198820E-04-2.04106078E-04 0.00000000E+00 2.52261449E-03
 7  9-2.56960285E-03 0.00000000E+00-6.56576753E-04-2.07140130E-03 0.00000000E+00
 7 10 7.95537488E-04 6.96243884E-03 0.00000000E+00 1.37039344E-04 1.21622745E-05
 7 11 0.00000000E+00 5.96474784E-05 3.70266902E-04 0.00000000E+00 1.97274298E-05
 7 12 3.44395857E-05 0.00000000E+00-3.30077572E-04-1.12365377E-03 0.00000000E+00
 8  1-1.78115202E-01-3.14147771E-01 0.00000000E+00 4.69740160E-02 5.00839736E-02
 8  2 0.00000000E+00-7.00374820E-02 9.82940941E-01 0.00000000E+00-5.45199653E-02
 8  3-1.99453814E-02 0.00000000E+00 1.23876849E-01-2.01488673E-01 0.00000000E+00
 8  4 2.71982839E-02-8.29095454E-02 0.00000000E+00 1.27531506E-01-4.25918786E-01
 8  5 0.00000000E+00-9.31212484E-04 1.87359304E-03 0.00000000E+00-3.41898506E-02
 8  6 1.13420339E-02 0.00000000E+00 2.67054680E-03-5.21234683E-03 0.00000000E+00
 8  7 1.93928301E-03-8.40143079E-03 0.00000000E+00-2.42576953E-03 8.90310232E-03
 8  8 0.00000000E+00 1.85814109E-03-1.27841437E-05 0.00000000E+00 2.10856603E-03
 8  9 1.61920542E-03 0.00000000E+00-1.59299204E-03-1.83625706E-04 0.00000000E+00
 8 10 6.63158650E-03-2.91094314E-05 0.00000000E+00 1.18437325E-04 5.17007444E-04
 8 11 0.00000000E+00-2.96708614E-05-3.22959323E-05 0.00000000E+00 3.22371629E-04
 8 12 1.48635431E-04 0.00000000E+00 6.12868425E-04 8.53213918E-04 0.00000000E+00
 9  1 0.00000000E+00 0.00000000E+00-8.80464807E-02 0.00000000E+00 0.00000000E+00
 9  2 1.06603368E-02 0.00000000E+00 0.00000000E+00 1.86575201E-01 0.00000000E+00
 9  3 0.00000000E+00-1.08279617E-02 0.00000000E+00 0.00000000E+00-8.44557478E-02
 9  4 0.00000000E+00 0.00000000E+00 9.90132515E-03 0.00000000E+00 0.00000000E+00
 9  5-5.29295316E-02 0.00000000E+00 0.00000000E+00-9.37579033E-04 0.00000000E+00
 9  6 0.00000000E+00 5.66418722E-03 0.00000000E+00 0.00000000E+00 1.00036161E-02
 9  7 0.00000000E+00 0.00000000E+00 9.05626301E-03 0.00000000E+00 0.00000000E+00
 9  8 5.95311504E-03 0.00000000E+00 0.00000000E+00-1.57907215E-04 0.00000000E+00
 9  9 0.00000000E+00-7.03480441E-04 0.00000000E+00 0.00000000E+00-5.39464143E-04
 9 10 0.00000000E+00 0.00000000E+00 9.88297907E-04 0.00000000E+00 0.00000000E+00
 9 11 2.30462753E-04 0.00000000E+00 0.00000000E+00 1.82244256E-04 0.00000000E+00
 9 12 0.00000000E+00-4.74364866E-04 0.00000000E+00 0.00000000E+00-1.42388880E-04
10  1-2.83368123E-03 1.88249822E-01 0.00000000E+00-2.61258749E-01-1.45983654E-02
10  2 0.00000000E+00-1.52963512E-01-5.45199653E-02 0.00000000E+00 8.74918265E-01
10  3-7.00374820E-02 0.00000000E+00 1.41339339E-01-1.02884109E-01 0.00000000E+00
10  4-4.19786466E-01-5.39513519E-02 0.00000000E+00-4.45982709E-04-1.11795625E-03
10  5 0.00000000E+00-1.27917361E-01 1.26991222E-01 0.00000000E+00-1.94892662E-03
10  6 4.52492627E-03 0.00000000E+00-1.48928537E-02 1.34340259E-02 0.00000000E+00
10  7-4.42428477E-02-3.80069045E-02 0.00000000E+00 7.10348686E-03 5.05462430E-04
10  8 0.00000000E+00 2.52261449E-03-2.56960285E-03 0.00000000E+00 3.82198820E-04
10  9-2.04106078E-04 0.00000000E+00 7.95537488E-04 6.96243884E-03 0.00000000E+00
10 10-6.56576753E-04-2.07140130E-03 0.00000000E+00 5.96474784E-05 3.70266902E-04
10 11 0.00000000E+00 1.37039344E-04 1.21622745E-05 0.00000000E+00-3.30077572E-04
10 12-1.12365377E-03 0.00000000E+00 1.97274298E-05 3.44395857E-05 0.00000000E+00
11  1 4.69740160E-02 5.00839736E-02 0.00000000E+00-1.78115202E-01-3.14147771E-01
11  2 0.00000000E+00-5.45199653E-02-1.99453814E-02 0.00000000E+00-7.00374820E-02
11  3 9.82940941E-01 0.00000000E+00 2.71982839E-02-8.29095454E-02 0.00000000E+00
11  4 1.23876849E-01-2.01488673E-01 0.00000000E+00-9.31212484E-04 1.87359304E-03
11  5 0.00000000E+00 1.27531506E-01-4.25918786E-01 0.00000000E+00 2.67054680E-03
11  6-5.21234683E-03 0.00000000E+00-3.41898506E-02 1.13420339E-02 0.00000000E+00
11  7-2.42576953E-03 8.90310232E-03 0.00000000E+00 1.93928301E-03-8.40143079E-03
11  8 0.00000000E+00 2.10856603E-03 1.61920542E-03 0.00000000E+00 1.85814109E-03
11  9-1.27841437E-05 0.00000000E+00 6.63158650E-03-2.91094314E-05 0.00000000E+00
11 10-1.59299204E-03-1.83625706E-04 0.00000000E+00-2.96708614E-05-3.22959323E-05
11 11 0.00000000E+00 1.18437325E-04 5.17007444E-04 0.00000000E+00 6.12868425E-04
11 12 8.53213918E-04 0.00000000E+00 3.22371629E-04 1.48635431E-04 0.00000000E+00
12  1 0.00000000E+00 0.00000000E+00 1.06603368E-02 0.00000000E+00 0.00000000E+00
12  2-8.80464807E-02 0.00000000E+00 0.00000000E+00-1.08279617E-02 0.00000000E+00
12  3 0.00000000E+00 1.86575201E-01 0.00000000E+00 0.00000000E+00 9.90132515E-03
12  4 0.00000000E+00 0.00000000E+00-8.44557478E-02 0.00000000E+00 0.00000000E+00
12  5-9.37579033E-04 0.00000000E+00 0.00000000E+00-5.29295316E-02 0.00000000E+00
12  6 0.00000000E+00 1.00036161E-02 0.00000000E+00 0.00000000E+00 5.66418722E-03
12  7 0.00000000E+00 0.00000000E+00 5.95311504E-03 0.00000000E+00 0.00000000E+00
12  8 9.05626301E-03 0.00000000E+00 0.00000000E+00-7.03480441E-04 0.00000000E+00
12  9 0.00000000E+00-1.57907215E-04 0.00000000E+00 0.00000000E+00 9.88297907E-04
12 10 0.00000000E+00 0.00000000E+00-5.39464143E-04 0.00000000E+00 0.00000000E+00
12 11 1.82244256E-04 0.00000000E+00 0.00000000E+00 2.30462753E-04 0.00000000E+00
12 12 0.00000000E+00-1.42388880E-04 0.00000000E+00 0.00000000E+00-4.74364866E-04
13  1-6.82390311E-02-1.46312608E-01 0.00000000E+00-2.08255346E-01-1.93099289E-02
13  2 0.00000000E+00-4.19786466E-01 1.23876849E-01 0.00000000E+00 1.41339339E-01
13  3 2.71982839E-02 0.00000000E+00 9.23435260E-01 9.21252755E-02 0.00000000E+00
13  4-1.03808068E-01 8.26442547E-02 0.00000000E+00-6.01335775E-03-7.79499864E-03
13  5 0.00000000E+00-4.26604645E-03-4.78497699E-03 0.00000000E+00-2.31337405E-01
13  6-1.92235337E-01 0.00000000E+00 3.39017648E-04 1.49925831E-03 0.00000000E+00
13  7-2.24564082E-02 3.99406800E-02 0.00000000E+00 5.44432872E-03-8.08411978E-04
13  8 0.00000000E+00-6.57321873E-03 5.90853602E-05 0.00000000E+00 1.49456853E-04
13  9-4.93794097E-05 0.00000000E+00 3.56092383E-03 4.18499935E-03 0.00000000E+00
13 10-2.75125621E-03-1.34739878E-03 0.00000000E+00-1.18846551E-03 1.10650174E-03
13 11 0.00000000E+00 9.06845053E-05-1.28874058E-04 0.00000000E+00 6.12070418E-04
13 12 1.31883540E-04 0.00000000E+00-2.96588628E-04 4.99368146E-06 0.00000000E+00
14  1-6.10793448E-03 1.13640803E-01 0.00000000E+00 1.39244446E-01-3.69064459E-01
14  2 0.00000000E+00-5.39513519E-02-2.01488673E-01 0.00000000E+00-1.02884109E-01
14  3-8.29095454E-02 0.00000000E+00 9.21252755E-02 9.34811700E-01 0.00000000E+00
14  4 8.26442547E-02-6.49434842E-02 0.00000000E+00 3.93676451E-02 2.84727948E-03
14  5 0.00000000E+00-2.86650878E-03-2.89652121E-03 0.00000000E+00-1.91240166E-01
14  6-3.25211307E-01 0.00000000E+00 1.45531877E-03 1.02044204E-03 0.00000000E+00
14  7 1.66424021E-02 2.32091520E-03 0.00000000E+00-6.77912534E-03-5.32721338E-03
14  8 0.00000000E+00-1.81597231E-03 3.13700740E-04 0.00000000E+00 1.81912173E-04
14  9-2.35333420E-04 0.00000000E+00-5.23292261E-03-3.85664958E-03 0.00000000E+00
14 10 7.51180633E-04 1.83301963E-03 0.00000000E+00-8.98263869E-04 2.36525759E-04
14 11 0.00000000E+00 1.34546420E-04-2.61037300E-04 0.00000000E+00-2.79793813E-04
14 12-5.76555982E-04 0.00000000E+00-4.90469063E-04-2.53733512E-04 0.00000000E+00
15  1 0.00000000E+00 0.00000000E+00 1.07358659E-02 0.00000000E+00 0.00000000E+00
15  2-8.88291555E-02 0.00000000E+00 0.00000000E+00-8.44557478E-02 0.00000000E+00
15  3 0.00000000E+00 9.90132515E-03 0.00000000E+00 0.00000000E+00 1.86846162E-01
15  4 0.00000000E+00 0.00000000E+00-1.00156074E-02 0.00000000E+00 0.00000000E+00
15  5 5.26719830E-03 0.00000000E+00 0.00000000E+00 9.59706172E-03 0.00000000E+00
15  6 0.00000000E+00-5.34342915E-02 0.00000000E+00 0.00000000E+00-9.58300841E-04
15  7 0.00000000E+00 0.00000000E+00 4.71766202E-03 0.00000000E+00 0.00000000E+00
15  8 9.46783626E-03 0.00000000E+00 0.00000000E+00 2.10603546E-03 0.00000000E+00
15  9 0.00000000E+00-6.34175812E-05 0.00000000E+00 0.00000000E+00 3.58494724E-04
15 10 0.00000000E+00 0.00000000E+00-2.40714086E-04 0.00000000E+00 0.00000000E+00
15 11 2.31627300E-04 0.00000000E+00 0.00000000E+00 3.46725663E-04 0.00000000E+00
15 12 0.00000000E+00-5.42266217E-04 0.00000000E+00 0.00000000E+00-1.03644697E-03
16  1-2.08255346E-01-1.93099289E-02 0.00000000E+00-6.82390311E-02-1.46312608E-01
16  2 0.00000000E+00 1.41339339E-01 2.71982839E-02 0.00000000E+00-4.19786466E-01
16  3 1.23876849E-01 0.00000000E+00-1.03808068E-01 8.26442547E-02 0.00000000E+00
16  4 9.23435260E-01 9.21252755E-02 0.00000000E+00-4.26604645E-03-4.78497699E-03
16  5 0.00000000E+00-6.01335775E-03-7.79499864E-03 0.00000000E+00 3.39017648E-04
16  6 1.49925831E-03 0.00000000E+00-2.31337405E-01-1.92235337E-01 0.00000000E+00
16  7 5.44432872E-03-8.08411978E-04 0.00000000E+00-2.24564082E-02 3.99406800E-02
16  8 0.00000000E+00 1.49456853E-04-4.93794097E-05 0.00000000E+00-6.57321873E-03
16  9 5.90853602E-05 0.00000000E+00-2.75125621E-03-1.34739878E-03 0.00000000E+00
16 10 3.56092383E-03 4.18499935E-03 0.00000000E+00 9.06845053E-05-1.28874058E-04
16 11 0.00000000E+00-1.18846551E-03 1.10650174E-03 0.00000000E+00-2.96588628E-04
16 12 4.99368146E-06 0.00000000E+00 6.12070418E-04 1.31883540E-04 0.00000000E+00
17  1 1.39244446E-01-3.69064459E-01 0.00000000E+00-6.10793448E-03 1.13640803E-01
17  2 0.00000000E+00-1.02884109E-01-8.29095454E-02 0.00000000E+00-5.39513519E-02
17  3-2.01488673E-01 0.00000000E+00 8.26442547E-02-6.49434842E-02 0.00000000E+00
17  4 9.21252755E-02 9.34811700E-01 0.00000000E+00-2.86650878E-03-2.89652121E-03
17  5 0.00000000E+00 3.93676451E-02 2.84727948E-03 0.00000000E+00 1.45531877E-03
17  6 1.02044204E-03 0.00000000E+00-1.91240166E-01-3.25211307E-01 0.00000000E+00
17  7-6.77912534E-03-5.32721338E-03 0.00000000E+00 1.66424021E-02 2.32091520E-03
17  8 0.00000000E+00 1.81912173E-04-2.35333420E-04 0.00000000E+00-1.81597231E-03
17  9 3.13700740E-04 0.00000000E+00 7.51180633E-04 1.83301963E-03 0.00000000E+00
17 10-5.23292261E-03-3.85664958E-03 0.00000000E+00 1.34546420E-04-2.61037300E-04
17 11 0.00000000E+00-8.98263869E-04 2.36525759E-04 0.00000000E+00-4.90469063E-04
17 12-2.53733512E-04 0.00000000E+00-2.79793813E-04-5.76555982E-04 0.00000000E+00
18  1 0.00000000E+00 0.00000000E+00-8.88291555E-02 0.00000000E+00 0.00000000E+00
18  2 1.07358659E-02 0.00000000E+00 0.00000000E+00 9.90132515E-03 0.00000000E+00
18  3 0.00000000E+00-8.44557478E-02 0.00000000E+00 0.00000000E+00-1.00156074E-02
18  4 0.00000000E+00 0.00000000E+00 1.86846162E-01 0.00000000E+00 0.00000000E+00
18  5 9.59706172E-03 0.00000000E+00 0.00000000E+00 5.26719830E-03 0.00000000E+00
18  6 0.00000000E+00-9.58300841E-04 0.00000000E+00 0.00000000E+00-5.34342915E-02
18  7 0.00000000E+00 0.00000000E+00 9.46783626E-03 0.00000000E+00 0.00000000E+00
18  8 4.71766202E-03 0.00000000E+00 0.00000000E+00-6.34175812E-05 0.00000000E+00
18  9 0.00000000E+00 2.10603546E-03 0.00000000E+00 0.00000000E+00-2.40714086E-04
18 10 0.00000000E+00 0.00000000E+00 3.58494724E-04 0.00000000E+00 0.00000000E+00
18 11 3.46725663E-04 0.00000000E+00 0.00000000E+00 2.31627300E-04 0.00000000E+00
18 12 0.00000000E+00-1.03644697E-03 0.00000000E+00 0.00000000E+00-5.42266217E-04
19  1 1.27614543E-02-2.77512003E-02 0.00000000E+00-6.64730902E-03-1.29546617E-03
19  2 0.00000000E+00-1.27917361E-01 1.27531506E-01 0.00000000E+00-4.45982709E-04
19  3-9.31212484E-04 0.00000000E+00-6.01335775E-03 3.93676451E-02 0.00000000E+00
19  4-4.26604645E-03-2.86650878E-03 0.00000000E+00 1.28300337E-01-1.32970776E-01
19  5 0.00000000E+00 1.08011033E-04 2.27424031E-04 0.00000000E+00 2.37607982E-03
19  6-8.08080842E-05 0.00000000E+00 7.37645019E-04-1.27782469E-03 0.00000000E+00
19  7 2.37081424E-04 1.63695819E-03 0.00000000E+00 1.65439614E-03-1.85021945E-03
19  8 0.00000000E+00-5.11750223E-04 4.34157885E-05 0.00000000E+00-3.68705603E-04
19  9-7.49262825E-05 0.00000000E+00 4.91273761E-05 5.38905428E-05 0.00000000E+00
19 10-7.57311176E-05 2.14045425E-04 0.00000000E+00-3.83010113E-05 5.14522233E-05
19 11 0.00000000E+00 6.38132978E-05 3.67045713E-05 0.00000000E+00 4.80008687E-06
19 12-6.37196182E-05 0.00000000E+00-8.20424714E-06-3.31103466E-07 0.00000000E+00
20  1 1.63627158E-02-1.63541740E-02 0.00000000E+00 5.10651151E-04 6.87469547E-04
20  2 0.00000000E+00 1.26991222E-01-4.25918786E-01 0.00000000E+00-1.11795625E-03
20  3 1.87359304E-03 0.00000000E+00-7.79499864E-03 2.84727948E-03 0.00000000E+00
20  4-4.78497699E-03-2.89652121E-03 0.00000000E+00-1.32970776E-01 4.36771483E-01
20  5 0.00000000E+00 2.27424031E-04-3.47664813E-04 0.00000000E+00-1.45852000E-04
20  6 1.49234871E-03 0.00000000E+00 8.35638630E-04-7.34488628E-04 0.00000000E+00
20  7-1.99533933E-04 3.08412680E-04 0.00000000E+00 2.04126693E-03 2.08531643E-03
20  8 0.00000000E+00-1.40461062E-05 1.44884356E-05 0.00000000E+00-2.56076308E-04
20  9 1.53772430E-04 0.00000000E+00 9.04867237E-05-5.74542004E-05 0.00000000E+00
20 10 2.92141746E-04 1.15038438E-04 0.00000000E+00 3.10786148E-05-2.93955676E-05
20 11 0.00000000E+00 7.69343213E-05-1.09849368E-04 0.00000000E+00-4.34859679E-05
20 12 2.82948111E-05 0.00000000E+00-1.31867575E-04 7.08262407E-05 0.00000000E+00
21  1 0.00000000E+00 0.00000000E+00 4.05469782E-03 0.00000000E+00 0.00000000E+00
21  2 1.07500818E-02 0.00000000E+00 0.00000000E+00-5.29295316E-02 0.00000000E+00
21  3 0.00000000E+00-9.37579033E-04 0.00000000E+00 0.00000000E+00 5.26719830E-03
21  4 0.00000000E+00 0.00000000E+00 9.59706172E-03 0.00000000E+00 0.00000000E+00
21  5 3.67033826E-02 0.00000000E+00 0.00000000E+00-1.25808545E-03 0.00000000E+00
21  6 0.00000000E+00-6.38403726E-03 0.00000000E+00 0.00000000E+00-9.68656707E-05
21  7 0.00000000E+00 0.00000000E+00-7.39578067E-05 0.00000000E+00 0.00000000E+00
21  8-5.03901801E-03 0.00000000E+00 0.00000000E+00-1.85423584E-04 0.00000000E+00
21  9 0.00000000E+00-2.48696142E-05 0.00000000E+00 0.00000000E+00 2.43385347E-05
21 10 0.00000000E+00 0.00000000E+00 2.45885016E-04 0.00000000E+00 0.00000000E+00
21 11 7.83150761E-06 0.00000000E+00 0.00000000E+00-1.34772471E-04 0.00000000E+00
21 12 0.00000000E+00 2.39035971E-05 0.00000000E+00 0.00000000E+00 3.89796107E-04
22  1-6.64730902E-03-1.29546617E-03 0.00000000E+00 1.27614543E-02-2.77512003E-02
22  2 0.00000000E+00-4.45982709E-04-9.31212484E-04 0.00000000E+00-1.27917361E-01
22  3 1.27531506E-01 0.00000000E+00-4.26604645E-03-2.86650878E-03 0.00000000E+00
22  4-6.01335775E-03 3.93676451E-02 0.00000000E+00 1.08011033E-04 2.27424031E-04
22  5 0.00000000E+00 1.28300337E-01-1.32970776E-01 0.00000000E+00 7.37645019E-04
22  6-1.27782469E-03 0.00000000E+00 2.37607982E-03-8.08080842E-05 0.00000000E+00
22  7 1.65439614E-03-1.85021945E-03 0.00000000E+00 2.37081424E-04 1.63695819E-03
22  8 0.00000000E+00-3.68705603E-04-7.49262825E-05 0.00000000E+00-5.11750223E-04
22  9 4.34157885E-05 0.00000000E+00-7.57311176E-05 2.14045425E-04 0.00000000E+00
22 10 4.91273761E-05 5.38905428E-05 0.00000000E+00 6.38132978E-05 3.67045713E-05
22 11 0.00000000E+00-3.83010113E-05 5.14522233E-05 0.00000000E+00-8.20424714E-06
22 12-3.31103466E-07 0.00000000E+00 4.80008687E-06-6.37196182E-05 0.00000000E+00
23  1 5.10651151E-04 6.87469547E-04 0.00000000E+00 1.63627158E-02-1.63541740E-02
23  2 0.00000000E+00-1.11795625E-03 1.87359304E-03 0.00000000E+00 1.26991222E-01
23  3-4.25918786E-01 0.00000000E+00-4.78497699E-03-2.89652121E-03 0.00000000E+00
23  4-7.79499864E-03 2.84727948E-03 0.00000000E+00 2.27424031E-04-3.47664813E-04
23  5 0.00000000E+00-1.32970776E-01 4.36771483E-01 0.00000000E+00 8.35638630E-04
23  6-7.34488628E-04 0.00000000E+00-1.45852000E-04 1.49234871E-03 0.00000000E+00
23  7 2.04126693E-03 2.08531643E-03 0.00000000E+00-1.99533933E-04 3.08412680E-04
23  8 0.00000000E+00-2.56076308E-04 1.53772430E-04 0.00000000E+00-1.40461062E-05
23  9 1.44884356E-05 0.00000000E+00 2.92141746E-04 1.15038438E-04 0.00000000E+00
23 10 9.04867237E-05-5.74542004E-05 0.00000000E+00 7.69343213E-05-1.09849368E-04
23 11 0.00000000E+00 3.10786148E-05-2.93955676E-05 0.00000000E+00-1.31867575E-04
23 12 7.08262407E-05 0.00000000E+00-4.34859679E-05 2.82948111E-05 0.00000000E+00
24  1 0.00000000E+00 0.00000000E+00 1.07500818E-02 0.00000000E+00 0.00000000E+00
24  2 4.05469782E-03 0.00000000E+00 0.00000000E+00-9.37579033E-04 0.00000000E+00
24  3 0.00000000E+00-5.29295316E-02 0.00000000E+00 0.00000000E+00 9.59706172E-03
24  4 0.00000000E+00 0.00000000E+00 5.26719830E-03 0.00000000E+00 0.00000000E+00
24  5-1.25808545E-03 0.00000000E+00 0.00000000E+00 3.67033826E-02 0.00000000E+00
24  6 0.00000000E+00-9.68656707E-05 0.00000000E+00 0.00000000E+00-6.38403726E-03
24  7 0.00000000E+00 0.00000000E+00-5.03901801E-03 0.00000000E+00 0.00000000E+00
24  8-7.39578067E-05 0.00000000E+00 0.00000000E+00-2.48696142E-05 0.00000000E+00
24  9 0.00000000E+00-1.85423584E-04 0.00000000E+00 0.00000000E+00 2.45885016E-04
24 10 0.00000000E+00 0.00000000E+00 2.43385347E-05 0.00000000E+00 0.00000000E+00
24 11-1.34772471E-04 0.00000000E+00 0.00000000E+00 7.83150761E-06 0.00000000E+00
24 12 0.00000000E+00 3.89796107E-04 0.00000000E+00 0.00000000E+00 2.39035971E-05
25  1-5.59804508E-03 3.56115498E-03 0.00000000E+00 1.58418642E-02 1.71591050E-02
25  2 0.00000000E+00-1.48928537E-02-3.41898506E-02 0.00000000E+00-1.94892662E-03
25  3 2.67054680E-03 0.00000000E+00-2.31337405E-01-1.91240166E-01 0.00000000E+00
25  4 3.39017648E-04 1.45531877E-03 0.00000000E+00 2.37607982E-03-1.45852000E-04
25  5 0.00000000E+00 7.37645019E-04 8.35638630E-04 0.00000000E+00 2.38778942E-01
25  6 2.00545189E-01 0.00000000E+00-7.83410210E-05-3.26890024E-04 0.00000000E+00
25  7 2.97305489E-04-1.57452420E-03 0.00000000E+00-3.02734021E-04-1.65637421E-03
25  8 0.00000000E+00 1.15123716E-05-1.46010697E-05 0.00000000E+00 2.56733934E-06
25  9-2.19242393E-05 0.00000000E+00-1.29598568E-03 1.61092403E-03 0.00000000E+00
25 10-4.31619156E-04 3.67289761E-04 0.00000000E+00-2.64841359E-03 1.23930926E-03
25 11 0.00000000E+00-5.91446303E-06 4.29609835E-05 0.00000000E+00 1.86531750E-04
25 12-1.79818108E-04 0.00000000E+00-3.13154680E-05-1.37485505E-04 0.00000000E+00
26  1 1.57081703E-03-9.78259507E-05 0.00000000E+00-2.65264829E-02-1.60701710E-02
26  2 0.00000000E+00 1.34340259E-02 1.13420339E-02 0.00000000E+00 4.52492627E-03
26  3-5.21234683E-03 0.00000000E+00-1.92235337E-01-3.25211307E-01 0.00000000E+00
26  4 1.49925831E-03 1.02044204E-03 0.00000000E+00-8.08080842E-05 1.49234871E-03
26  5 0.00000000E+00-1.27782469E-03-7.34488628E-04 0.00000000E+00 2.00545189E-01
26  6 3.30467733E-01 0.00000000E+00-3.26890024E-04-1.63500791E-04 0.00000000E+00
26  7-1.46292468E-03 1.57365700E-03 0.00000000E+00 3.67912872E-04 4.43713410E-04
26  8 0.00000000E+00-1.01666933E-04 1.57223599E-04 0.00000000E+00-3.62396734E-05
26  9 2.46359976E-05 0.00000000E+00-4.31504184E-04 8.83234668E-05 0.00000000E+00
26 10 8.88164355E-05-5.51663378E-05 0.00000000E+00 3.80491909E-04 6.28943665E-04
26 11 0.00000000E+00-1.26108915E-05 2.08557993E-05 0.00000000E+00 2.25376291E-05
26 12 2.59295412E-04 0.00000000E+00 5.82042844E-05 2.55860201E-05 0.00000000E+00
27  1 0.00000000E+00 0.00000000E+00 1.08292839E-02 0.00000000E+00 0.00000000E+00
27  2 4.34299185E-03 0.00000000E+00 0.00000000E+00 5.66418722E-03 0.00000000E+00
27  3 0.00000000E+00 1.00036161E-02 0.00000000E+00 0.00000000E+00-5.34342915E-02
27  4 0.00000000E+00 0.00000000E+00-9.58300841E-04 0.00000000E+00 0.00000000E+00
27  5-6.38403726E-03 0.00000000E+00 0.00000000E+00-9.68656707E-05 0.00000000E+00
27  6 0.00000000E+00 3.58547340E-02 0.00000000E+00 0.00000000E+00-1.38004739E-03
27  7 0.00000000E+00 0.00000000E+00-5.11618451E-03 0.00000000E+00 0.00000000E+00
27  8-1.99846637E-04 0.00000000E+00 0.00000000E+00 2.57209453E-05 0.00000000E+00
27  9 0.00000000E+00 1.42035255E-05 0.00000000E+00 0.00000000E+00 3.09999617E-04
27 10 0.00000000E+00 0.00000000E+00-8.52789352E-05 0.00000000E+00 0.00000000E+00
27 11 3.97011436E-04 0.00000000E+00 0.00000000E+00-2.13648014E-05 0.00000000E+00
27 12 0.00000000E+00 2.08821158E-04 0.00000000E+00 0.00000000E+00 2.56156276E-05
28  1 1.58418642E-02 1.71591050E-02 0.00000000E+00-5.59804508E-03 3.56115498E-03
28  2 0.00000000E+00-1.94892662E-03 2.67054680E-03 0.00000000E+00-1.48928537E-02
28  3-3.41898506E-02 0.00000000E+00 3.39017648E-04 1.45531877E-03 0.00000000E+00