%mem=2800MB
%nprocshared=4
%chk=BSL_opt_freq_DFT.chk
# opt freq rb3lyp/6-311++g(3df,3pd) geom=connectivity

BenzeneSelenol rb3lyp/6-311++g(3df,3pd)

0 1
 C                 -2.89824687   -0.00233690    0.00407979
 C                 -2.20110587    1.20427657   -0.03738778
 C                 -0.80680301    1.20847251   -0.04207404
 C                 -0.10598800    0.00030600    0.00497800
 C                 -0.80441513   -1.20928578    0.04103186
 C                 -2.19910287   -1.20752072    0.04123846
 H                 -3.98978249   -0.00323448    0.00435505
 H                 -2.74390344    2.15073101   -0.07049588
 H                 -0.25959615    2.15143883   -0.08256300
 H                 -0.25533702   -2.15154247    0.07059511
 H                 -2.74005799   -2.15513767    0.07078971
 Se                 1.82625500   -0.00367200   -0.04339300
 H                  1.97993148    1.08839585    0.93442872

 1 2 1.5 6 1.5 7 1.0
 2 3 1.5 8 1.0
 3 4 1.5 9 1.0
 4 5 1.5 12 1.0
 5 6 1.5 10 1.0
 6 11 1.0
 7
 8
 9
 10
 11
 12 13 1.0
 13
