 $contrl scftyp=rhf cctyp=ccsd runtyp=energy exetyp=run
         units=angs
         AIMPAC=.t. $end
 $basis  gbasis=n31 ngauss=6 ndfunc=1 npfunc=1 $end
 $data
water
C1
 O   8    0.000000    0.000000    0.000000
 H   1    0.990000    0.000000    0.000000
 H   1   -0.272881    0.951649    0.000000
 $end
 
