molecule h2o {
0 1
O -1.551007 -0.114520 0.000000
H -1.934259 0.762503 0.000000
H -0.599677 0.040712 0.000000
--
0 1
O 1.350625 0.111469 0.000000
H 1.680398 -0.373741 -0.758561
H 1.680398 -0.373741 0.758561

units angstrom
}
set {
basis aug-cc-pvtz
guess sad
scf_type df
freeze_core true
}
energy('mp2',bsse_type='cp')
