 $CONTRL COORD=PRINAXIS UNITS=ANGS
         SCFTYP=RHF RUNTYP=ENERGY ISPHER=1 NPRINT=3 $END
 $BASIS  GBASIS=ACCQC $END
 $GUESS  GUESS=HUCKEL $END
 $DATA
c atom
dnh  2

 C           6.0  -1.4152533224   0.2302217854   0.0000000000
 $END
