 $CONTRL RUNTYP=HESSIAN $END
 $DFT  DFTTYP=B3LYP $END
 $CONTRL ICHARG=0  MULT=1 $END
 $BASIS GBASIS=STO NGAUSS=3 $END
 $DATA
divinylbenzene restricted single point calc
Cnh 2

C           6.0  -3.8864703260   0.3629442812   0.0000000000
C           6.0   2.8846553592   0.5337127098   0.0000000000
C           6.0   1.4168675417   0.2341507816  -0.0000000000
C           6.0   0.4900320751   1.3135419193   0.0000000000
C           6.0  -0.8940978749   1.0875715169   0.0000000000
H           1.0  -4.9353324204   0.0437277941   0.0000000000
H           1.0  -3.7115421011   1.4452032052  -0.0000000000
H           1.0   3.1289436750   1.6068047900   0.0000000000
H           1.0   0.8722227706   2.3437686653   0.0000000000
H           1.0  -1.5794301627   1.9451123572   0.0000000000
 $END
