 $SYSTEM MWORDS=50 $END
 $CONTRL DFTTYP=B3LYP TDDFT=EXCITE $END
 $CONTRL ICHARG=0  MULT=1 $END
 $BASIS GBASIS=STO NGAUSS=3 $END
 $TDDFT NSTATE=10 $END
 $DATA
divinylbenzene restricted TDDFT calc
Cnh 2

C  6.000000 -3.881780 0.364193 0.000000
C  6.000000 2.882128 0.534508 0.000000
C  6.000000 1.414167 0.236806 0.000000
C  6.000000 0.489011 1.316751 0.000000
C  6.000000 -0.894476 1.086798 0.000000
H  1.000000 -4.931923 0.048154 0.000000
H  1.000000 -3.701442 1.445229 0.000000
H  1.000000 3.132893 1.606558 0.000000
H  1.000000 0.868635 2.347802 0.000000
H  1.000000 -1.586939 1.937642 0.000000
 $END
