 $CONTRL COORD=PRINAXIS UNITS=ANGS
         SCFTYP=RHF RUNTYP=ENERGY ISPHER=1 NPRINT=3 
         AIMPAC=.t.  $END
 $BASIS  GBASIS=ACCQC $END
 $GUESS  GUESS=HUCKEL $END
 $DATA
c atom
C1	
 C           6.0  0.0000000000   0.0000000000   0.0000000000
 $END
