molecule water {
0 1
O
H 1 0.99
H 1 0.99 2 106.0
}

set {
    basis sto-3g
}

findif_grad = gradient('mp2', dertype=0)
