$molecule
 0 1
 O
 H 1 R1
 H 1 R1 2 A1

 R1=0.99
 A1=106.0
$end

$rem
 method = hf
 basis = sto-3g
 gui = 2
 solvent_method = pcm
$end

$solvent
dielectric 2.3741
$end

$pcm
theory cosmo
$end
