 $CONTRL SCFTYP=RHF RUNTYP=ENERGY $END
 $BASIS  GBASIS=tzv NDFUNC=3 NFFUNC=1 DIFFSP=.true. $END
 $GUESS  GUESS=HUCKEL $END
 $DATA
C atom
C1
 C           6.0  -1.4152533224   0.2302217854   0.0000000000
 $END
