 $contrl scftyp=rhf mplevl=2
         runtyp=energy exetyp=run
         units=angs coord=zmt
         nprint=9 $end
 $mp2    mp2prp=.t. $end
 $basis  gbasis=sto ngauss=3 $end
 $data
water
C1 1
 O
 H 1 0.99
 H 1 0.99 2 106.0
 $end
 
 
