$comment
 Water, frequencies (analytic), RB3LYP/STO-3G
 with anharmonic corrections via VPT2
$end

$rem
 jobtype = freq
 method = b3lyp
 basis = sto-3g
 anhar = true
$end

$molecule
 0 1
 O
 H 1 R1
 H 1 R1 2 A1

 R1=0.99
 A1=106.0
$end
