#p HF/aug-cc-pVQZ pop=full iop(3/33=1,3/36=-1) gfinput

Title card required

0 1
 C	0.0	0.0	0.0

