%chk=PhCCCC.chk
%mem=100MB
%nproc=1
#p b3lyp/sto-3g guess=read geom=allcheck pop=full iop(3/33=1,3/36=-1)
