%NProcShared=2
%chk=water-pes
#n B3LYP/6-31G(d) Scan

 Title

0 1
O  
H   1 B
H   1 B 2 A
Variables:
B        0.9 5 0.02
A      90.0 4 5.0

