 $CONTRL SCFTYP=RHF RUNTYP=HESSIAN $END
 $SYSTEM timlim=1 $END
 $BASIS  GBASIS=AM1 $END
 $DATA
ammonia...at the planar transition state
C1
NITROGEN    7.0   0.0000000000   0.0000000000   0.0000000000
HYDROGEN    1.0  -0.4882960784   0.8457536168   0.0000000000
HYDROGEN    1.0  -0.4882960784  -0.8457536168   0.0000000000
HYDROGEN    1.0   0.9765921567   0.0000000000   0.0000000000
 $END
