 $basis gbasis=n31 ngauss=6 ndfunc=1 $end
 $contrl scftyp=rhf runtyp=tdhf $end
 $dft dfttyp=b3lyp $end
 $scf dirscf=.true. $end

 $data
trithiolane static polarizability
C1
S     16.0     -1.7195600000   -0.0000800000   -0.0000900000 
S     16.0      1.1339700000    0.9962300000    0.3237800000 
S     16.0      1.1339500000   -0.9962400000   -0.3238800000 
C      6.0     -0.5126400000    1.3493400000   -0.3893000000 
C      6.0     -0.5125100000   -1.3491900000    0.3896100000 
H      1.0     -0.4386200000    1.4679200000   -1.4714400000 
H      1.0     -0.8730100000    2.2757800000    0.0667100000 
H      1.0     -0.4382200000   -1.4673000000    1.4717800000 
H      1.0     -0.8729900000   -2.2758300000   -0.0658900000 
 $end
