! TightSCF B3LYP STO-3G RIJCOSX AutoAux

% rocis
    NRoots  5
    MaxCore 2500
    MaxDim  50
    DoRI    true
    SOC     true
    DoHigherMult true
    DoDFTCIS   	true
    DoQuad      true
    DFTCIS_c = 0.21, 0.49, 0.29
    OrbWin = 0, 0, 0, 2000
end

* xyz 0 2
    B   0   0   0
*
