Jobname.Temp
SP        R                             aug-cc-pVQZ         
Number of atoms                            I                1
Charge                                     I                0
Multiplicity                               I                1
Number of electrons                        I                6
Number of alpha electrons                  I                3
Number of beta electrons                   I                3
Atomic numbers                             I   N=           1
           6
Current cartesian coordinates              R   N=           3
 -5.55111512E-17  0.00000000E+00  0.00000000E+00
Nuclear charges                            R   N=           1
  6.00000000E+00
Number of basis functions                  I               80
Number of contracted shells                I               20
Number of primitive shells                 I               38
Highest angular momentum                   I                4
Largest degree of contraction              I                9
Shell types                                I   N=          20
           0           0           0           0           0           0
           1           1           1           1           1          -2
          -2          -2          -2          -3          -3          -3
          -4          -4
Number of primitives per shell             I   N=          20
           9           9           1           1           1           1
           3           1           1           1           1           1
           1           1           1           1           1           1
           1           1
Shell to atom map                          I   N=          20
           1           1           1           1           1           1
           1           1           1           1           1           1
           1           1           1           1           1           1
           1           1
Primitive exponents                        R   N=          38
  3.39800000E+04  5.08900000E+03  1.15700000E+03  3.26600000E+02  1.06100000E+02
  3.81100000E+01  1.47500000E+01  6.03500000E+00  2.53000000E+00  3.39800000E+04
  5.08900000E+03  1.15700000E+03  3.26600000E+02  1.06100000E+02  3.81100000E+01
  1.47500000E+01  6.03500000E+00  2.53000000E+00  7.35500000E-01  2.90500000E-01
  1.11100000E-01  4.14500000E-02  3.45100000E+01  7.91500000E+00  2.36800000E+00
  8.13200000E-01  2.89000000E-01  1.00700000E-01  3.21800000E-02  1.84800000E+00
  6.49000000E-01  2.28000000E-01  7.66000000E-02  1.41900000E+00  4.85000000E-01
  1.87000000E-01  1.01100000E+00  4.24000000E-01
Contraction coefficients                   R   N=          38
  9.16345457E-05  7.08909013E-04  3.71875140E-03  1.54671057E-02  5.32980755E-02
  1.48068335E-01  3.07762174E-01  4.02129645E-01  2.18564503E-01 -5.57103602E-05
 -4.42750757E-04 -2.30171751E-03 -9.74638091E-03 -3.37546140E-02 -1.00161363E-01
 -2.26280823E-01 -4.14875052E-01 -3.46046369E-01  1.00000000E+00  1.00000000E+00
  1.00000000E+00  1.00000000E+00  3.16878552E-02  2.12894307E-01  8.39586752E-01
  1.00000000E+00  1.00000000E+00  1.00000000E+00  1.00000000E+00  1.00000000E+00
  1.00000000E+00  1.00000000E+00  1.00000000E+00  1.00000000E+00  1.00000000E+00
  1.00000000E+00  1.00000000E+00  1.00000000E+00
Coordinates of each shell                  R   N=          60
 -5.55111512E-17  0.00000000E+00  0.00000000E+00 -5.55111512E-17  0.00000000E+00
  0.00000000E+00 -5.55111512E-17  0.00000000E+00  0.00000000E+00 -5.55111512E-17
  0.00000000E+00  0.00000000E+00 -5.55111512E-17  0.00000000E+00  0.00000000E+00
 -5.55111512E-17  0.00000000E+00  0.00000000E+00 -5.55111512E-17  0.00000000E+00
  0.00000000E+00 -5.55111512E-17  0.00000000E+00  0.00000000E+00 -5.55111512E-17
  0.00000000E+00  0.00000000E+00 -5.55111512E-17  0.00000000E+00  0.00000000E+00
 -5.55111512E-17  0.00000000E+00  0.00000000E+00 -5.55111512E-17  0.00000000E+00
  0.00000000E+00 -5.55111512E-17  0.00000000E+00  0.00000000E+00 -5.55111512E-17
  0.00000000E+00  0.00000000E+00 -5.55111512E-17  0.00000000E+00  0.00000000E+00
 -5.55111512E-17  0.00000000E+00  0.00000000E+00 -5.55111512E-17  0.00000000E+00
  0.00000000E+00 -5.55111512E-17  0.00000000E+00  0.00000000E+00 -5.55111512E-17
  0.00000000E+00  0.00000000E+00 -5.55111512E-17  0.00000000E+00  0.00000000E+00
Orthonormalization Matrix                  R   N=        3240
  7.20844243E-27  1.42028444E-31 -1.44974340E-31  4.23011247E-32 -1.93697711E-31
  7.18047501E+00  8.52275132E-32  1.18733863E-26  1.07592296E+00  6.82577867E+00
  1.06743568E-26 -1.95807137E-31  6.94898998E-27  4.33506832E-01 -9.11570185E-01
  3.10518406E-31  5.10257897E-32  1.05635671E-26  4.20142843E-32 -7.51025622E-32
 -1.20369553E-01  2.49601288E-31 -1.02771388E-15  7.70261027E-16  3.15363520E-16
  4.90805096E-16 -1.25585297E-15 -2.78172834E-16  1.47202939E-14 -6.69558169E-31
  1.74708280E-16  5.05741562E-16 -3.32525404E-16 -6.26230088E-16 -9.11570185E-01
 -1.18838421E+00  2.25586887E-15  1.46094552E-30  3.85648933E-16 -7.39439672E-16
 -3.87939296E-16  6.82577867E+00  4.19660343E+00 -2.53088427E+00  6.55577791E-01
  1.70171131E+00  8.10359629E+00 -3.63099139E-31  6.23168938E-31 -9.69483676E-16
  1.14656631E-30 -8.50119717E-30 -3.81167185E-30 -1.18380198E-30 -6.35663175E-31
  2.79295254E-31  5.16784522E-26 -5.76419124E-31  5.19885808E-15  1.21044457E-30
  1.58315287E-30 -1.49982890E-30  6.44411083E-31 -1.67865735E-16 -7.00320029E-17
  4.12433252E-16  3.52659691E-26 -4.23036770E-31  6.31122034E-31  2.53905255E-18
  4.23070460E-31 -5.89722894E-17 -7.81604176E-17  3.34970793E-16 -6.77243838E-16
 -2.05117502E-31  8.12182707E-31  1.37637604E-30  5.39500231E-01 -1.18838421E+00
 -1.08475468E-30 -8.19122317E-15 -9.11312949E-31  1.59747197E-30  1.21936318E-29
  1.51514985E-29 -6.92817361E-30 -1.42435749E-14 -5.93712241E-31 -1.70553265E-31
  7.00165888E-31  5.80877459E-26 -7.18777897E-32  8.39928673E-31  7.19036785E-31
  5.04810238E-16  1.56901757E-30  1.11994825E-17  2.53150474E-30 -2.17261616E-16
  1.41468947E-15  3.50076840E-17 -2.12714161E+00 -1.15459877E-15 -1.15333880E-15
  2.27553924E-31 -1.67586112E-31  6.74074947E-33 -2.75852434E-30  4.66201899E-31
 -1.95493937E-17  8.08812895E-16  5.52695545E-16 -5.88732917E-17 -2.53552448E-31
  2.86260139E-16  4.66289739E-16  1.53494915E-25  4.72409358E-32 -2.21594897E-31
  3.39967819E-26 -1.46953076E-01 -1.50655109E-30 -1.02298864E-30  9.99179095E-31
  1.42946550E-14 -4.18190739E-30  1.60864670E-16 -2.28177844E-30  5.34720495E-15
 -1.17335495E-30  4.03870913E-31 -1.67658891E-15  4.00570530E-31  1.78236104E-30
 -1.25771749E-30  2.84090875E-31 -3.05214772E-31  7.11835123E-31  1.73725086E-17
 -1.84003176E-30  1.21025366E-30  1.57493889E-29  5.77406228E-31  4.14260289E-16
  2.16509398E-16 -6.16051769E-16  4.48744871E-32 -5.23838437E-16 -4.44205633E-16
 -2.14789302E-01 -4.35943433E-18  5.23326641E-16  3.52269157E-31  1.19139750E-31
  4.79116159E-16  1.37946014E-15 -2.35006184E-31 -3.00378381E-31  1.59301634E-17
  4.61886026E-16 -1.50493465E-15  9.31886644E-26 -7.17438290E-16 -3.84274131E-16
  1.37987889E-25 -5.93166049E-17  3.83274922E-16  3.97217551E-31 -2.23553348E-31
  2.26991723E-31 -1.00753539E-31 -5.76868314E-32  4.36947170E-31 -1.66481726E-15
 -1.36564451E-14  2.17476071E-15 -5.09425171E-30 -7.33557385E-30  6.06933768E-30
  4.80360108E-16 -6.48260941E-31  1.18992192E-31  6.88785546E-31  8.34272616E-32
 -9.84325606E-33 -2.79592493E-31  6.58149571E-17 -1.94727281E-31  4.31562506E-31
  2.22538104E-31  5.22196440E-26 -1.22420198E-30  1.56427246E-31 -2.02017869E-31
 -2.51579095E-30 -1.61408960E-30  1.30568936E-30  2.52260381E-16  3.07830127E-16
  1.07592296E+00  2.51291141E-31  8.74260555E-16 -4.46991889E-16  1.36557723E-25
 -1.49842251E-15  5.77430062E-16 -4.14204401E-33  5.91376501E-16 -7.79695268E-16
 -9.82075783E-31 -8.49917521E-15  1.75350004E-16 -1.46253967E-15 -6.40480769E-16
 -1.16950377E-15  7.11636074E-16 -4.19240663E-16  8.37134363E-17  1.26850553E-31
 -2.40149106E-16 -1.37081329E-16 -2.07424608E-31  2.40499463E-31 -3.87561789E-31
 -2.98396367E-31  4.63880509E-32  1.67169361E-31  3.04169694E-31 -1.59551350E-30
 -6.48987858E-31  6.07985859E-16  1.28265059E-31  2.03217685E-15  1.69405644E-16
 -9.29741084E-17  1.30244578E-30  1.71322692E-33  4.55231533E-18 -1.38536145E-16
  9.91141185E-17  4.16296134E-16  2.87919090E-18 -4.85758439E-17 -5.17965163E-26
  3.47719727E-18 -3.67619597E-16 -7.57496604E-18  1.81124035E-18  5.53239272E-16
  9.99176221E-18 -9.60525894E-17 -3.23246568E-18 -2.97154776E-31 -5.33135220E-16
 -6.57717048E-18  6.52069097E-31 -4.34386585E-16 -2.44910907E-16  4.48744871E-32
 -7.59523961E-18 -2.86218543E-16  1.42416090E-16 -9.28088279E-17 -1.01750380E-16
  5.47782167E-17 -1.67883568E-17 -5.19896537E-18  1.67530895E-16 -7.01307278E-17
 -1.33178476E-17  1.30056108E-16 -5.73059007E-16  1.01700703E-16 -1.06007498E-15
  2.02338768E-16 -1.13552262E-25  6.43855218E-32 -1.05172642E-31  1.70520118E-31
 -7.45146041E-31 -1.02364500E-15 -2.37109876E-16 -1.14864066E-17 -7.26192318E-18
  7.98003675E-32  1.21715175E-16  1.39108895E-29 -7.98969394E-32 -3.84004818E-16
 -2.55756752E-30 -9.08751693E-31  1.06506225E-29  2.15508333E-30 -3.85130506E-31
 -3.48120196E-30 -1.38577657E-16 -5.69288358E-16 -1.84284541E-15 -6.45743558E-01
 -4.38155315E-32 -2.43861442E-15 -8.67114590E-16  7.37487497E-16  1.35927248E-15
 -2.53088427E+00  2.38813728E-01  8.98346390E-18 -2.19492869E-16  5.24352150E-17
  1.17020239E-15  9.27371880E-30 -4.26707287E-32  2.22119518E-02 -7.27057762E-30
 -6.45743558E-01  7.00246939E-16  1.58455808E-16  2.38813728E-01  2.81061203E-16
  4.53959965E-17 -8.05689714E-18  1.73269893E-15  2.62738294E-17 -1.47209542E-16
 -8.07417028E-32 -7.39269737E-26 -5.17965163E-26 -2.60272871E-34 -7.95594335E-26
  5.13873834E-32 -1.55054234E-16 -8.06312065E-16 -2.58900225E-30 -1.37948835E-29
 -2.28450997E-17 -5.51054718E-16  2.34745711E-30  1.84856340E-16  6.55577791E-01
 -2.24148060E-30  4.36802463E-16  3.10433505E-32  1.36861395E-16 -1.09617878E-15
  1.08536119E-31 -1.83946749E-17  3.56964927E-01  2.33051828E-17  8.96015664E-18
  7.20297346E-17  6.85362318E-17  1.75418373E-31  4.89863396E-30  4.88731728E-31
 -7.30795022E-30  4.14160487E-30 -7.81486087E-18  5.20699394E-18  1.39599367E-40
 -1.18354569E-16  3.77165052E-16 -8.35696990E-02 -1.67543968E-16  6.94898998E-27
 -7.86277658E-18 -1.84238284E-16  1.29655026E+00 -5.12271678E-17  2.81268767E-16
 -8.05689714E-18 -1.27454975E-17  1.09693426E-18 -9.09877745E-34 -4.44106267E-16
  1.01254442E-17  4.56520509E-16 -1.76024397E-16  3.23795471E-15  7.53882602E-31
 -1.73655078E-31 -9.33176294E-30 -1.00140590E-30 -9.30662693E-16 -2.60272871E-34
 -9.50004229E-16 -6.45743558E-01  1.58446721E-17 -1.94098037E-16 -6.45017769E-17
  6.97991035E-17 -1.28017565E-16  2.60757020E-17  4.19935686E-17  4.94070326E-16
  3.22414956E-32  1.90860120E-16  1.45292150E-16  4.74386125E-18 -1.35143213E-15
  5.91794153E-17 -6.90851853E-16  4.16533724E-17 -9.29275423E-02 -1.33375231E-15
  3.93672032E-30 -1.04382312E-31 -1.83917330E-32 -1.66604103E-16 -1.66158208E-15
  1.13601216E-30 -2.27852041E-31  3.07899147E-17 -4.03870763E-17  1.16198983E-16
  1.14641562E-25  1.01633552E-30  1.33063332E-16 -8.94277307E-32 -1.13788295E-30
 -6.16939717E-30 -2.64218808E-31  1.59273075E-15  9.09708458E-18  6.37702560E-31
 -3.89010577E-30  8.05467182E-31 -4.65155260E-18  9.68368211E-17  1.92049363E+00
  8.73279059E-17 -6.16247618E-38 -1.62473365E-16 -2.96056102E-15 -3.88526306E-18
  7.56782788E-30 -2.02036960E-16  1.32198323E-15 -3.66661942E-16  6.46195098E-17
  4.33506832E-01 -1.01820667E-17 -5.42473187E-16 -4.80289142E-29 -4.29347182E-34
  3.76096746E-18 -5.90944470E-16 -7.51025622E-32 -8.35696990E-02 -7.39191459E-16
  2.90416329E-18 -6.98920846E-16 -5.56657017E-31 -1.41021380E-16  1.02247526E-15
  3.60920084E-16  1.21608754E-17 -3.96830694E-16  2.12203675E-40 -7.16836733E-16
 -3.28611052E-16 -1.41021380E-16  3.56964927E-01  2.03244360E-17 -5.71032468E-16
 -1.12375162E-25 -6.16940517E-32 -7.87347896E-26 -4.26707287E-32  8.64627860E-32
 -1.28997529E-31  5.56971785E-31  1.49241886E-16  5.30400732E-16 -1.31553055E-16
  5.32431670E-16 -9.47325883E-16  6.42312755E-30  5.01809556E-16 -1.20369553E-01
 -8.96015009E-18  5.66422782E-16  7.46362184E-26 -6.59548686E-31 -1.17939856E-15
  7.15845959E-32  1.08432699E-16  2.40934366E-18 -9.72512915E-17  1.12739230E-16
  2.71028189E-16  1.00019562E-15  3.27712090E-15 -1.64641943E-18 -9.40198459E-17
  1.44917999E-16 -3.34180481E-31  4.06159450E-31  3.89419098E-30  2.32199412E-30
  2.94101229E-30  3.25228501E-30 -9.17968573E-17 -3.16412680E-17  4.20142843E-32
 -8.60996014E-17  2.90416329E-18  4.19297801E-17  8.71592274E-17  3.39967819E-26
  5.43755175E-18 -3.68197852E-17  8.98356100E-26  2.22119518E-02  3.46157596E-16
 -7.59523961E-18  4.44891079E-17 -1.07085118E-16  8.64627860E-32  3.58468150E-16
 -1.04560097E+00  7.94213387E-17 -1.41443414E-16  2.79295254E-31  8.06734310E-16
  1.90923907E-15  2.30631258E-16 -7.71955427E-17  8.34874491E-16  2.66390636E-32
 -7.47195001E-16  9.69709839E-17 -3.49530418E-31 -7.45199103E-31 -6.16940517E-32
  1.29655026E+00 -1.70267931E-18 -2.54733624E-17  1.00030367E-16  3.18633911E-17
 -2.01851716E-17 -3.05168471E-16  1.16306393E-16  7.83592183E-17 -2.72068338E-16
  5.07167425E-18 -1.22690502E-16  1.93779547E-16  5.13743978E-17 -6.50726456E-16
  4.04780070E-16 -3.30813834E-30 -1.99873015E-16 -2.80259225E-30 -1.34933169E-16
 -1.06569525E-16  2.02687410E-15  2.55885876E-30  8.82785507E-16  1.90923123E-30
  9.65958323E-16 -1.34709026E-31 -7.66859297E-26 -1.48835525E-31 -1.64872466E-31
  6.79564162E-32  4.16094190E-15 -7.96359303E-17  5.59881639E-18 -6.52441977E-18
  1.46815504E-16 -3.04331747E-31  1.41391307E-29 -2.78137083E-31 -1.76913965E-15
 -8.40149311E-31  7.74215041E-26  4.79198663E-31 -5.92151660E-30  2.28508074E-31
  2.22665745E-16 -1.83376569E-30  1.31774432E-17 -6.10209134E-20 -1.33636518E-17
 -2.79739097E-16 -7.87347896E-26 -8.09650000E-17 -8.04088378E-17  1.21608754E-17
  9.59608383E-17  5.16784522E-26 -4.09881928E-18  3.94226677E-30  1.10687592E-17
  4.18660434E-30 -1.08163963E-29  8.35118244E-01  6.35867179E-16  1.95926121E-15
 -1.94024171E-16 -2.55285231E-16  2.22119518E-02 -1.94966565E-16  1.29655026E+00
  1.80398754E-30  4.80149102E-16 -5.76868314E-32 -4.00071323E-16  8.20572282E-31
 -4.14204401E-33 -3.06671838E-18 -6.55203390E-16 -9.50004229E-16 -2.80646969E-16
  3.39130545E-30 -2.31314999E-15 -7.47519338E-29 -3.76690336E-32  6.10785122E-29
  3.25218146E-17  1.92049363E+00  4.71326206E-16 -7.18777897E-32  2.69252823E-16
 -3.44019182E-17 -6.45743558E-01  9.97439164E-18  1.22223440E-16  4.70415308E-29
 -1.15242056E-32  3.79731121E-31 -5.37297600E-26 -3.46077071E-32 -3.76690336E-32
 -8.85006374E-26 -6.44040986E-16 -5.91611176E-17  3.70508649E-17 -1.36892965E-29
  6.21837603E-17 -3.11842832E-32  1.31790443E-30 -3.22737465E-16 -1.46953076E-01
  5.65468292E-30  3.51023355E-16 -2.14789302E-01  9.76050251E-31 -7.61471083E-16
 -9.51142831E-32  2.41907584E-16 -2.43776172E-16  3.04380890E-16  9.29110394E-17
  4.04086862E-29  3.92579065E-16  2.42776152E-29  2.21068887E-16  2.57056886E-18
  1.35923811E-16  1.45125170E-16  7.98990474E-18 -4.99515672E-17 -6.39821752E-18
  2.98968719E-29 -4.85673836E-32 -3.18434158E-15  1.19021432E-30 -3.54347180E-30
  1.36352543E-30 -9.18890969E-30 -3.45233899E-19 -5.20618405E-18 -1.00753539E-31
 -9.64170381E-17  2.38813728E-01 -3.82294595E-17  2.04732654E-16 -6.45743558E-01
 -1.59976154E-16 -5.71710993E-16 -7.39269737E-26  9.90616463E-18 -6.22229788E-17
  7.46362184E-26  4.52827875E-17 -1.12352416E-17  3.10433505E-32 -3.53564999E-16
 -9.80652769E-18  4.96312763E-17  1.75748381E-16  3.79731121E-31 -4.48972910E-17
 -3.72844953E-15 -1.31163740E-15 -3.31500929E-16  2.51291141E-31  2.64485052E-16
 -6.09722920E-19  7.39527648E-16  7.89337020E-32 -7.00609837E-31  3.19194025E-31
 -6.56626119E-16 -1.16055762E-15  5.56060976E-17  1.79990364E-16 -9.51142831E-32
  1.10687592E-17  1.16952846E-15  6.36421696E-17  1.20164965E-16 -6.11432557E-17
  2.17777030E-17  1.19522298E-16  7.64129028E-17 -1.99806662E-18 -1.31135369E-16
  8.47077668E-17 -1.27490501E-18  1.60748634E-17 -4.48006689E-19 -9.47163643E-17
 -1.12762768E-15  1.95909814E-29 -1.86197282E-16  1.29765667E-29 -3.26074358E-16
 -3.41827232E-30  1.34400419E-15  1.45226889E-16  5.35709291E-16  1.23638383E-16
  3.58970692E-17  2.46129094E-15  2.54691379E-16  1.99472767E-15 -9.79212960E-30
  1.33787032E-15 -3.75522537E-31  5.38017279E-32  3.08207357E-31 -3.58241230E-32
 -3.35654539E-15  8.62517687E-16  1.37900248E-30 -5.19056561E-17  2.14564584E-16
  1.24599596E-15 -4.55311036E-30  6.90962448E-31 -9.34189186E-18 -7.63053614E-30
  6.95668959E-32  1.81372879E-31 -5.36867852E-31  4.97032187E-30  4.53267664E-31
  9.95130485E-31 -8.83427065E-31 -6.07536939E-17 -1.18807860E-17  3.56964927E-01
 -1.07386914E-15  1.13453057E-25 -3.64082102E-17 -1.25459030E-16 -2.28981994E-18
 -7.87657312E-17 -1.12375162E-25  8.01135111E-17 -6.61381121E-17 -1.04560097E+00
 -1.72312809E-16  1.36557723E-25 -1.48974370E-17 -2.17454575E-29  1.01254442E-17
  3.39537286E-30  4.33776351E-30 -1.54961324E+00  3.73888171E+00  5.39500231E-01
  4.90133129E-16 -8.35696990E-02 -2.64526871E-16  1.57354327E-28  2.37660354E-19
 -1.85646323E-30  9.54044032E-17 -3.88526306E-18 -6.09137954E-30  1.97737588E-16
 -8.07417028E-32 -1.62535597E-16  3.22188856E-16 -3.11842832E-32 -4.90186864E-16
  3.82719051E-16 -1.09607584E-17  2.46082002E-28  7.15845959E-32 -2.12459635E-28
 -4.41587225E-18 -1.04560097E+00  3.61887677E-17 -1.15242056E-32  7.44716478E-16
  2.46095923E-16 -2.30567065E-18  2.49234705E-16 -2.05117502E-31  4.82740322E-16
  1.84629139E-16  1.90923907E-15 -9.29275423E-02  4.23011247E-32 -1.48872757E-28
 -2.35372808E-31 -1.26312728E-25 -7.19581918E-31 -1.25899239E-31  2.59941104E-31
 -1.60755654E-31 -7.76358133E-17  1.57821851E-16  6.35676597E-16 -1.02376867E-30
  4.53029077E-16  1.27524621E-25 -4.81591878E-31 -9.97050511E-16  1.13453057E-25
 -5.06942394E-30  1.15715468E-15 -1.54961324E+00  1.23455112E-30  3.65857449E-16
  1.87233396E+00 -5.49988470E-17 -4.86763043E-17 -2.23215843E-17  2.42837762E-18
 -1.44666535E-28  2.76621738E-29  8.68637023E-17 -1.84029951E-16 -1.24671886E-16
 -1.74004608E-16  1.35158488E-17  1.87539419E-16  2.96190730E-16 -2.81267675E-16
  2.72604909E-16 -6.69629460E-17 -1.49312983E-15  1.05635671E-26 -8.60304780E-33
 -9.18805856E-29  9.97594898E-16 -8.87370069E-17  5.23110141E-16 -3.45106946E-16
 -8.86223230E-17  5.80877459E-26 -7.52579237E-17 -4.90523314E-16  7.74347481E-31
 -1.53391149E-28  8.16990899E-16  5.08967132E-29 -5.81790813E-16 -9.42104626E-16
 -3.86298060E-16 -9.02831430E-29  6.29287344E-17  7.18939560E-16  5.33251087E-16
  7.99819453E-17  1.19434861E-17  1.78053452E-16  1.25725399E-17  6.62325400E-17
  1.12417621E-16 -8.22109917E-16 -3.18271946E-16  6.27674686E-31  1.04904295E-29
  1.10335526E-18 -3.67147809E-18  7.27803731E-31 -9.83951849E-17 -9.78148665E-30
 -8.47665312E-17  6.91986339E-31 -1.82926307E-16  2.90561191E-16  4.53280829E-16
 -2.26800997E-18  1.27006754E-15 -9.82075783E-31  3.81857422E-16  1.76881966E-17
 -1.26312728E-25  1.27524621E-25 -1.70267931E-18  8.13404000E-19  5.67883070E-16
  1.79284338E-16 -2.09068071E-16 -9.79756300E-18 -2.70818891E-16 -9.80652769E-18
 -5.33849983E-17  1.06743568E-26 -1.05686912E+00 -1.70338192E-16 -8.35696990E-02
 -7.06815258E-01 -7.83368710E-18  3.56964927E-01  7.05434711E-17  8.06637480E-17
  4.23663419E-29 -1.22986465E-17  2.05398021E-17 -2.85821883E-19  1.74597046E-18
 -3.60512397E-16 -1.49312983E-15  2.87650188E-16  8.27090337E-17  8.74581847E-17
  3.02593026E-16  1.24651940E-17  5.05299664E-16 -1.25899239E-31 -3.21049622E-16
  1.74955026E-16 -9.11850113E-18 -5.18298720E-16 -1.62535597E-16  6.83059188E-16
  3.52800150E-16 -5.67028060E-17 -9.65135851E-16  4.55067612E-16  2.94980477E-29
 -2.51698690E-16 -1.46503046E-16  2.80151751E-15  2.23455125E-29  2.27911389E-30
 -2.12449846E-16  2.87919090E-18 -1.38302553E-18 -2.78224977E-17  2.38813728E-01
  2.66199750E-01  3.97217551E-31  2.19661968E+00  2.17503234E-16  7.98003675E-32
 -1.05686912E+00  6.82610779E-16 -3.36055886E-16  7.77195792E-17 -2.15167331E-16
 -7.98969394E-32  1.89687832E-17 -8.76133464E-17 -7.85774698E-17 -3.06093510E-16
  3.47719727E-18  1.56558769E-17  2.43580243E-16 -5.53549940E-34 -7.85062745E-17
 -3.96830694E-16  2.20908242E-16  9.60971381E-17  5.13873834E-32  2.77741625E-16
  4.50293717E-18 -2.43934413E-16  3.44671935E-17  2.63851928E-16  1.82338818E-01
  1.57717263E-16 -1.14636610E-31 -6.32991849E-19 -1.23006369E-18 -3.25822649E-19
  2.30622928E-16  7.88515206E-17  3.77184989E-16 -3.41227414E-16  4.50400734E-17
  1.34828127E-16 -1.21681229E-16  1.50696735E-18 -1.17157393E-17 -5.80873714E-17
  6.31160807E-17  2.53893231E-17 -1.15478697E-15 -3.53224975E-18 -7.20204281E-16
 -2.06580654E-16  1.19139750E-31 -9.84738292E-16 -1.29572991E-16  2.20746389E-22
  3.97099377E-17  8.12182707E-31 -4.39884884E-16 -6.81473743E-32 -5.62775666E-01
 -6.64787357E-16 -4.90186864E-16 -3.96541262E-16 -2.54544918E-18  1.82338818E-01
 -2.90584822E-16  4.71326206E-16 -6.42686033E-23 -6.39253984E-38  7.53164876E-23
  3.18949696E-17 -9.34189186E-18  2.46082002E-28  1.80300969E-32  2.47815716E-28
 -1.49663333E-15  1.72755434E-18  1.93383590E-16  1.16283175E-16 -1.06796962E-17
  6.50085915E-16 -1.67623346E-30 -1.87208313E-15 -4.79090046E-16 -2.15501237E-30
 -1.67258340E-15 -4.39224815E-16  1.20699673E-29 -3.91817335E-17 -1.76132323E-16
 -4.15043770E-16 -3.80899779E-16 -4.40953084E-32  2.65208756E-16 -1.21454292E-30
 -1.13760619E-16  3.52659691E-26 -1.05472355E-17 -1.42294496E-19 -4.78652859E-17
  1.34733949E-16  9.31886644E-26 -1.38302553E-18  3.44955692E-32  4.55279712E-17
  1.10957079E-15 -3.06671838E-18 -3.67147809E-18 -5.30099453E-18 -7.71445948E-17
  6.34100664E-16  9.97439164E-18  1.53345245E-17 -9.46568657E-38  4.76705290E-17
 -1.71290706E-16 -6.27844917E-17 -5.26825201E-17 -2.94803059E-23 -4.48017536E-17
 -1.81471029E-16  2.16987711E-16 -3.49365640E-16  5.76077771E-17  4.28781136E-17
 -5.24140406E-18  1.43390918E-16 -4.05846366E-17 -1.24594479E-16  2.51570800E-16
 -4.61481882E-17  5.99491431E-32  3.04169694E-31  9.38266673E-17 -2.23917415E-16
 -1.83917330E-32  4.61736717E-18 -6.33229419E-17  3.56964927E-01  4.17259263E-17
  2.22538104E-31 -1.05686912E+00  2.16454073E-22 -2.31669429E-16 -6.83564516E-17
 -2.64218808E-31 -1.56816234E-16 -1.22518837E-17 -3.86244823E-17  6.53187829E-16
 -5.12271678E-17 -2.85318520E-24 -2.48137887E-18 -6.57059455E-35  2.17303685E-16
  2.49234705E-16 -3.93649058E-16 -1.81245604E-16 -1.05172642E-31 -1.99637460E-16
  4.50400734E-17  2.40364452E-22  1.66732073E-17  1.27939015E-16  4.86515340E-18
 -9.12475346E-17  1.82338818E-01  3.42444056E-16 -2.20582841E-17  1.60786180E-16
 -6.05433803E-16 -4.85154656E-17  2.72233511E-28  2.58234281E-17 -3.11833457E-15
  2.93283060E-15 -1.76803040E-15 -2.53552448E-31  3.32593159E-15  2.38481303E-15
 -2.35372808E-31 -1.05686912E+00 -5.48594477E-30 -1.04560097E+00 -2.60974541E-15
 -1.73246365E-15  2.19661968E+00 -1.69937252E-29  1.78035626E-15  1.98328286E-16
  6.14521193E-29 -5.86828996E-18  1.52394227E-18  1.48946617E-18  3.48140516E-16
  4.30764682E-16  3.27712090E-15 -2.82859123E-16 -1.44322219E-17 -4.61763096E-16
 -1.40001287E-16  6.50587652E-18 -1.13176113E-15  2.59941104E-31  3.34547797E-16
 -6.71474894E-16 -8.22109917E-16  8.97370676E-16 -4.00071323E-16  1.18544869E-16
  3.23957131E-23 -6.42686033E-23 -2.08681153E-16 -9.49699099E-17  4.56742046E-23
  3.48140516E-16 -8.66797099E-16  1.56647155E-17  1.18733863E-26 -6.76539869E-18
  1.45605898E-16 -9.36752240E-38  5.69476003E-16 -7.42033236E-17  9.59437887E-16
 -6.94689813E-16  9.25760001E-17 -1.71065175E-15 -4.47712109E-16  7.43305650E-16
 -6.00329208E-16 -2.50713310E-28 -1.11329813E-28  2.48440388E-17  3.04558359E-16
  1.80268414E-15 -8.28969975E-16 -5.19217893E-16  3.74412314E-16  3.51758797E-16
  1.24772957E-16 -1.30079980E-18  7.33662496E-18  2.96185956E-16 -8.82139889E-16
 -5.47415314E-17  1.34058587E+00  8.57151311E-17  4.99868752E-18 -9.98850841E-16
  1.02872285E-17 -9.11850113E-18 -2.96795180E-16 -2.06781373E-16 -6.49831433E-31
 -4.56699725E-17  8.59656298E-16  1.75418373E-31  5.35709291E-16  5.72197679E-19
 -9.34714123E-17 -9.79409026E-17 -2.17870769E-16 -1.15700052E-16 -2.23553348E-31
  2.61802609E-16  7.53999599E-20  2.19661968E+00  2.37660354E-19  2.38813728E-01
 -2.30567065E-18 -3.86469893E-17 -2.59959666E-30 -6.91949559E-16  1.22749097E-31
  1.37987889E-25  3.13327007E-18  3.34160323E-16 -1.05294389E-37 -1.09607584E-17
  7.34785002E-17 -7.95594335E-26  1.97180715E+00  8.64114696E-18  3.76096746E-18
  4.50293717E-18  3.09435272E-29  1.89403753E-28 -1.76803040E-15 -5.24760422E-17
  5.38017279E-32 -5.01377760E-29 -1.51192451E-28 -9.29275423E-02 -7.08129427E-29
  1.44811005E-40 -3.86309430E-17  6.16650467E-16 -3.25822649E-19 -2.96599359E-17
 -1.44974340E-31 -9.48535599E-29  1.11289241E-16 -9.44844315E-18  3.57100907E-29
  9.90616463E-18  2.47797459E-17 -4.21892788E-16  1.32829284E-24 -9.67097959E-16
  1.82338818E-01  2.78969212E-17  6.62670710E-24 -1.14009367E-15 -7.71857082E-16
 -2.30506042E-17  1.70214330E-15  4.47809196E-17  5.82146542E-16 -6.40311516E-16
 -3.48092460E-16 -4.46389386E-30 -1.33183427E-15 -1.08292051E-15 -7.03445728E-17
 -3.72844953E-15 -3.58508250E-16  2.14839751E-18  1.17020239E-15  1.45029791E-15
  2.38524747E-40 -1.04560097E+00 -8.16199514E-29 -1.60755654E-31  3.13327007E-18
  7.19739867E-16 -1.21926410E-16  1.42028444E-31  2.49508543E-16  2.84160801E-19
 -1.68393989E-16 -1.38734188E-16  4.64891427E-18  1.70347527E-16  2.22119518E-02
  3.71396048E-17 -1.15410347E-16 -2.20255480E-16 -6.97862236E-16 -5.42473187E-16
 -5.61951934E-17  3.24365966E-32 -2.07424608E-31 -1.81320881E-16  1.45029791E-15
 -2.06246564E-17 -1.53118228E-17  3.94375383E-18 -6.13333549E-23 -2.11769469E-17
  2.71196043E-16  8.47979579E-18 -9.43196920E-24 -4.09907836E-16 -4.19196627E-25
 -1.31344077E-23  1.17734702E-16  3.82022417E-16 -4.30097254E-18  2.84160801E-19
  2.66199750E-01 -5.82680804E-17 -5.38829307E-16 -5.70582950E-16 -7.03414286E-19
  5.04053297E-19  1.41927670E-17  1.53474327E-17  1.41254747E-17  3.53596694E-18
  8.80768478E-16  3.88803277E-17  6.85118612E-18 -2.40978761E-16  3.35463214E-17
 -2.85164953E-16 -5.51990934E-17 -2.64526871E-16  8.06637480E-17  2.25489701E-16
  1.41873757E-16  1.00381081E-16 -7.19581918E-31  7.05434711E-17  1.95310528E-16
  2.54544583E-16  4.49628251E-17 -3.75522537E-31  1.04911273E-15 -1.54417068E-16
  4.51564057E-23  2.15305271E-16  8.82785507E-16 -5.75188980E-17  2.21714373E-17
 -7.76587140E-17  3.01902556E-18  1.57354327E-28  2.66966538E-28 -5.93166049E-17
  1.63528902E-28  2.31685952E-16  3.11229865E-22 -3.31959631E-32 -1.59976154E-16
  2.30622928E-16 -9.69483676E-16 -4.78652859E-17 -4.36498149E-16  8.79405754E-17
  3.50777253E-16 -1.18149000E-15 -3.64326604E-18  4.62229704E-16 -9.34714123E-17
 -3.24613346E-15 -2.28169399E-29 -3.78519720E-16  2.12339413E-30 -5.99604429E-18
  1.57814317E-15  2.39602015E-16  3.61438106E-16  7.52276657E-16  1.45830376E-15
  1.12903684E-17 -1.58707076E-30 -6.09957557E-17  1.22183729E-16  8.98346390E-18
 -9.44844315E-18 -3.42640192E-16  6.26572445E-19 -1.28404812E-16 -5.37297600E-26
 -7.06815258E-01 -1.00705260E-16 -1.89546036E-17 -3.88884620E-17 -7.66859297E-26
  8.29357098E-18  3.89002288E-16 -8.23815252E-18 -4.24929076E-17  7.98990474E-18
 -2.36523452E-17  2.31022201E-16 -1.25155373E-16  4.32104772E-18 -8.19122317E-15
  4.19297801E-17  6.52976125E-17 -5.82680804E-17 -8.43627842E-17  1.53345245E-17
 -3.50922142E-17 -2.68757974E-16 -1.29551837E-16 -5.62775666E-01  2.37366392E-17
 -6.65517845E-18 -8.92559057E-34  7.82321239E-17 -4.44716155E-17  7.90190990E-17
 -2.19461393E-16 -5.35942553E-17 -9.15389267E-17  4.70765065E-17  3.67839187E-19
  1.91185607E-16  1.60527836E-16 -7.86277658E-18 -1.03464891E-15 -1.17384942E-16
 -1.28997529E-31  2.57775748E-16 -9.89032611E-18 -8.35696990E-02 -2.68475777E-16
 -8.75052892E-34  1.73269893E-15 -5.18933158E-17  6.23168938E-31 -1.47445521E-18
 -6.74038539E-17  6.38326801E-16 -1.39101056E-16 -4.77667344E-18 -5.87333875E-16
 -6.98920846E-16 -4.26853749E-16  1.74478023E-16 -2.98304131E-17  1.62585839E-16
 -2.19492869E-16  9.03565855E-24 -2.09415980E-31  4.72409358E-32  1.33978399E-16
 -3.58508250E-16 -5.87174425E-16  6.27684943E-17  4.14252374E-17 -3.87559854E-17
 -1.27272964E-17  3.19455315E-16  3.30883477E-16  1.00026269E-22  4.71544226E-19
  4.15509626E-17  2.33761694E-17 -1.44851206E-16  2.10664294E-22  1.66855516E-15
  2.29049524E-16  5.69785557E-17  6.21069579E-16 -2.47182166E-16 -8.00649294E-29
 -7.36317405E-16 -1.01791580E-17  8.29357098E-18  1.04911273E-15  9.99176221E-18
 -1.05472355E-17  2.93632113E-29 -3.46077071E-32  1.29382311E-17  4.08657730E-15
  2.38813728E-01  2.66199750E-01 -2.91893737E-15 -2.31314999E-15  3.41232211E-30
 -2.59472432E-29  4.74680686E-29  2.74597727E-28  2.93283060E-15  2.59089487E-17
 -1.04382312E-31 -7.50918344E-29 -2.13929183E-28  3.56964927E-01 -9.97784464E-29
  2.14427383E-40  7.92458023E-17 -5.72618213E-16 -1.23006369E-18  1.44620769E-17
  3.10518406E-31 -1.50381883E-28 -6.14991745E-16 -4.24997754E-18  4.58064618E-29
  5.43755175E-18 -9.29959704E-25  3.64232374E-16  1.82338818E-01  5.15486367E-18
  1.56763051E-16  2.23137153E-16  1.74597046E-18 -4.77367614E-16  4.36375964E-16
 -2.09136366E-23  2.17710395E-17  4.14291281E-17 -5.62775666E-01 -2.36523452E-17
 -4.22791034E-16 -2.95976219E-16 -8.85006374E-26  1.53494915E-25  2.30837202E-19
  1.82086025E-16 -1.18640525E-16  3.54300974E-16 -2.71339348E-16  3.12656492E-28
 -1.48314950E-17  1.79394373E-16  7.27954893E-16 -3.24271220E-16 -1.62620961E-16
  6.91792881E-29 -7.90388717E-18 -6.52596129E-16  1.00076720E-16 -2.68468658E-16
  3.80641429E-29  6.01130310E-17 -1.03009767E-16  4.36982328E-30 -7.22493859E-17
 -1.98300301E-30  3.57211035E-16  6.88022014E-32  4.64646400E-16 -1.78860711E-16
 -5.43826462E-30  2.62002874E-17  3.62725261E-16  2.09190083E-30  1.33973145E-17
 -3.96541262E-16 -4.21590227E-16  3.51863785E-16 -4.07039628E-17  7.44292367E-32
 -9.68601271E-16  4.44891079E-17 -4.30097254E-18 -9.11312949E-31  1.53308413E-17
  4.36032292E-16  1.26152756E+00 -3.29712253E-16  2.28508074E-31  3.61887677E-17
  3.84961452E-16  7.92458023E-17  5.46749404E-16 -9.43196920E-24  3.82183112E-16
  1.70520118E-31 -5.50271977E-18  3.70177959E-17 -1.05686912E+00 -1.62501612E-18
 -1.04560097E+00 -6.09722920E-19 -8.64409060E-18 -9.69358190E-16  3.63802129E-16
  3.00428798E-16 -1.01820667E-17  1.24651940E-17 -5.44514916E-16 -1.13552262E-25
 -1.01791580E-17  1.39692202E-16  5.22196440E-26  1.29382311E-17  7.19833088E-16
  1.14641562E-25  6.50587652E-18 -2.13193799E-16 -3.14664578E-16  1.34058587E+00
 -3.28413979E-16  2.22119518E-02  3.40084614E-16  5.00012332E-16 -7.06815258E-01
 -3.93670140E-16  1.81372879E-31  1.63528902E-28  1.04407003E-16  3.01537678E-15
 -8.99533898E-17  2.27553924E-31 -1.95941748E-16 -5.51434609E-29  2.66199750E-01
 -6.15455403E-17  1.26850553E-31  2.91349269E-17  1.42739656E-23  1.50743682E-16
  3.37507681E-16 -2.43320141E-16  4.17023332E-18 -3.48388145E-23  3.52839267E-23
 -1.58773720E-16  2.88793537E-16  3.18099065E-16  1.10498875E-23  3.24591681E-17
 -5.62775666E-01  2.44224744E-16  1.57868797E-15  9.40844129E-17  8.46314587E-16
  8.44992614E-17 -1.22282636E-31  1.19082866E-16  8.71814728E-18  5.84377272E-16
 -1.30174113E-15 -1.09493644E-29  6.43855218E-32 -3.11833457E-15  5.04832678E-29
 -1.95807137E-31 -1.62501612E-18  6.90219180E-17 -2.33947837E-17 -2.28981994E-18
 -4.39884884E-16  2.84090875E-31  3.32593159E-15  2.66966538E-28  1.32284031E-16
 -1.34709026E-31 -1.54057613E-16 -7.06815258E-01 -7.68511973E-17 -6.32715737E-17
 -1.67586112E-31  2.43710227E-16  2.66199750E-01  7.05902576E-16  7.46536122E-17
  5.72319066E-17  5.44702916E-17 -4.65155260E-18  1.97849370E-19 -7.90070137E-18
  3.66895298E-17  4.75407937E-16 -9.29275423E-02  9.24993359E-17  1.88273779E-17
 -1.33689089E-17 -4.95090975E-02 -9.75011077E-18 -2.91220300E-23  5.83536006E-18
 -9.06122080E-23 -1.12666889E-17  3.12282994E-17 -1.99553587E-23 -2.23730180E-18
 -8.94927818E-23 -7.92499019E-17 -6.71755100E-16  2.58044372E-16 -4.95090975E-02
 -1.13663849E-16  1.32652718E-17 -2.41739253E-16 -4.57856300E-17 -7.35826898E-17
  2.78448699E-17 -6.74038539E-17  8.61341225E-31  1.01619941E-16  4.91524533E-17
  2.54464006E-17  1.40224149E-16 -4.88466500E-16 -1.61400215E-17 -3.56181537E-17
  9.73677925E-16 -5.99369888E-17 -9.90700946E-17  3.07917340E-16 -1.42554071E-16
 -1.22780054E-16 -2.80992954E-17  2.78448699E-17 -2.27299719E-16 -3.63099139E-31
 -4.95090975E-02 -1.13286228E-17 -8.09650000E-17  1.26152756E+00 -1.41949384E-17
  2.34353149E-24  5.23669811E-17  4.53267664E-31  1.98328286E-16  2.99463418E-16
  1.79340480E-16  1.95925554E-29  4.52827875E-17 -7.52364310E-17 -1.96422567E-17
 -2.37405007E-22  1.23283869E-16  1.29765667E-29  1.16393252E-29  6.85362318E-17
  7.18336035E-23  2.24965486E-16  3.85902135E-16 -1.59914804E-16 -6.07536939E-17
 -5.99369888E-17 -1.66604103E-16  2.20746389E-22 -3.99990892E-17  1.01257094E-22
  3.10720784E-17 -6.09137954E-30 -1.69937252E-29 -1.02771388E-15 -5.43826462E-30
  6.36138477E-17  3.40457205E-16 -8.26397231E-18  1.25139656E-15 -4.28763135E-16
  5.21517616E-29  1.16393252E-29  4.09291761E-30  2.17960693E-15 -1.48743214E-15
  6.86007313E-16 -9.12163534E-17  6.87377696E-16  5.10694493E-16  2.28602257E-17
  3.47073950E-16 -2.34368398E-16  2.32299556E-16  1.21495701E-16  1.43673659E-15
  2.80936754E-16  2.66199750E-01  1.53308413E-17  7.20844243E-27  3.85821227E-17
  3.63405355E-17 -9.29275423E-02 -7.52364310E-17  1.91872788E-17 -1.34001048E-17
 -8.09009294E-17  7.74215041E-26 -4.24997754E-18 -7.03113663E-16  9.11705904E-17
  3.54157724E-29  2.22119518E-02  1.34058587E+00  8.31768807E-17  2.49077424E-17
 -5.81021698E-16  2.86260139E-16 -4.80289142E-29 -5.81273773E-17 -8.16199514E-29
 -6.56789982E-32 -5.01377760E-29 -1.56569786E-17 -8.49917521E-15  1.80398754E-30
 -8.45948387E-19  3.41232211E-30  5.66275886E-17  6.91986339E-31 -2.73932702E-16
  6.96874493E-17  3.44641401E-25 -1.32975520E-23 -5.67457231E-18  2.89896279E-16
 -3.05214772E-31  8.52275132E-32 -9.14815691E-17 -5.78566514E-17  2.31737078E-17
  2.05417361E-17  9.89574166E-34  2.55050661E-16  1.63608966E-16  5.24281274E-17
  5.10257897E-32 -6.32991849E-19  7.53998479E-17  3.13302701E-16 -2.55285231E-16
  6.55485404E-16 -1.23059438E-16 -8.94277307E-32 -2.05772416E-16 -1.50579574E-16
  1.05102458E-17 -1.63781576E-17  1.28265059E-31 -2.29208679E-16  2.17855465E-15
 -4.73748328E-17 -2.00024759E-16  3.52269157E-31 -4.38218291E-16 -2.60974541E-15
 -5.80632759E-17  2.72169672E-17 -1.53162464E-17  3.79366697E-16  8.01135111E-17
 -2.97563338E-16  2.61896935E-18  1.05068139E-16  9.72409472E-23  1.99472767E-15
  1.77419737E-16 -2.32509744E-16 -1.96743599E-17 -4.77349201E-17  9.09326018E-16
 -4.95090975E-02 -1.39498733E-16  4.51138968E-23  8.04304918E-17 -1.77704804E-16
 -2.19868971E-16 -6.67595488E-16  3.09141837E-23  3.99841695E-16 -2.20276361E-16
 -5.76476994E-17 -2.44821737E-17 -2.53715444E-18  8.31273542E-17  6.85422664E-23
 -8.18987307E-16  1.04420751E-15 -5.19158213E-17 -1.03452420E-28  8.84327771E-17
 -1.16031866E-16 -6.27326677E-16  1.97180715E+00 -7.06815258E-01  2.17855465E-15
  8.13404000E-19 -4.08586538E-16  1.61430045E-15  1.16952846E-15  3.01537678E-15
 -3.51179401E-15  1.08536119E-31 -3.96104178E-15  1.00793670E-15 -1.33636518E-17
 -9.84738292E-16  4.59762487E-30  1.65589372E-16  5.84703259E-16 -7.06815258E-01
  5.45918876E-16 -8.35696990E-02 -5.69915570E-16 -6.07275311E-16  1.97180715E+00
  1.44870852E-16 -2.78137083E-31  2.47815716E-28  1.29103622E-16 -3.96104178E-15
  2.62617506E-16 -4.23036770E-31 -6.53490658E-17 -8.08878814E-29 -1.05686912E+00
  7.63879514E-17 -2.98396367E-31  2.94472097E-24  7.91033242E-17 -1.40292046E-15
  1.39140406E-16  1.46946431E-23  4.00452461E-16  1.26152756E+00  4.52361477E-16
 -7.67556991E-17  7.63333789E-25 -5.49008286E-16 -5.62775666E-01 -6.69109915E-17
 -5.75188980E-17 -4.49839262E-16  2.47909043E-16  1.26152756E+00 -1.89769654E-16
  7.04453635E-23  3.07385423E-22 -9.68601271E-16 -1.08475468E-30 -9.76312418E-35
  1.62768375E+00 -9.06122080E-23  3.11229865E-22 -1.97638201E-16  1.04904295E-29
 -2.37405007E-22  2.71196043E-16  6.63217665E-16 -1.44347012E-17 -1.70111610E-18
  4.30939180E-23  7.94267580E-19 -5.95870978E-17  6.32363829E-24 -8.47047601E-17
 -1.58429249E-17 -5.08796999E-18  1.84641852E-17  1.97807649E-17  9.53393916E-17
 -1.20815330E-18  3.57996550E-16 -3.35654539E-15  1.44043010E-15 -2.62549523E-16
  4.81333263E-17  6.40401950E-16 -1.42435749E-14  2.34199285E-16  1.58299039E-16
 -2.32871271E-17  9.80711903E-23 -1.76913965E-15 -4.26682613E-16 -3.96760499E-16
 -1.36564451E-14 -7.26341674E-18  4.04086862E-29 -4.64404914E-16  2.33883913E-23
 -2.42938493E-16 -2.48922452E-16  7.46242437E-23 -1.99553587E-23  5.27235078E-16
  1.29103622E-16  2.80991375E-17  3.70095652E-16 -7.37161308E-23  1.36289128E-16
  2.63851928E-16  3.01902041E-23  1.89687832E-17  2.80398028E-24 -5.09557422E-16
  5.45670553E-18  3.39281850E-16  1.40213881E-23  9.59983056E-16 -4.95090975E-02
 -2.73762449E-16 -3.34180481E-31  6.79564162E-32  1.10827854E-16 -6.81305878E-01
  3.30930960E-24  6.45286392E-17 -5.62775666E-01 -1.08898671E-22 -4.91211522E-23
 -1.72249783E-17 -2.66497133E-16  2.55140324E-16 -6.89285682E-17  3.27967776E-16
  3.57622936E-16 -1.49943563E-16 -6.80553210E-17 -8.98823895E-16  1.27750036E-16
 -2.45469106E-16  2.40499463E-31  1.07481681E-24 -9.56399591E-16  2.09190083E-30
  1.00872559E-17  6.10785122E-29 -2.20276361E-16  1.59435701E+00  6.14521193E-29
  1.26781087E-18 -6.10209134E-20  4.84910468E-25  7.27109744E-25  2.34353149E-24
 -2.03122191E-17  4.59762487E-30  1.06406662E-24  3.96143326E-16  3.44641401E-25
 -1.08723095E-17 -4.46389386E-30  1.00517119E-18  2.03217685E-15 -1.35908811E-16
  1.23761088E-17  4.00804412E-17  1.41927670E-17 -3.16348414E-16  5.19917995E-17
 -2.43861442E-15  1.15520026E-16  1.90923123E-30  6.97537899E-18  2.27911389E-30
 -2.03437786E-16 -3.84274131E-16 -5.28394128E-29 -2.06918765E-17 -9.02831430E-29
 -1.37772509E-31 -5.51434609E-29 -1.41153396E-17 -4.99985988E-18 -1.93306463E-16
  2.98225361E-18  3.16771625E-19  4.55279712E-17  5.04053297E-19 -6.53490658E-17
 -5.62775666E-01  2.93632113E-29  6.31160807E-17 -1.50381883E-28  4.70415308E-29
 -1.98300301E-30  2.07132899E-23  5.76077771E-17  3.09435272E-29  1.62768375E+00
 -1.61400215E-17 -5.62775666E-01  6.28796092E-23 -8.23815252E-18  6.36659034E-23
  9.22878663E-24 -6.81305878E-01  3.41171072E-23 -9.98850841E-16  4.72422511E-16
  4.82740322E-16  1.00026269E-22  1.06406662E-24  1.65589372E-16  3.45194596E-16
 -6.61381121E-17  6.76408044E-16 -5.26403367E-01  1.41873757E-16  1.96954273E-16
 -3.51179401E-15  1.59435701E+00  4.10379536E-24 -1.29551837E-16 -8.48506462E-17
  2.80151751E-15  2.97727367E-16 -6.49891984E-35  7.58420055E-17  9.95130485E-31
  2.06561693E-22 -4.85154656E-17 -2.81158571E-17  2.00336842E-18 -5.76419124E-31
  1.46110602E-17 -1.27490501E-18  9.24867251E-17  1.43390918E-16 -3.57811401E-16
  9.03975560E-17 -7.00609837E-31 -2.24678386E-19 -1.33375231E-15  9.22496957E-19
 -1.30174113E-15  2.39637903E-16  2.88793537E-16  5.26615915E-16 -2.15478011E-16
  1.44917999E-16  1.02247526E-15 -3.36144416E-16 -1.44636197E-17  5.07611505E-16
  2.06528849E-16 -3.30584064E-22  6.84169318E-16 -6.81305878E-01 -1.64872466E-31
 -7.16836733E-16  6.62325400E-17 -4.85673836E-32  4.28781136E-17  3.40084614E-16
  2.81061203E-16 -1.42554071E-16 -1.32975520E-23 -6.90851853E-16  9.11705904E-17
 -1.97638201E-16 -2.26507640E-16 -5.92025017E-16 -1.96226547E-17 -1.48835525E-31
  2.17950853E-17  5.81884088E-17  1.08629167E-17  4.52388782E-17 -1.25771749E-30
 -1.13133972E-17  2.26843332E-16 -1.15488216E-16 -4.25432417E-17  4.79198663E-31
  4.70314386E-17  1.43957652E-18 -1.50655109E-30  1.03173946E-16 -1.74004608E-16
  6.96591437E-19 -4.00127042E-25  5.07122741E-17 -5.26403367E-01  1.16815239E-17
 -1.30827909E-24 -2.97243602E-17 -2.85318520E-24 -8.90467683E-16  4.83429443E-18
 -5.83372977E-25  1.00203672E-16  1.76191572E-01 -9.43849704E-18 -9.29959704E-25
 -7.30440811E-18  2.58610331E-19  1.23453188E+00 -7.28252101E-18 -1.29557756E-24
 -9.08894914E-17 -4.03016360E-24  1.69135412E-30 -1.08163963E-29  1.79303585E-16
  1.58455808E-16  1.94136242E-16  1.79875292E-16 -1.84284541E-15  7.00246939E-16
  5.00287623E-17  2.38481303E-15  9.27371880E-30  7.21963003E-17 -1.48872757E-28
 -1.07170881E-16  4.63886465E-18  4.16094190E-15  2.65738580E-17 -8.95872521E-17
 -3.18434158E-15  3.70215366E-16 -4.32115103E-35 -1.85646323E-30 -2.41260897E-16
 -7.17438290E-16  3.94226677E-30 -3.58727347E-17  5.40043897E-18 -5.25337072E-16
 -2.27852041E-31 -2.17758216E-15  3.02031806E-17 -2.82667062E-16 -5.33935035E-16
  7.00165888E-31 -4.04448017E-16  1.00539457E-18 -5.99991949E-17  3.01414851E-22
 -1.13788295E-30 -7.15550056E-17 -2.04962001E-16  1.14656631E-30  2.93241732E-16
  2.72604909E-16  2.86408853E-16 -5.26403367E-01  2.80991375E-17  2.10664294E-22
  2.87810849E-16  3.51758797E-16  3.34891596E-16  1.61430045E-15  7.83793603E-17
 -2.72719056E-24  1.76191572E-01 -1.10248606E-15  6.16650467E-16 -1.78586885E-16
  7.27954893E-16  1.23453188E+00 -1.31177041E-16 -2.26556028E-22 -2.12522784E-16
 -2.43320141E-16  9.27948163E-23  3.85821227E-17 -2.97563338E-16 -4.11301654E-01
 -7.19161422E-16 -1.05526951E-17  7.54938565E-17 -4.57856300E-17 -5.71032468E-16
 -9.43902980E-16  3.38837956E-22  2.74241627E-16 -1.52663060E-16 -7.37161308E-23
 -3.32453625E-23 -5.90985023E-18 -8.85451218E-16  1.55831446E-23 -4.72497923E-16
  9.34338383E-24 -5.27492707E-16  8.39435448E-16  3.89563757E-16  1.76191572E-01
  4.97220358E-23 -6.81305878E-01  4.20484477E-17  6.87192668E-16  1.20653218E-15
  1.53925829E-23 -4.07039628E-17  2.05141967E-16  7.44716478E-16  4.51138968E-23
  4.78837499E-25  4.30764682E-16  3.47930021E-16 -1.25459030E-16 -6.81305878E-01
  5.45670553E-18 -7.76587140E-17 -2.71125929E-17 -1.73246365E-15 -6.89150539E-16
  1.84698171E-24  1.82338818E-01 -3.79122490E-16  5.84377272E-16  6.88785546E-31
  4.80149102E-16  5.29267891E-16  1.57814317E-15 -1.47096931E-16  4.53280829E-16
  1.33413306E-16 -3.87561789E-31 -9.72512915E-17 -3.08127500E-16  3.04558359E-16
 -1.05511564E-17  3.02593026E-16 -4.36613062E-16 -2.54733624E-17 -9.14815691E-17
  7.19036785E-31  3.71396048E-17  2.26101058E-16 -4.95090975E-02 -1.49334633E-16
 -5.08796999E-18  2.30318884E-16  2.33761694E-17  4.82890150E-16 -6.01881433E-17
  3.70095652E-16  6.69426343E-17  2.17329636E-17 -1.59551350E-30  8.95979861E-17
  2.49601288E-31 -9.08751693E-31  2.25586887E-15  8.62517687E-16  1.21715175E-16
 -1.59266823E-16 -2.27532458E-16 -7.41023692E-17  2.09693507E-18  5.23430308E-17
 -3.48811509E-17  1.10264758E-22 -1.41186556E-16  7.79943032E-17  4.86547259E-16
  1.15032769E-16  1.70541332E-18 -1.00436665E-16  1.04881173E-22 -8.82139889E-16
 -4.28440142E-16  2.69252823E-16  3.07385423E-22  3.26245298E-24  3.34547797E-16
 -2.65526076E-16 -8.04088378E-17  3.89563757E-16  2.40721199E-16  1.82338818E-01
 -2.50949973E-16 -2.91893737E-15 -2.45643336E-16  1.25783842E-23 -5.26825201E-17
  1.10997160E-16  2.17960693E-15 -3.42189756E-16  1.32864792E-15  6.64646363E-16
  4.31562506E-31 -2.72758931E-16  3.22188856E-16 -4.08673506E-17 -1.11525917E-16
 -8.57685461E-16 -9.12597472E-16 -6.48987858E-31  1.08071889E-16  4.62318492E-18
  1.95572594E-16  6.49421814E-16  4.36947170E-31 -4.09495135E-16 -1.99806662E-18
 -1.86524496E-16 -4.44716155E-17  6.69259826E-18  1.97849370E-19  9.41146328E-17
 -1.64979694E-16 -2.87483245E-17 -1.01835464E-18 -3.18271946E-16  2.74597727E-28
 -3.24613346E-15  3.88803277E-17 -9.43226900E-16  5.77354031E-17  5.95589798E-16
  3.05172331E-22  3.75575422E-17  2.11839450E-16  4.00588848E-17 -1.45530970E-15
 -2.65832837E-16  3.62989067E-16  3.51940508E-16 -3.11943067E-17 -4.47555966E-18
 -2.67163636E-16 -2.23778733E-16 -9.78212554E-17  7.76669499E-16 -1.18847762E-17
  1.84506949E-17 -3.80208122E-16 -1.13604324E-17 -8.18489044E-17 -1.02364500E-15
 -4.07215984E-16  1.57895274E-16 -1.21843010E-16  9.20951147E-17 -1.67658891E-15
 -3.07377419E-16 -4.88424096E-16 -3.54876523E-17  4.42454044E-23 -3.84004818E-16
  8.82532822E-16 -1.50085135E-16 -1.66481726E-15  7.57002083E-17 -1.44666535E-28
  1.67080724E-16  1.78857305E-16  2.35245910E-16  2.36905319E-16  3.92905480E-17
  6.24316051E-16  3.03008163E-23  3.09141837E-23 -5.77901299E-16 -3.89364867E-16
 -4.00127042E-25 -5.23554680E-17  3.05715448E-16  2.53858366E-16 -1.44636197E-17
  2.05303056E-16  1.36213155E-23 -3.35901875E-16  4.11605112E-16 -3.57042117E-16
 -6.50121033E-19 -3.32453625E-23 -8.29807033E-18  2.46841636E-16 -1.79863933E-16
  5.18954651E-18 -4.11301654E-01 -3.30600507E-16  1.01774731E-16 -1.30300958E-16
 -3.02746568E-16  1.72265685E-16 -3.51212611E-16 -1.22425940E-16 -9.42078214E-16
 -2.73372884E-16  1.49418159E-17  5.05940490E-17 -2.34184366E-32  1.27006754E-15
  1.62768375E+00  3.45490329E-23  8.74581847E-17  2.07132899E-23  3.72271601E-16
 -2.94803059E-23 -1.00436665E-16 -6.10477960E-16 -3.28527621E-16  1.20653218E-15
  5.99187903E-17  4.22390879E-16  9.95707691E-16  6.05934043E-17 -7.45146041E-31
 -2.61186513E-17 -4.60399815E-16  5.27059515E-16  2.98654334E-16 -6.35663175E-31
  2.29094034E-17 -5.59753239E-16 -2.81246430E-16 -1.33278868E-16  1.01633552E-30
 -4.30176404E-17 -2.92071336E-16 -1.02298864E-30 -5.03219338E-16  1.35923811E-16
 -4.69868983E-17  3.45490329E-23 -9.56399591E-16  7.53164876E-23  1.05440983E-23
  3.53596694E-18  4.00151911E-17 -1.18807860E-17  6.63217665E-16  1.53925829E-23
  2.45047144E-23 -5.26403367E-01  2.23455125E-29  3.58299251E-17  1.95909814E-29
  3.41171072E-23  2.67242578E-16  1.06161526E-22  1.34959112E-17 -1.51192451E-28
  6.06734782E-17 -2.50713310E-28 -1.22780054E-16  9.25974451E-16  1.86047289E-16
 -4.09049291E-16  1.99256348E-17  5.69476003E-16  3.12656492E-28  2.46173758E-16
  5.36793607E-17  4.63880509E-32 -6.69558169E-31 -3.34706819E-22 -3.28527621E-16
  4.36375964E-16  6.36659034E-23 -9.48535599E-29 -7.72533414E-23 -3.48388145E-23
 -1.83469484E-16  4.76823434E-18  1.11587718E-17  1.40213881E-23 -5.41349210E-17
  2.02525595E-17  1.76191572E-01 -3.89419179E-18 -1.16752343E-17  3.79320294E-18
  4.95987237E-18 -5.17087263E-17 -2.13819870E-16 -4.06658340E-35  1.75358924E-16
  8.20572282E-31 -7.28877067E-17 -2.86715905E-18  1.24721348E-16  3.16962557E-16
  3.23795471E-15 -3.97663643E-16 -3.76618825E-18  1.16092559E-16 -1.09305275E-15
  4.66289739E-16 -1.09310872E-15  4.98768894E-32  3.28805038E-17  9.07381852E-17
 -2.01851716E-17  4.40615596E-23  2.36905319E-16 -1.11908161E-16  7.27109744E-25
 -1.22801607E-15  1.76191572E-01 -3.57538170E-16 -1.56816234E-16  1.23453188E+00
 -3.20622221E-16  2.40721199E-16 -5.16159586E-16  6.85422664E-23  6.61794507E-19
  4.64646400E-16 -8.85625367E-25  8.30195962E-16 -5.26403367E-01  5.87986111E-16
  6.45286392E-17  5.85663779E-16  1.04407003E-16 -3.96606506E-16  3.45194596E-16
  5.07611505E-16 -1.10327154E-17  9.93344841E-19 -8.46537328E-18  5.00012332E-16
  1.16378489E+00 -6.07275311E-16  3.79320294E-18 -1.27454975E-17  6.37702560E-31
 -4.03016360E-24  1.06161526E-22  1.84319703E-16  1.76191572E-01 -3.34706819E-22
 -9.54449558E-16  1.62768375E+00  5.04717579E-16  1.74457784E-16  1.59747197E-30
  1.13333479E-16 -7.09940299E-17 -2.88158687E-16 -5.01896345E-17  6.16409454E-16
  1.00862742E-16  2.06358730E-16 -4.61170652E-16  1.46094552E-30  3.26245298E-24
  3.28972665E-25  1.82338818E-01  5.24779019E-17 -3.53224975E-18 -6.81305878E-01
  2.23958508E-24  4.23663419E-29 -9.30189664E-18  2.31737078E-17  3.30930960E-24
  4.78837499E-25 -1.34001048E-17  3.01418051E-18 -3.30813834E-30  6.84169318E-16
 -5.26403367E-01  7.63333789E-25 -1.30278774E-17  6.91792881E-29  5.34720495E-15
 -5.56657017E-31 -3.17930511E-18 -2.15501237E-30 -1.69685491E-16 -6.49831433E-31
  7.90935400E-17 -2.08001792E-35  1.59273075E-15 -5.97091157E-17 -8.00649294E-29
 -1.80780840E-16 -8.08878814E-29  6.72204775E-23  5.19885808E-15  4.19935686E-17
 -3.34372875E-18 -5.78566514E-17  2.78106403E-17  1.56558769E-17  5.00045325E-17
 -3.48417684E-16 -9.50597144E-18 -5.94946348E-16  3.27212523E-16  5.08734492E-16
  7.25355203E-17 -6.22796496E-18 -2.37890812E-18 -8.53475624E-17  1.15520515E-01
  1.02940341E-17  1.60110071E-16  5.97738070E-17  1.56763051E-16  8.59656298E-16
 -1.87208313E-15 -1.95941748E-16 -1.53391149E-28 -2.28169399E-29  2.49077424E-17
  4.09291761E-30  6.62670710E-24  2.04614440E-23 -5.48594477E-30  4.51564057E-23
  9.34338383E-24  5.04832678E-29  1.46946431E-23 -9.54449558E-16  4.74680686E-29
  3.85902135E-16 -6.81305878E-01 -2.45643336E-16  3.05715448E-16 -2.91220300E-23
  1.08905508E-22  2.54464006E-17  2.04614440E-23  7.83793603E-17 -2.13193799E-16
 -1.00296806E-15 -5.24140406E-18  1.84319703E-16 -6.89150539E-16  6.26572445E-19
 -2.49849429E-16  2.46129094E-15 -1.07570418E-22 -1.29557756E-24  1.82338818E-01
  4.84345638E-16 -5.81790813E-16  8.50367763E-18  3.08207357E-31  1.27010128E-16
 -7.31547791E-17 -8.04745293E-17 -9.90700946E-17  2.93709573E-16 -1.75918707E-18
 -2.79592493E-31  2.93686792E-17  3.82719051E-16 -1.61284281E-16  1.78035626E-15
 -3.34403290E-17  1.80043900E-16  1.67169361E-31 -3.59897666E-32 -3.20387603E-16
 -3.97413617E-17  1.00076720E-16 -7.97090226E-16 -8.50119717E-30 -7.63053614E-30
 -4.28007057E-17  2.21068887E-16  9.05498860E-16 -1.16031866E-16 -1.23274993E-15
  5.33251087E-16  6.88717010E-17  4.86515340E-18 -1.06807741E-16 -6.34405475E-16
 -2.96056102E-15  3.35257938E-17  7.18292938E-16  5.05118834E-16  1.27641077E-23
 -1.53687240E-15 -1.07570418E-22 -4.85188235E-23 -2.26556028E-22  2.71028189E-16
 -4.79090046E-16 -5.62775666E-01 -3.85130506E-31  1.00793670E-15  1.79340480E-16
 -9.60525894E-17  6.82610779E-16  5.78959992E-16  9.68368211E-17 -5.69915570E-16
  4.56742046E-23  2.08535283E-16  4.80255961E-16 -3.83383340E-18 -6.55203390E-16
  5.87437913E-18  2.56265851E-16  1.18235022E-16 -1.68029620E-17  2.66390636E-32
 -4.97143385E-17  4.29502441E-16 -2.50570868E-17 -3.24731546E-17  2.26991723E-31
 -9.25174364E-18 -3.85650676E-16 -1.54626711E-16  7.85454327E-17  7.83592183E-17
  1.23955919E-17  1.84086602E-17 -2.35196010E-17 -8.85625367E-25  1.71237787E-17
 -3.97202108E-24 -2.23864034E-17  3.19455315E-16 -8.46537328E-18 -6.29856800E-18
  2.67242578E-16 -5.39411074E-17 -5.90749417E-25  2.48580612E-17 -4.95090975E-02
  1.91197722E-17  4.70806741E-18 -2.72719056E-24  2.12327248E-17  1.49281367E-16
  1.17423980E-16 -4.19196627E-25 -7.30795022E-30  1.67530895E-16 -1.84003176E-30
 -1.72312809E-16 -3.23582458E-17  5.69785557E-17 -1.79955252E-16  2.53893231E-17
 -2.81449602E-16  1.21936318E-29  1.06506225E-29  3.70524502E-37  2.96190730E-16
 -6.72717491E-17  2.71362829E-16  2.17503234E-16 -1.47209542E-16  7.20297346E-17
 -7.35826898E-17 -9.18805856E-29 -2.17454575E-29 -2.19461393E-16  1.68314736E-16
  1.42946550E-14  2.98968719E-29 -5.82492837E-17 -4.77419868E-18  1.24599596E-15
  1.01551188E-31 -2.22382615E-16 -3.82294595E-17  5.21547005E-17  1.47202939E-14
 -1.76659651E-17 -1.51116092E-16 -8.97369677E-35  5.56506280E-17 -7.39191459E-16
 -1.40956385E-16 -4.93756895E-17 -1.22706250E-16 -5.60482578E-18  7.53882602E-31
  5.37573283E-16 -5.57105035E-18  1.64427688E-17  1.16179826E-15 -2.21594897E-31
  6.07789857E-16 -2.98370370E-32 -3.39862557E-16 -9.12293955E-17  6.97991035E-17
  1.35405701E-22  7.18605598E-23  1.18607075E-16 -5.27492707E-16  2.29359777E-22
 -6.13333549E-23  2.78243485E-17 -5.72618213E-16  2.23958508E-24 -3.57042117E-16
  3.72271601E-16  1.86922497E-16 -4.95090975E-02  1.42697022E-15 -1.17157393E-17
  7.21795681E-16  8.63746933E-24  4.30939180E-23  9.37614189E-17 -4.45677151E-16
 -3.32188080E-16 -1.33183427E-15 -2.52923505E-17 -3.76913678E-17 -2.96202135E-16
  4.42279201E-18  2.93609715E-17  1.20262010E-15 -3.29771039E-17 -9.04525002E-16
 -2.05674933E-17  2.17823211E-16 -2.32685589E-16 -1.52769618E-15  5.89045059E-17
 -2.90631502E-17  7.19739867E-16  4.08657730E-15  1.37089636E-22  1.69065617E-15
 -8.70318652E-17 -4.34351321E-16  1.49281367E-16  1.76191572E-01 -9.00008045E-18
  6.76408044E-16  1.87042015E-24  1.66617687E-16  1.62768375E+00 -2.48922452E-16
 -1.90977037E-16 -4.91211522E-23 -5.90749417E-25  1.04270323E-16  4.84910468E-25
 -3.96606506E-16 -1.49806968E-16 -5.15716386E-16 -5.26403367E-01 -1.31344077E-23
  4.91118927E-23  1.34828127E-16  9.22878663E-24  7.21795681E-16 -3.60512397E-16
  1.47852182E-17  2.05417361E-17  1.10827854E-16  1.59435701E+00 -1.25155373E-16
  4.82890150E-16  1.34400419E-15 -4.85188235E-23 -5.83372977E-25 -1.40292046E-15
 -4.15560075E-16 -6.94689813E-16 -3.04331747E-31 -2.47182166E-16 -2.49525327E-17
 -1.40001287E-16  2.37207634E-16 -9.00063549E-24  3.75754436E-16  4.88731728E-31
  8.73279059E-17  7.10575677E-17  6.85118612E-18  2.03210496E-17 -4.26853749E-16
 -1.94066177E-16 -4.38155315E-32 -1.35143213E-15  2.00551876E-16 -1.08292051E-15
 -2.10955724E-16  4.52361477E-16 -4.52111568E-16 -9.00008045E-18  3.01418051E-18
  5.99187903E-17 -1.31177041E-16  1.50743682E-16 -3.35901875E-16  1.77419737E-16
  1.16378489E+00  9.24993359E-17  4.20484477E-17 -2.49849429E-16 -3.36144416E-16
  1.59268979E-17 -1.53118228E-17  1.91197722E-17  1.92782529E-31  1.46251537E-16
  1.81124035E-18  1.13601216E-30  9.99179095E-31  4.06159450E-31 -2.40149106E-16
 -5.33135220E-16  1.42416090E-16  1.70955140E-16  5.46017141E-18  2.29078103E-17
 -2.76959600E-17  2.25213886E-16  9.92834557E-23 -3.39776761E-16  4.46071681E-23
 -1.51470600E-16  1.13484581E-16 -3.08970065E-16  5.31351933E-16  1.59435701E+00
  6.24316051E-16 -8.94927818E-23  3.34703991E-22  3.35463214E-17  6.28796092E-23
 -5.26403367E-01 -3.21049622E-16  1.94065092E-15  7.90190990E-17 -6.81305878E-01
 -5.15716386E-16 -7.71445948E-17  2.30318884E-16  2.02687410E-15 -3.30584064E-22
 -3.97202108E-24  2.88088628E-16 -4.23156094E-16 -4.47712109E-16  8.89147793E-16
  2.48457146E-17  8.73686390E-16 -5.36867852E-31  7.21465168E-17 -6.05433803E-16
 -1.59134079E-17  1.50875248E-16  6.45572047E-16 -9.18284603E-16 -3.58241230E-32
  6.33301938E-17  3.68719723E-17 -1.82155265E-16 -6.92186641E-16  3.80708906E-16
 -1.39785664E-15  3.19194025E-31  1.20125505E-16 -1.06007498E-15 -3.01559776E-18
 -1.83469484E-16  1.25783842E-23 -4.95090975E-02  1.84698171E-24  2.94472097E-24
  2.80398028E-24  4.36982328E-30  1.23453188E+00 -1.09493644E-29  1.78053452E-16
  6.93627839E-16  7.27781018E-16 -7.52063452E-17 -1.40830078E-16  1.11289241E-16
 -5.61951934E-17 -1.89546036E-17 -4.61763096E-16  1.30852066E-17  4.59458854E-16
 -1.32778999E-16  3.56603781E-16  1.49613225E-17  2.06318024E-17 -2.65630044E-17
  1.20693326E-16 -1.83285167E-16  1.84976388E-16 -1.34372566E-16  4.47937740E-23
  4.62034172E-16  2.01166381E-23  3.01984062E-16  1.56205451E-31 -7.69548807E-16
 -9.33249261E-17  2.12740896E-16  1.68764895E-16  2.23700473E-32  2.49206047E-16
 -7.27057762E-30  5.24689158E-16  2.53144370E-17  2.79458472E-16 -4.99879173E-16
  8.34874491E-16  9.34979569E-17  1.22919840E-17 -6.49375657E-17  1.69785410E-16
  3.83274922E-16  2.61941749E-16 -1.19107785E-31  3.93851207E-16 -2.30893880E-16
  5.47782167E-17  1.98696920E-23  3.36703523E-23 -6.37683450E-16 -3.72362042E-16
  2.59381812E-16  1.05440983E-23 -1.05720855E-16  1.76191572E-01  1.28470557E-16
  1.15243751E-15  1.23453188E+00  2.95591753E-16  3.28972665E-25 -5.40714081E-17
 -6.10477960E-16  4.30472642E-16 -3.07689912E-16  1.26792171E-24 -9.35675207E-16
 -5.26403367E-01 -8.08550160E-17  6.32363829E-24  9.42250525E-16 -4.99691133E-18
  5.50731935E-18 -2.37630101E-16  2.00662121E-16 -9.72900250E-19  2.43400614E-16
  1.33661464E-16  7.25338485E-17  1.15520515E-01  1.25718259E-16 -6.20429138E-17
  9.58330054E-17 -1.11796291E-15  1.79847762E-17 -2.14229686E-17  3.70553849E-17
  1.44358582E-18  2.97926991E-17 -4.34923279E-16 -1.69317926E-15  6.15002428E-16
  8.63699169E-16 -3.45251152E-16 -5.51495096E-16  2.17476071E-15  2.47909043E-16
 -6.81305878E-01  4.14337086E-24  2.54544583E-16 -8.85451218E-16  1.76191572E-01
 -5.62775666E-01 -1.08898671E-22 -1.30827909E-24  1.01257094E-22  1.07481681E-24
 -2.73762449E-16  4.67355452E-17 -1.13159004E-16  3.66465912E-16 -5.90944470E-16
  4.99634614E-17 -5.23761333E-17 -3.76893012E-16  1.69583868E-16 -2.97154776E-31
  1.72147749E-16 -1.00030958E-15  3.08705851E-16 -6.72425936E-17  1.37637604E-30
 -9.27059426E-17  2.66670728E-16  4.74486529E-16 -5.64992293E-17  1.58446721E-17
 -9.11630271E-18  1.04881173E-22  2.33883913E-23  1.82338818E-01 -2.21227395E-17
 -9.78148665E-30 -1.80745606E-18 -2.59472432E-29  1.55831446E-23  1.59435701E+00
 -1.13663849E-16 -1.10327154E-17 -2.13929183E-28 -1.04401515E-16 -2.12459635E-28
 -6.81305878E-01  7.18605598E-23  1.10498875E-23  1.59268979E-17  4.76705290E-17
  4.65604074E-17 -5.35942553E-17  4.80360108E-16 -2.02036960E-16 -3.29445503E-17
  3.39130545E-30  1.94162186E-18 -9.79212960E-30  2.65155804E-16  1.20699673E-29
  5.78000917E-17 -7.52579237E-17 -1.54936636E-16  4.74608977E-16 -3.72075898E-32
 -3.47320793E-17 -6.14991745E-16 -3.56181537E-17 -9.88460326E-16 -1.89471230E-17
Overlap Matrix                             R   N=        3240
  1.00000000E+00 -9.90408585E-01  1.00000000E+00  4.74884939E-01 -5.47571798E-01
  1.00000000E+00  2.69692214E-01 -3.17594287E-01  8.55304117E-01  1.00000000E+00
  1.39145042E-01 -1.65442733E-01  5.54945264E-01  8.46251758E-01  1.00000000E+00
  6.80465483E-02 -8.12259625E-02  3.01325438E-01  5.37574906E-01  8.39180958E-01
  1.00000000E+00  6.35095938E-34 -4.65269697E-34  1.24901466E-32  0.00000000E+00
  4.23889471E-33  0.00000000E+00  1.00000000E+00  0.00000000E+00  0.00000000E+00
  0.00000000E+00  0.00000000E+00  0.00000000E+00  0.00000000E+00  0.00000000E+00
  1.00000000E+00  0.00000000E+00  0.00000000E+00  0.00000000E+00  0.00000000E+00
  0.00000000E+00  0.00000000E+00  0.00000000E+00  0.00000000E+00  1.00000000E+00
  0.00000000E+00  0.00000000E+00  0.00000000E+00  0.00000000E+00  0.00000000E+00
  0.00000000E+00  6.53298961E-01  0.00000000E+00  0.00000000E+00  1.00000000E+00
  0.00000000E+00  0.00000000E+00  0.00000000E+00  0.00000000E+00  0.00000000E+00
  0.00000000E+00  0.00000000E+00  6.53298961E-01  0.00000000E+00  0.00000000E+00
  1.00000000E+00  0.00000000E+00  0.00000000E+00  0.00000000E+00  0.00000000E+00
  0.00000000E+00  0.00000000E+00  0.00000000E+00  0.00000000E+00  6.53298961E-01
  0.00000000E+00  0.00000000E+00  1.00000000E+00  0.00000000E+00  0.00000000E+00
  0.00000000E+00  0.00000000E+00  0.00000000E+00  0.00000000E+00  2.74916570E-01
  0.00000000E+00  0.00000000E+00  7.25759933E-01  0.00000000E+00  0.00000000E+00
  1.00000000E+00  0.00000000E+00  0.00000000E+00  0.00000000E+00  0.00000000E+00
  0.00000000E+00  0.00000000E+00  0.00000000E+00  2.74916570E-01  0.00000000E+00
  0.00000000E+00  7.25759933E-01  0.00000000E+00  0.00000000E+00  1.00000000E+00
  0.00000000E+00  0.00000000E+00  0.00000000E+00  0.00000000E+00  0.00000000E+00
  0.00000000E+00  0.00000000E+00  0.00000000E+00  2.74916570E-01  0.00000000E+00
  0.00000000E+00  7.25759933E-01  0.00000000E+00  0.00000000E+00  1.00000000E+00
  3.18389904E-36 -2.01641958E-36  2.05411169E-33  0.00000000E+00  0.00000000E+00
  0.00000000E+00  8.77547625E-02  0.00000000E+00  0.00000000E+00  3.10357215E-01
  0.00000000E+00  0.00000000E+00  7.17229454E-01  0.00000000E+00  0.00000000E+00
  1.00000000E+00  0.00000000E+00  0.00000000E+00  0.00000000E+00  0.00000000E+00
  0.00000000E+00  0.00000000E+00  0.00000000E+00  8.77547625E-02  0.00000000E+00
  0.00000000E+00  3.10357215E-01  0.00000000E+00  0.00000000E+00  7.17229454E-01
  0.00000000E+00  0.00000000E+00  1.00000000E+00  0.00000000E+00  0.00000000E+00
  0.00000000E+00  0.00000000E+00  0.00000000E+00  0.00000000E+00  0.00000000E+00
  0.00000000E+00  8.77547625E-02  0.00000000E+00  0.00000000E+00  3.10357215E-01
  0.00000000E+00  0.00000000E+00  7.17229454E-01  0.00000000E+00  0.00000000E+00
  1.00000000E+00  4.92313482E-35 -5.07917246E-35  0.00000000E+00  0.00000000E+00
  0.00000000E+00  0.00000000E+00  2.25585098E-02  0.00000000E+00  0.00000000E+00
  9.06096241E-02  0.00000000E+00  0.00000000E+00  2.79452892E-01  0.00000000E+00
  0.00000000E+00  6.79509180E-01  0.00000000E+00  0.00000000E+00  1.00000000E+00
  0.00000000E+00  0.00000000E+00  0.00000000E+00  0.00000000E+00  0.00000000E+00
  0.00000000E+00  0.00000000E+00  2.25585098E-02  0.00000000E+00  0.00000000E+00
  9.06096241E-02  0.00000000E+00  0.00000000E+00  2.79452892E-01  0.00000000E+00
  0.00000000E+00  6.79509180E-01  0.00000000E+00  0.00000000E+00  1.00000000E+00
  0.00000000E+00  0.00000000E+00  0.00000000E+00  0.00000000E+00  0.00000000E+00
  0.00000000E+00  0.00000000E+00  0.00000000E+00  2.25585098E-02  0.00000000E+00
  0.00000000E+00  9.06096241E-02  0.00000000E+00  0.00000000E+00  2.79452892E-01
  0.00000000E+00  0.00000000E+00  6.79509180E-01  0.00000000E+00  0.00000000E+00
  1.00000000E+00  0.00000000E+00  0.00000000E+00  0.00000000E+00  0.00000000E+00
  0.00000000E+00  0.00000000E+00  0.00000000E+00  0.00000000E+00  0.00000000E+00
  0.00000000E+00  0.00000000E+00  0.00000000E+00  0.00000000E+00  0.00000000E+00
  0.00000000E+00  0.00000000E+00  0.00000000E+00  0.00000000E+00 -3.31548633E-34
  0.00000000E+00  0.00000000E+00  1.00000000E+00  0.00000000E+00  0.00000000E+00
  0.00000000E+00  0.00000000E+00  0.00000000E+00  0.00000000E+00  0.00000000E+00
  0.00000000E+00  0.00000000E+00  0.00000000E+00  0.00000000E+00  0.00000000E+00
  0.00000000E+00  0.00000000E+00  0.00000000E+00  0.00000000E+00  0.00000000E+00
  0.00000000E+00  0.00000000E+00  0.00000000E+00  5.74259077E-34  0.00000000E+00
  1.00000000E+00  0.00000000E+00  0.00000000E+00  0.00000000E+00  0.00000000E+00
  0.00000000E+00  0.00000000E+00  0.00000000E+00  0.00000000E+00  0.00000000E+00
  0.00000000E+00  0.00000000E+00  0.00000000E+00  0.00000000E+00  0.00000000E+00
  0.00000000E+00  0.00000000E+00  0.00000000E+00  0.00000000E+00  0.00000000E+00
  0.00000000E+00  0.00000000E+00  0.00000000E+00  0.00000000E+00  1.00000000E+00
 -1.14917230E-17  1.17801537E-17  2.73976543E-17  2.33064217E-17  2.38340421E-17
  5.66421007E-18  0.00000000E+00  0.00000000E+00  0.00000000E+00  0.00000000E+00
  0.00000000E+00  0.00000000E+00  0.00000000E+00  0.00000000E+00  0.00000000E+00
  0.00000000E+00  0.00000000E+00  0.00000000E+00  5.74259077E-34  0.00000000E+00
  0.00000000E+00 -4.95805605E-18  0.00000000E+00  0.00000000E+00  1.00000000E+00
  0.00000000E+00  0.00000000E+00  0.00000000E+00  0.00000000E+00  0.00000000E+00
  0.00000000E+00  0.00000000E+00  0.00000000E+00  0.00000000E+00  0.00000000E+00
  0.00000000E+00  0.00000000E+00  0.00000000E+00  0.00000000E+00  0.00000000E+00
  0.00000000E+00  0.00000000E+00  0.00000000E+00  0.00000000E+00  5.74259077E-34
  0.00000000E+00  0.00000000E+00  0.00000000E+00  0.00000000E+00  0.00000000E+00
  1.00000000E+00  0.00000000E+00  0.00000000E+00  0.00000000E+00  0.00000000E+00
  0.00000000E+00  0.00000000E+00  0.00000000E+00  0.00000000E+00  0.00000000E+00
  0.00000000E+00  0.00000000E+00  0.00000000E+00 -4.69762395E-33  0.00000000E+00
  0.00000000E+00  0.00000000E+00  0.00000000E+00  0.00000000E+00  0.00000000E+00
  0.00000000E+00  0.00000000E+00  6.32115949E-01  0.00000000E+00  0.00000000E+00
 -1.10231508E-17  0.00000000E+00  1.00000000E+00  0.00000000E+00  0.00000000E+00
  0.00000000E+00  0.00000000E+00  0.00000000E+00  0.00000000E+00  0.00000000E+00
  0.00000000E+00  0.00000000E+00  0.00000000E+00  0.00000000E+00  0.00000000E+00
  0.00000000E+00  0.00000000E+00  8.13652336E-33  0.00000000E+00  0.00000000E+00
  0.00000000E+00  0.00000000E+00  0.00000000E+00  0.00000000E+00  0.00000000E+00
  6.32115949E-01  0.00000000E+00  0.00000000E+00  0.00000000E+00  0.00000000E+00
  1.00000000E+00  0.00000000E+00  0.00000000E+00  0.00000000E+00  0.00000000E+00
  0.00000000E+00  0.00000000E+00  0.00000000E+00  0.00000000E+00  0.00000000E+00
  0.00000000E+00  0.00000000E+00  0.00000000E+00  0.00000000E+00  0.00000000E+00
  0.00000000E+00  0.00000000E+00  0.00000000E+00  0.00000000E+00  0.00000000E+00
  0.00000000E+00  0.00000000E+00  0.00000000E+00  0.00000000E+00  6.32115949E-01
  0.00000000E+00  0.00000000E+00  0.00000000E+00  0.00000000E+00  1.00000000E+00
  2.50877397E-18 -9.25808197E-19 -5.41362541E-18 -4.06739930E-17 -2.45579890E-17
 -1.45015414E-18  0.00000000E+00  0.00000000E+00  0.00000000E+00  0.00000000E+00
  0.00000000E+00  0.00000000E+00  8.13652336E-33  0.00000000E+00  0.00000000E+00
  0.00000000E+00  0.00000000E+00  0.00000000E+00  0.00000000E+00  0.00000000E+00
  0.00000000E+00 -9.29534079E-18  0.00000000E+00  0.00000000E+00  6.32115949E-01
  0.00000000E+00  1.73531962E-17  0.00000000E+00  0.00000000E+00  1.00000000E+00
  0.00000000E+00  0.00000000E+00  0.00000000E+00  0.00000000E+00  0.00000000E+00
  0.00000000E+00  0.00000000E+00  0.00000000E+00  0.00000000E+00  0.00000000E+00
  0.00000000E+00  0.00000000E+00  0.00000000E+00  8.13652336E-33  0.00000000E+00
  0.00000000E+00  0.00000000E+00  0.00000000E+00  0.00000000E+00  0.00000000E+00
  0.00000000E+00  0.00000000E+00  0.00000000E+00  0.00000000E+00  0.00000000E+00
  6.32115949E-01  0.00000000E+00  0.00000000E+00  0.00000000E+00  0.00000000E+00
  1.00000000E+00  0.00000000E+00  0.00000000E+00  0.00000000E+00  0.00000000E+00
  0.00000000E+00  0.00000000E+00 -6.87862736E-34  0.00000000E+00  0.00000000E+00
  0.00000000E+00  0.00000000E+00  0.00000000E+00  0.00000000E+00  0.00000000E+00
  0.00000000E+00 -2.77337363E-33  0.00000000E+00  0.00000000E+00  0.00000000E+00
  0.00000000E+00  0.00000000E+00  1.93385402E-01  0.00000000E+00  0.00000000E+00
 -6.01047320E-18  0.00000000E+00  6.32296255E-01  0.00000000E+00  0.00000000E+00
 -7.91049980E-18  0.00000000E+00  1.00000000E+00  0.00000000E+00  0.00000000E+00
  0.00000000E+00  0.00000000E+00  0.00000000E+00  0.00000000E+00  0.00000000E+00
  0.00000000E+00  1.19141321E-33  0.00000000E+00  0.00000000E+00  0.00000000E+00
  0.00000000E+00  0.00000000E+00  0.00000000E+00  0.00000000E+00  0.00000000E+00
  4.80362403E-33  0.00000000E+00  0.00000000E+00  0.00000000E+00  0.00000000E+00
  1.93385402E-01  0.00000000E+00  0.00000000E+00  0.00000000E+00  0.00000000E+00
  6.32296255E-01  0.00000000E+00  0.00000000E+00  0.00000000E+00  0.00000000E+00
  1.00000000E+00  0.00000000E+00  0.00000000E+00  0.00000000E+00  0.00000000E+00
  0.00000000E+00  0.00000000E+00  0.00000000E+00  0.00000000E+00  0.00000000E+00
  0.00000000E+00  0.00000000E+00  0.00000000E+00  0.00000000E+00  0.00000000E+00
  0.00000000E+00  0.00000000E+00  0.00000000E+00  0.00000000E+00  0.00000000E+00
  0.00000000E+00  0.00000000E+00  0.00000000E+00  0.00000000E+00  1.93385402E-01
  0.00000000E+00  0.00000000E+00  0.00000000E+00  0.00000000E+00  6.32296255E-01
  0.00000000E+00  0.00000000E+00  0.00000000E+00  0.00000000E+00  1.00000000E+00
 -1.44364438E-19  7.63948348E-19 -2.53046481E-18 -3.93515623E-18 -1.67497475E-17
 -3.02893104E-17  1.19141321E-33  0.00000000E+00  0.00000000E+00  0.00000000E+00
  0.00000000E+00  0.00000000E+00  0.00000000E+00  0.00000000E+00  0.00000000E+00
  4.80362403E-33  0.00000000E+00  0.00000000E+00  0.00000000E+00  0.00000000E+00
  0.00000000E+00  6.79596315E-20  0.00000000E+00  0.00000000E+00  1.93385402E-01
  0.00000000E+00  9.90326047E-18  0.00000000E+00  0.00000000E+00  6.32296255E-01
  0.00000000E+00  2.47902802E-17  0.00000000E+00  0.00000000E+00  1.00000000E+00
  0.00000000E+00  0.00000000E+00  0.00000000E+00  0.00000000E+00  0.00000000E+00
  0.00000000E+00  0.00000000E+00  1.19141321E-33  0.00000000E+00  0.00000000E+00
  0.00000000E+00  0.00000000E+00  0.00000000E+00  0.00000000E+00  0.00000000E+00
  0.00000000E+00  4.80362403E-33  0.00000000E+00  0.00000000E+00  0.00000000E+00
  0.00000000E+00  0.00000000E+00  0.00000000E+00  0.00000000E+00  0.00000000E+00
  1.93385402E-01  0.00000000E+00  0.00000000E+00  0.00000000E+00  0.00000000E+00
  6.32296255E-01  0.00000000E+00  0.00000000E+00  0.00000000E+00  0.00000000E+00
  1.00000000E+00  0.00000000E+00  0.00000000E+00  0.00000000E+00  0.00000000E+00
  0.00000000E+00  0.00000000E+00  0.00000000E+00  0.00000000E+00  0.00000000E+00
  0.00000000E+00  0.00000000E+00  0.00000000E+00  0.00000000E+00  0.00000000E+00
  0.00000000E+00  0.00000000E+00  0.00000000E+00  0.00000000E+00 -1.56799647E-33
  0.00000000E+00  0.00000000E+00  3.73716341E-02  0.00000000E+00  0.00000000E+00
  3.82578786E-19  0.00000000E+00  1.81967191E-01  0.00000000E+00  0.00000000E+00
  6.29018983E-18  0.00000000E+00  6.08606614E-01  0.00000000E+00  0.00000000E+00
 -8.65338396E-19  0.00000000E+00  1.00000000E+00  0.00000000E+00  0.00000000E+00
  0.00000000E+00  0.00000000E+00  0.00000000E+00  0.00000000E+00  0.00000000E+00
  0.00000000E+00  0.00000000E+00  0.00000000E+00  0.00000000E+00  0.00000000E+00
  0.00000000E+00  0.00000000E+00  0.00000000E+00  0.00000000E+00  0.00000000E+00
  0.00000000E+00  0.00000000E+00  0.00000000E+00  2.71584956E-33  0.00000000E+00
  3.73716341E-02  0.00000000E+00  0.00000000E+00  0.00000000E+00  0.00000000E+00
  1.81967191E-01  0.00000000E+00  0.00000000E+00  0.00000000E+00  0.00000000E+00
  6.08606614E-01  0.00000000E+00  0.00000000E+00  0.00000000E+00  0.00000000E+00
  1.00000000E+00  0.00000000E+00  0.00000000E+00  0.00000000E+00  0.00000000E+00
  0.00000000E+00  0.00000000E+00  0.00000000E+00  0.00000000E+00  0.00000000E+00
  0.00000000E+00  0.00000000E+00  0.00000000E+00  0.00000000E+00  0.00000000E+00
  0.00000000E+00  0.00000000E+00  0.00000000E+00  0.00000000E+00  0.00000000E+00
  0.00000000E+00  0.00000000E+00  0.00000000E+00  0.00000000E+00  3.73716341E-02
  0.00000000E+00  0.00000000E+00  0.00000000E+00  0.00000000E+00  1.81967191E-01
  0.00000000E+00  0.00000000E+00  0.00000000E+00  0.00000000E+00  6.08606614E-01
  0.00000000E+00  0.00000000E+00  0.00000000E+00  0.00000000E+00  1.00000000E+00
 -8.19556099E-20  6.89463035E-20  1.32077249E-18  1.36593718E-17 -4.72951606E-18
 -4.00211879E-17  0.00000000E+00  0.00000000E+00  0.00000000E+00  0.00000000E+00
  0.00000000E+00  0.00000000E+00  0.00000000E+00  0.00000000E+00  0.00000000E+00
  0.00000000E+00  0.00000000E+00  0.00000000E+00  2.71584956E-33  0.00000000E+00
  0.00000000E+00  8.53954522E-19  0.00000000E+00  0.00000000E+00  3.73716341E-02
  0.00000000E+00  6.48704075E-19  0.00000000E+00  0.00000000E+00  1.81967191E-01
  0.00000000E+00 -6.57174568E-18  0.00000000E+00  0.00000000E+00  6.08606614E-01
  0.00000000E+00 -4.95805605E-18  0.00000000E+00  0.00000000E+00  1.00000000E+00
  0.00000000E+00  0.00000000E+00  0.00000000E+00  0.00000000E+00  0.00000000E+00
  0.00000000E+00  0.00000000E+00  0.00000000E+00  0.00000000E+00  0.00000000E+00
  0.00000000E+00  0.00000000E+00  0.00000000E+00  0.00000000E+00  0.00000000E+00
  0.00000000E+00  0.00000000E+00  0.00000000E+00  0.00000000E+00  2.71584956E-33
  0.00000000E+00  0.00000000E+00  0.00000000E+00  0.00000000E+00  0.00000000E+00
  3.73716341E-02  0.00000000E+00  0.00000000E+00  0.00000000E+00  0.00000000E+00
  1.81967191E-01  0.00000000E+00  0.00000000E+00  0.00000000E+00  0.00000000E+00
  6.08606614E-01  0.00000000E+00  0.00000000E+00  0.00000000E+00  0.00000000E+00
  1.00000000E+00  0.00000000E+00  0.00000000E+00  0.00000000E+00  0.00000000E+00
  0.00000000E+00  0.00000000E+00  0.00000000E+00  0.00000000E+00  5.55111512E-17
  0.00000000E+00  0.00000000E+00 -1.11022302E-16  0.00000000E+00  0.00000000E+00
  1.11022302E-16  0.00000000E+00  0.00000000E+00  0.00000000E+00  0.00000000E+00
  0.00000000E+00  1.38777878E-17  0.00000000E+00  0.00000000E+00  0.00000000E+00
  0.00000000E+00  0.00000000E+00  0.00000000E+00  0.00000000E+00  0.00000000E+00
  0.00000000E+00  0.00000000E+00  0.00000000E+00 -3.11472597E-33  0.00000000E+00
  0.00000000E+00  0.00000000E+00  0.00000000E+00  0.00000000E+00  0.00000000E+00
  0.00000000E+00  0.00000000E+00  1.00000000E+00  0.00000000E+00  0.00000000E+00
  0.00000000E+00  0.00000000E+00  0.00000000E+00  0.00000000E+00 -1.65746151E-17
  0.00000000E+00  0.00000000E+00  7.82326427E-17  0.00000000E+00  0.00000000E+00
 -4.82405375E-17  0.00000000E+00  0.00000000E+00  1.31910493E-18  0.00000000E+00
  0.00000000E+00 -1.02740303E-17  0.00000000E+00  0.00000000E+00  0.00000000E+00
  0.00000000E+00  0.00000000E+00  0.00000000E+00  0.00000000E+00  0.00000000E+00
  0.00000000E+00  0.00000000E+00  0.00000000E+00  0.00000000E+00  4.40488772E-33
  0.00000000E+00  0.00000000E+00 -1.27158155E-33  0.00000000E+00  0.00000000E+00
  0.00000000E+00  0.00000000E+00  0.00000000E+00  0.00000000E+00  0.00000000E+00
  1.00000000E+00  0.00000000E+00  0.00000000E+00  0.00000000E+00  0.00000000E+00
  0.00000000E+00  0.00000000E+00  0.00000000E+00 -1.65746151E-17  0.00000000E+00
  0.00000000E+00  7.82326427E-17  0.00000000E+00  0.00000000E+00 -4.82405375E-17
  0.00000000E+00  0.00000000E+00  1.31910493E-18  0.00000000E+00  0.00000000E+00
 -3.33513636E-18  0.00000000E+00  0.00000000E+00  0.00000000E+00  0.00000000E+00
  0.00000000E+00  0.00000000E+00  0.00000000E+00  0.00000000E+00  0.00000000E+00
  0.00000000E+00  0.00000000E+00  0.00000000E+00  0.00000000E+00  0.00000000E+00
  0.00000000E+00 -1.27158155E-33  0.00000000E+00  0.00000000E+00  0.00000000E+00
  0.00000000E+00  0.00000000E+00  0.00000000E+00  0.00000000E+00  1.00000000E+00
  0.00000000E+00  0.00000000E+00  0.00000000E+00  0.00000000E+00  0.00000000E+00
  0.00000000E+00  0.00000000E+00  0.00000000E+00  8.09397972E-18  0.00000000E+00
  0.00000000E+00  1.21785509E-19  0.00000000E+00  0.00000000E+00 -1.87970933E-17
  0.00000000E+00  0.00000000E+00 -7.84180844E-18  0.00000000E+00  0.00000000E+00
 -1.94732128E-18  0.00000000E+00  0.00000000E+00  0.00000000E+00  0.00000000E+00
  0.00000000E+00  0.00000000E+00  0.00000000E+00  0.00000000E+00  0.00000000E+00
  0.00000000E+00  0.00000000E+00  4.02109394E-33  0.00000000E+00  0.00000000E+00
  0.00000000E+00  0.00000000E+00  0.00000000E+00  0.00000000E+00  0.00000000E+00
  0.00000000E+00 -2.21993345E-17  0.00000000E+00  0.00000000E+00  1.00000000E+00
  0.00000000E+00  0.00000000E+00  0.00000000E+00  0.00000000E+00  0.00000000E+00
  0.00000000E+00  0.00000000E+00  0.00000000E+00  0.00000000E+00  0.00000000E+00
  0.00000000E+00  0.00000000E+00  0.00000000E+00  0.00000000E+00  0.00000000E+00
  0.00000000E+00  0.00000000E+00  0.00000000E+00  0.00000000E+00  0.00000000E+00
  0.00000000E+00  0.00000000E+00  0.00000000E+00  0.00000000E+00  0.00000000E+00
  0.00000000E+00  0.00000000E+00  0.00000000E+00  0.00000000E+00  0.00000000E+00
  0.00000000E+00  0.00000000E+00  0.00000000E+00  4.02109394E-33  0.00000000E+00
  0.00000000E+00  0.00000000E+00  0.00000000E+00  0.00000000E+00  0.00000000E+00
  0.00000000E+00  0.00000000E+00  0.00000000E+00  0.00000000E+00  0.00000000E+00
  1.00000000E+00  0.00000000E+00  0.00000000E+00  0.00000000E+00  0.00000000E+00
  0.00000000E+00  0.00000000E+00  9.95560169E-17  0.00000000E+00  0.00000000E+00
 -3.94897304E-17  0.00000000E+00  0.00000000E+00  1.78424112E-16  0.00000000E+00
  0.00000000E+00  1.28636614E-17  0.00000000E+00  0.00000000E+00  1.62976534E-17
  0.00000000E+00  0.00000000E+00  0.00000000E+00  0.00000000E+00  0.00000000E+00
  0.00000000E+00  0.00000000E+00  0.00000000E+00  0.00000000E+00  0.00000000E+00
  0.00000000E+00  0.00000000E+00 -9.10794166E-49  0.00000000E+00  0.00000000E+00
  4.92481418E-33  0.00000000E+00  0.00000000E+00  0.00000000E+00  0.00000000E+00
  0.00000000E+00  0.00000000E+00  0.00000000E+00  3.90340131E-16  0.00000000E+00
  0.00000000E+00  0.00000000E+00  1.00000000E+00  0.00000000E+00  0.00000000E+00
  0.00000000E+00  0.00000000E+00  0.00000000E+00  0.00000000E+00  0.00000000E+00
 -1.06919819E-16  0.00000000E+00  0.00000000E+00 -4.69112183E-17  0.00000000E+00
  0.00000000E+00 -1.59785891E-16  0.00000000E+00  0.00000000E+00 -1.38259405E-17
  0.00000000E+00  0.00000000E+00 -1.37738358E-17  0.00000000E+00  0.00000000E+00
  0.00000000E+00  0.00000000E+00  0.00000000E+00  0.00000000E+00  0.00000000E+00
  0.00000000E+00  0.00000000E+00  0.00000000E+00  0.00000000E+00  0.00000000E+00
  0.00000000E+00  0.00000000E+00  0.00000000E+00  4.92481418E-33  0.00000000E+00
  0.00000000E+00  0.00000000E+00  0.00000000E+00  0.00000000E+00  0.00000000E+00
  0.00000000E+00 -3.89455055E-16  0.00000000E+00  0.00000000E+00  0.00000000E+00
  1.00000000E+00  0.00000000E+00  0.00000000E+00  0.00000000E+00  0.00000000E+00
  0.00000000E+00  0.00000000E+00  0.00000000E+00  0.00000000E+00 -5.55111512E-17
  0.00000000E+00  0.00000000E+00  0.00000000E+00  0.00000000E+00  0.00000000E+00
 -3.33066907E-16  0.00000000E+00  0.00000000E+00  0.00000000E+00  0.00000000E+00
  0.00000000E+00 -8.32667268E-17  0.00000000E+00  0.00000000E+00  0.00000000E+00
  0.00000000E+00  0.00000000E+00  0.00000000E+00  0.00000000E+00  0.00000000E+00
  0.00000000E+00  0.00000000E+00  0.00000000E+00 -5.21185842E-33  0.00000000E+00
  0.00000000E+00  0.00000000E+00  0.00000000E+00  0.00000000E+00  0.00000000E+00
  0.00000000E+00  0.00000000E+00  5.38285937E-01  0.00000000E+00  0.00000000E+00
 -8.31068753E-19  0.00000000E+00  0.00000000E+00  0.00000000E+00  1.00000000E+00
  0.00000000E+00  0.00000000E+00  0.00000000E+00  0.00000000E+00  0.00000000E+00
  0.00000000E+00  2.70763289E-17  0.00000000E+00  0.00000000E+00 -2.95932945E-17
  0.00000000E+00  0.00000000E+00  1.27956333E-16  0.00000000E+00  0.00000000E+00
  4.05755808E-17  0.00000000E+00  0.00000000E+00  5.42174446E-17  0.00000000E+00
  0.00000000E+00  0.00000000E+00  0.00000000E+00  0.00000000E+00  0.00000000E+00
  0.00000000E+00  0.00000000E+00  0.00000000E+00  0.00000000E+00  0.00000000E+00
  0.00000000E+00  7.37068086E-33  0.00000000E+00  0.00000000E+00 -2.12773229E-33
  0.00000000E+00  0.00000000E+00  0.00000000E+00  0.00000000E+00  0.00000000E+00
  0.00000000E+00  0.00000000E+00  5.38285937E-01  0.00000000E+00  0.00000000E+00
  0.00000000E+00 -2.25605029E-16  0.00000000E+00  0.00000000E+00  1.00000000E+00
  0.00000000E+00  0.00000000E+00  0.00000000E+00  0.00000000E+00  0.00000000E+00
  0.00000000E+00  0.00000000E+00  2.70763289E-17  0.00000000E+00  0.00000000E+00
 -2.95932945E-17  0.00000000E+00  0.00000000E+00  2.38978635E-16  0.00000000E+00
  0.00000000E+00  4.05755808E-17  0.00000000E+00  0.00000000E+00  5.42174446E-17
  0.00000000E+00  0.00000000E+00  0.00000000E+00  0.00000000E+00  0.00000000E+00
  0.00000000E+00  0.00000000E+00  0.00000000E+00  0.00000000E+00  0.00000000E+00
  0.00000000E+00  0.00000000E+00  0.00000000E+00  0.00000000E+00  0.00000000E+00
 -2.12773229E-33  0.00000000E+00  0.00000000E+00  0.00000000E+00  0.00000000E+00
  0.00000000E+00  0.00000000E+00  0.00000000E+00  5.38285937E-01  0.00000000E+00
  0.00000000E+00  0.00000000E+00  2.05629420E-16  0.00000000E+00  0.00000000E+00
  1.00000000E+00  0.00000000E+00  0.00000000E+00  0.00000000E+00  0.00000000E+00
  0.00000000E+00  0.00000000E+00  0.00000000E+00  0.00000000E+00  3.08858968E-18
  0.00000000E+00  0.00000000E+00  2.68169501E-17  0.00000000E+00  0.00000000E+00
  2.88125652E-18  0.00000000E+00  0.00000000E+00  9.27583888E-18  0.00000000E+00
  0.00000000E+00  9.40482705E-18  0.00000000E+00  0.00000000E+00  0.00000000E+00
  0.00000000E+00  0.00000000E+00  0.00000000E+00  0.00000000E+00  0.00000000E+00
  0.00000000E+00  0.00000000E+00  0.00000000E+00  6.72848028E-33  0.00000000E+00
  0.00000000E+00  0.00000000E+00  0.00000000E+00  0.00000000E+00  0.00000000E+00
  0.00000000E+00  0.00000000E+00  1.17950477E-17  0.00000000E+00  0.00000000E+00
  5.38285937E-01  0.00000000E+00  0.00000000E+00  0.00000000E+00 -4.22040870E-19
  0.00000000E+00  0.00000000E+00  1.00000000E+00  0.00000000E+00  0.00000000E+00
  0.00000000E+00  0.00000000E+00  0.00000000E+00  0.00000000E+00  0.00000000E+00
  0.00000000E+00  0.00000000E+00  0.00000000E+00  0.00000000E+00  0.00000000E+00
  0.00000000E+00  0.00000000E+00  0.00000000E+00  0.00000000E+00  0.00000000E+00
  0.00000000E+00  0.00000000E+00  0.00000000E+00  0.00000000E+00  0.00000000E+00
  0.00000000E+00  0.00000000E+00  0.00000000E+00  0.00000000E+00  0.00000000E+00
  0.00000000E+00  0.00000000E+00  0.00000000E+00  0.00000000E+00  0.00000000E+00
  0.00000000E+00  6.72848028E-33  0.00000000E+00  0.00000000E+00  0.00000000E+00
  0.00000000E+00  0.00000000E+00  0.00000000E+00  0.00000000E+00  0.00000000E+00
  0.00000000E+00  0.00000000E+00  0.00000000E+00  5.38285937E-01  0.00000000E+00
  0.00000000E+00  0.00000000E+00  0.00000000E+00  0.00000000E+00  0.00000000E+00
  1.00000000E+00  0.00000000E+00  0.00000000E+00  0.00000000E+00  0.00000000E+00
  0.00000000E+00  0.00000000E+00 -2.94072938E-17  0.00000000E+00  0.00000000E+00
  1.12679111E-16  0.00000000E+00  0.00000000E+00 -1.60379205E-16  0.00000000E+00
  0.00000000E+00  1.19793718E-16  0.00000000E+00  0.00000000E+00 -3.41863765E-17
  0.00000000E+00  0.00000000E+00  0.00000000E+00  0.00000000E+00  0.00000000E+00
  0.00000000E+00  0.00000000E+00  0.00000000E+00  0.00000000E+00  0.00000000E+00
  0.00000000E+00  0.00000000E+00 -1.28427409E-48  0.00000000E+00  0.00000000E+00
  8.24067172E-33  0.00000000E+00  0.00000000E+00  0.00000000E+00  0.00000000E+00
  0.00000000E+00  0.00000000E+00  0.00000000E+00 -2.77355645E-16  0.00000000E+00
  0.00000000E+00  0.00000000E+00  5.38285937E-01  0.00000000E+00  0.00000000E+00
  1.32121661E-16  0.00000000E+00  0.00000000E+00  0.00000000E+00  1.00000000E+00
  0.00000000E+00  0.00000000E+00  0.00000000E+00  0.00000000E+00  0.00000000E+00
  0.00000000E+00  0.00000000E+00  2.35063135E-17  0.00000000E+00  0.00000000E+00
 -1.05045462E-16  0.00000000E+00  0.00000000E+00  9.03577947E-17  0.00000000E+00
  0.00000000E+00 -6.04849393E-17  0.00000000E+00  0.00000000E+00  2.77840251E-17
  0.00000000E+00  0.00000000E+00  0.00000000E+00  0.00000000E+00  0.00000000E+00
  0.00000000E+00  0.00000000E+00  0.00000000E+00  0.00000000E+00  0.00000000E+00
  0.00000000E+00  0.00000000E+00  0.00000000E+00  0.00000000E+00  0.00000000E+00
  8.24067172E-33  0.00000000E+00  0.00000000E+00  0.00000000E+00  0.00000000E+00
  0.00000000E+00  0.00000000E+00  0.00000000E+00  2.35886125E-16  0.00000000E+00
  0.00000000E+00  0.00000000E+00  5.38285937E-01  0.00000000E+00  0.00000000E+00
 -5.31927939E-17  0.00000000E+00  0.00000000E+00  0.00000000E+00  1.00000000E+00
  0.00000000E+00  0.00000000E+00  0.00000000E+00  0.00000000E+00  0.00000000E+00
  0.00000000E+00  0.00000000E+00  0.00000000E+00  2.42861287E-17  0.00000000E+00
  0.00000000E+00 -8.32667268E-17  0.00000000E+00  0.00000000E+00  2.22044605E-16
  0.00000000E+00  0.00000000E+00  0.00000000E+00  0.00000000E+00  0.00000000E+00
  0.00000000E+00  0.00000000E+00  0.00000000E+00  0.00000000E+00  0.00000000E+00
  0.00000000E+00  0.00000000E+00 -2.18198084E-33  0.00000000E+00  0.00000000E+00
  0.00000000E+00  0.00000000E+00  0.00000000E+00  0.00000000E+00  0.00000000E+00
  0.00000000E+00  0.00000000E+00  0.00000000E+00  0.00000000E+00  0.00000000E+00
  0.00000000E+00  1.35638835E-01  0.00000000E+00  0.00000000E+00  1.02053528E-17
  0.00000000E+00  0.00000000E+00  0.00000000E+00  6.10992358E-01  0.00000000E+00
  0.00000000E+00  9.69193240E-18  0.00000000E+00  0.00000000E+00  0.00000000E+00
  1.00000000E+00  0.00000000E+00  0.00000000E+00  0.00000000E+00  0.00000000E+00
  0.00000000E+00  0.00000000E+00 -1.47838486E-17  0.00000000E+00  0.00000000E+00
  6.47768715E-17  0.00000000E+00  0.00000000E+00 -1.52283908E-16  0.00000000E+00
  0.00000000E+00 -5.11598442E-17  0.00000000E+00  0.00000000E+00  5.17595470E-17
  0.00000000E+00  0.00000000E+00  0.00000000E+00  0.00000000E+00  0.00000000E+00
  0.00000000E+00  0.00000000E+00  3.08578690E-33  0.00000000E+00  0.00000000E+00
 -8.90789948E-34  0.00000000E+00  0.00000000E+00  0.00000000E+00  0.00000000E+00
  0.00000000E+00  0.00000000E+00  0.00000000E+00  0.00000000E+00  0.00000000E+00
  0.00000000E+00  0.00000000E+00  0.00000000E+00  1.35638835E-01  0.00000000E+00
  0.00000000E+00  0.00000000E+00 -6.78944746E-17  0.00000000E+00  0.00000000E+00
  6.10992358E-01  0.00000000E+00  0.00000000E+00  0.00000000E+00 -4.70963903E-17
  0.00000000E+00  0.00000000E+00  1.00000000E+00  0.00000000E+00  0.00000000E+00
  0.00000000E+00  0.00000000E+00  0.00000000E+00  0.00000000E+00  0.00000000E+00
 -1.47838486E-17  0.00000000E+00  0.00000000E+00  6.47768715E-17  0.00000000E+00
  0.00000000E+00 -1.52283908E-16  0.00000000E+00  0.00000000E+00  5.98624583E-17
  0.00000000E+00  0.00000000E+00 -3.75160426E-18  0.00000000E+00  0.00000000E+00
  0.00000000E+00  0.00000000E+00  0.00000000E+00  0.00000000E+00  0.00000000E+00
  0.00000000E+00  0.00000000E+00  0.00000000E+00 -8.90789948E-34  0.00000000E+00
  0.00000000E+00  0.00000000E+00  0.00000000E+00  0.00000000E+00  0.00000000E+00
  0.00000000E+00  0.00000000E+00  0.00000000E+00  0.00000000E+00  0.00000000E+00
  0.00000000E+00  1.35638835E-01  0.00000000E+00  0.00000000E+00  0.00000000E+00
  7.25566812E-17  0.00000000E+00  0.00000000E+00  6.10992358E-01  0.00000000E+00
  0.00000000E+00  0.00000000E+00  5.45773034E-17  0.00000000E+00  0.00000000E+00
  1.00000000E+00  0.00000000E+00  0.00000000E+00  0.00000000E+00  0.00000000E+00
  0.00000000E+00  0.00000000E+00  0.00000000E+00  0.00000000E+00 -1.46464932E-19
  0.00000000E+00  0.00000000E+00  8.44044645E-19  0.00000000E+00  0.00000000E+00
  1.29790605E-17  0.00000000E+00  0.00000000E+00  3.17570394E-17  0.00000000E+00
  0.00000000E+00 -1.25435119E-17  0.00000000E+00  0.00000000E+00  0.00000000E+00
  0.00000000E+00  0.00000000E+00  0.00000000E+00  2.81692515E-33  0.00000000E+00
  0.00000000E+00  0.00000000E+00  0.00000000E+00  0.00000000E+00  0.00000000E+00
  0.00000000E+00  0.00000000E+00  0.00000000E+00  0.00000000E+00  0.00000000E+00
  0.00000000E+00  0.00000000E+00  1.29961532E-17  0.00000000E+00  0.00000000E+00
  1.35638835E-01  0.00000000E+00  0.00000000E+00  0.00000000E+00  9.77931085E-18
  0.00000000E+00  0.00000000E+00  6.10992358E-01  0.00000000E+00  0.00000000E+00
  0.00000000E+00  3.56348047E-18  0.00000000E+00  0.00000000E+00  1.00000000E+00
  0.00000000E+00  0.00000000E+00  0.00000000E+00  0.00000000E+00  0.00000000E+00
  0.00000000E+00  0.00000000E+00  0.00000000E+00  0.00000000E+00  0.00000000E+00
  0.00000000E+00  0.00000000E+00  0.00000000E+00  0.00000000E+00  0.00000000E+00
  0.00000000E+00  0.00000000E+00  0.00000000E+00  0.00000000E+00  0.00000000E+00
  0.00000000E+00  0.00000000E+00  0.00000000E+00  0.00000000E+00  0.00000000E+00
  0.00000000E+00  0.00000000E+00  0.00000000E+00  2.81692515E-33  0.00000000E+00
  0.00000000E+00  0.00000000E+00  0.00000000E+00  0.00000000E+00  0.00000000E+00
  0.00000000E+00  0.00000000E+00  0.00000000E+00  0.00000000E+00  0.00000000E+00
  0.00000000E+00  0.00000000E+00  0.00000000E+00  0.00000000E+00  0.00000000E+00
  1.35638835E-01  0.00000000E+00  0.00000000E+00  0.00000000E+00  0.00000000E+00
  0.00000000E+00  0.00000000E+00  6.10992358E-01  0.00000000E+00  0.00000000E+00
  0.00000000E+00  0.00000000E+00  0.00000000E+00  0.00000000E+00  1.00000000E+00
  0.00000000E+00  0.00000000E+00  0.00000000E+00  0.00000000E+00  0.00000000E+00
  0.00000000E+00  2.20932228E-17  0.00000000E+00  0.00000000E+00 -5.70198832E-17
  0.00000000E+00  0.00000000E+00  2.56023011E-16  0.00000000E+00  0.00000000E+00
  5.53941746E-17  0.00000000E+00  0.00000000E+00  3.48833113E-17  0.00000000E+00
  0.00000000E+00  0.00000000E+00  0.00000000E+00  0.00000000E+00  0.00000000E+00
  0.00000000E+00 -1.18106654E-48  0.00000000E+00  0.00000000E+00  3.45001463E-33
  0.00000000E+00  0.00000000E+00  0.00000000E+00  0.00000000E+00  0.00000000E+00
  0.00000000E+00  0.00000000E+00  0.00000000E+00  0.00000000E+00  0.00000000E+00
  0.00000000E+00  0.00000000E+00 -6.39972191E-17  0.00000000E+00  0.00000000E+00
  0.00000000E+00  1.35638835E-01  0.00000000E+00  0.00000000E+00 -7.58866810E-17
  0.00000000E+00  0.00000000E+00  0.00000000E+00  6.10992358E-01  0.00000000E+00
  0.00000000E+00  4.38039598E-17  0.00000000E+00  0.00000000E+00  0.00000000E+00
  1.00000000E+00  0.00000000E+00  0.00000000E+00  0.00000000E+00  0.00000000E+00
  0.00000000E+00  0.00000000E+00  0.00000000E+00 -2.22815349E-17  0.00000000E+00
  0.00000000E+00  5.50136870E-17  0.00000000E+00  0.00000000E+00 -2.73424786E-16
  0.00000000E+00  0.00000000E+00 -2.54034195E-17  0.00000000E+00  0.00000000E+00
 -7.45679927E-17  0.00000000E+00  0.00000000E+00  0.00000000E+00  0.00000000E+00
  0.00000000E+00  0.00000000E+00  0.00000000E+00  0.00000000E+00  0.00000000E+00
  0.00000000E+00  3.45001463E-33  0.00000000E+00  0.00000000E+00  0.00000000E+00
  0.00000000E+00  0.00000000E+00  0.00000000E+00  0.00000000E+00  0.00000000E+00
  0.00000000E+00  0.00000000E+00  0.00000000E+00  0.00000000E+00  7.36160264E-17
  0.00000000E+00  0.00000000E+00  0.00000000E+00  1.35638835E-01  0.00000000E+00
  0.00000000E+00  6.67312793E-17  0.00000000E+00  0.00000000E+00  0.00000000E+00
  6.10992358E-01  0.00000000E+00  0.00000000E+00 -8.09483695E-17  0.00000000E+00
  0.00000000E+00  0.00000000E+00  1.00000000E+00 -2.08166817E-17  5.55111512E-17
 -1.66533454E-16 -1.11022302E-16  2.22044605E-16  1.11022302E-16 -3.63496001E-49
  0.00000000E+00  0.00000000E+00  0.00000000E+00  0.00000000E+00  0.00000000E+00
  0.00000000E+00  0.00000000E+00  0.00000000E+00  0.00000000E+00  0.00000000E+00
  0.00000000E+00  0.00000000E+00  0.00000000E+00  0.00000000E+00 -1.11022302E-16
  0.00000000E+00  0.00000000E+00  4.89748002E-18  0.00000000E+00  1.11022302E-16
  0.00000000E+00  0.00000000E+00  8.69091919E-17  0.00000000E+00 -1.11022302E-16
  0.00000000E+00  0.00000000E+00 -7.36049178E-18  0.00000000E+00 -1.38777878E-16
  0.00000000E+00  0.00000000E+00 -5.01873765E-18  0.00000000E+00  0.00000000E+00
  0.00000000E+00  0.00000000E+00  0.00000000E+00  0.00000000E+00  0.00000000E+00
  0.00000000E+00  0.00000000E+00  0.00000000E+00  0.00000000E+00  0.00000000E+00
  0.00000000E+00  0.00000000E+00  0.00000000E+00  0.00000000E+00  0.00000000E+00
  0.00000000E+00  0.00000000E+00  0.00000000E+00  0.00000000E+00  0.00000000E+00
  1.00000000E+00  0.00000000E+00  0.00000000E+00  0.00000000E+00  0.00000000E+00
  0.00000000E+00  0.00000000E+00  0.00000000E+00  0.00000000E+00  1.84362280E-50
  0.00000000E+00  0.00000000E+00  0.00000000E+00  0.00000000E+00  0.00000000E+00
  0.00000000E+00  0.00000000E+00  0.00000000E+00  0.00000000E+00  0.00000000E+00
  0.00000000E+00  0.00000000E+00  0.00000000E+00 -2.22704027E-17  0.00000000E+00
  0.00000000E+00  0.00000000E+00  0.00000000E+00 -2.00577627E-16  0.00000000E+00
  0.00000000E+00  0.00000000E+00  0.00000000E+00 -9.15665808E-18  0.00000000E+00
  0.00000000E+00  0.00000000E+00  0.00000000E+00 -1.94792777E-17  0.00000000E+00
  0.00000000E+00  0.00000000E+00  0.00000000E+00  0.00000000E+00  0.00000000E+00
  0.00000000E+00  0.00000000E+00  0.00000000E+00  0.00000000E+00  0.00000000E+00
  0.00000000E+00  0.00000000E+00  0.00000000E+00  0.00000000E+00  0.00000000E+00
  0.00000000E+00  0.00000000E+00  0.00000000E+00  0.00000000E+00  0.00000000E+00
  0.00000000E+00  0.00000000E+00  0.00000000E+00  0.00000000E+00  1.00000000E+00
  0.00000000E+00  0.00000000E+00  0.00000000E+00  0.00000000E+00  0.00000000E+00
  0.00000000E+00  0.00000000E+00  0.00000000E+00  0.00000000E+00  0.00000000E+00
  0.00000000E+00  0.00000000E+00  0.00000000E+00  0.00000000E+00  0.00000000E+00
  0.00000000E+00  0.00000000E+00  0.00000000E+00  0.00000000E+00  0.00000000E+00
  0.00000000E+00  0.00000000E+00  0.00000000E+00 -2.22704027E-17  0.00000000E+00
  0.00000000E+00  0.00000000E+00  0.00000000E+00 -2.00577627E-16  0.00000000E+00
  0.00000000E+00  0.00000000E+00  0.00000000E+00 -9.15665808E-18  0.00000000E+00
  0.00000000E+00  0.00000000E+00  0.00000000E+00  8.27629787E-18  0.00000000E+00
  0.00000000E+00  0.00000000E+00  0.00000000E+00  0.00000000E+00  0.00000000E+00
  0.00000000E+00  0.00000000E+00  0.00000000E+00  0.00000000E+00  0.00000000E+00
  0.00000000E+00  0.00000000E+00  0.00000000E+00  0.00000000E+00  0.00000000E+00
  0.00000000E+00  0.00000000E+00  0.00000000E+00  0.00000000E+00  0.00000000E+00
  0.00000000E+00  0.00000000E+00  0.00000000E+00  0.00000000E+00  1.00000000E+00
  5.10234537E-20  2.10787482E-18  2.79822761E-17  7.30184318E-17  2.62517781E-18
  1.10487835E-18 -1.74789997E-50  0.00000000E+00  0.00000000E+00  0.00000000E+00
  0.00000000E+00  0.00000000E+00  0.00000000E+00  0.00000000E+00  0.00000000E+00
  0.00000000E+00  0.00000000E+00  0.00000000E+00  0.00000000E+00  0.00000000E+00
  0.00000000E+00 -4.13650479E-18  0.00000000E+00  0.00000000E+00  1.66492253E-16
  0.00000000E+00 -1.36084861E-17  0.00000000E+00  0.00000000E+00  1.69707326E-16
  0.00000000E+00 -3.35078842E-18  0.00000000E+00  0.00000000E+00  1.72423205E-16
  0.00000000E+00 -6.17981382E-18  0.00000000E+00  0.00000000E+00  2.26734855E-16
  0.00000000E+00  0.00000000E+00  0.00000000E+00  0.00000000E+00  0.00000000E+00
  0.00000000E+00  0.00000000E+00  0.00000000E+00  0.00000000E+00  0.00000000E+00
  0.00000000E+00  0.00000000E+00  0.00000000E+00  0.00000000E+00  0.00000000E+00
  0.00000000E+00  0.00000000E+00  0.00000000E+00  0.00000000E+00  0.00000000E+00
  0.00000000E+00  0.00000000E+00 -2.30395508E-17  0.00000000E+00  0.00000000E+00
  1.00000000E+00  0.00000000E+00  0.00000000E+00  0.00000000E+00  0.00000000E+00
  0.00000000E+00  0.00000000E+00  0.00000000E+00 -9.59047462E-50  0.00000000E+00
  0.00000000E+00  0.00000000E+00  0.00000000E+00  0.00000000E+00  0.00000000E+00
  0.00000000E+00  0.00000000E+00  0.00000000E+00  0.00000000E+00  0.00000000E+00
  0.00000000E+00  0.00000000E+00  0.00000000E+00  0.00000000E+00  0.00000000E+00
  0.00000000E+00 -9.72718151E-17  0.00000000E+00  0.00000000E+00  0.00000000E+00
  0.00000000E+00 -3.34868842E-17  0.00000000E+00  0.00000000E+00  0.00000000E+00
  0.00000000E+00 -1.58587252E-16  0.00000000E+00  0.00000000E+00  0.00000000E+00
  0.00000000E+00 -9.06462055E-18  0.00000000E+00  0.00000000E+00  0.00000000E+00
  0.00000000E+00  0.00000000E+00  0.00000000E+00  0.00000000E+00  0.00000000E+00
  0.00000000E+00  0.00000000E+00  0.00000000E+00  0.00000000E+00  0.00000000E+00
  0.00000000E+00  0.00000000E+00  0.00000000E+00  0.00000000E+00  0.00000000E+00
  0.00000000E+00  0.00000000E+00  0.00000000E+00  0.00000000E+00  0.00000000E+00
  0.00000000E+00  0.00000000E+00  1.00000000E+00  0.00000000E+00  0.00000000E+00
  0.00000000E+00  0.00000000E+00  0.00000000E+00  0.00000000E+00  0.00000000E+00
  0.00000000E+00  8.16950253E-50  0.00000000E+00  0.00000000E+00  0.00000000E+00
  0.00000000E+00  0.00000000E+00  0.00000000E+00  0.00000000E+00  0.00000000E+00
  0.00000000E+00  0.00000000E+00  0.00000000E+00  0.00000000E+00  0.00000000E+00
  9.83626098E-17  0.00000000E+00  0.00000000E+00  0.00000000E+00  0.00000000E+00
  6.52483268E-17  0.00000000E+00  0.00000000E+00  0.00000000E+00  0.00000000E+00
  1.09853194E-16  0.00000000E+00  0.00000000E+00  0.00000000E+00  0.00000000E+00
  7.74767237E-18  0.00000000E+00  0.00000000E+00  0.00000000E+00  0.00000000E+00
  0.00000000E+00  0.00000000E+00  0.00000000E+00  0.00000000E+00  0.00000000E+00
  0.00000000E+00  0.00000000E+00  0.00000000E+00  0.00000000E+00  0.00000000E+00
  0.00000000E+00  0.00000000E+00  0.00000000E+00  0.00000000E+00  0.00000000E+00
  0.00000000E+00  0.00000000E+00  0.00000000E+00  0.00000000E+00  0.00000000E+00
  0.00000000E+00  1.00130711E-16  0.00000000E+00  0.00000000E+00  0.00000000E+00
  1.00000000E+00  0.00000000E+00  0.00000000E+00  0.00000000E+00  0.00000000E+00
  0.00000000E+00  0.00000000E+00  0.00000000E+00  0.00000000E+00  0.00000000E+00
  0.00000000E+00  0.00000000E+00  0.00000000E+00  0.00000000E+00  0.00000000E+00
  0.00000000E+00  0.00000000E+00  0.00000000E+00  0.00000000E+00  0.00000000E+00
  0.00000000E+00  0.00000000E+00  0.00000000E+00  0.00000000E+00 -1.01525999E-16
  0.00000000E+00  0.00000000E+00  0.00000000E+00  0.00000000E+00 -1.23804452E-16
  0.00000000E+00  0.00000000E+00  0.00000000E+00  0.00000000E+00 -1.29851647E-16
  0.00000000E+00  0.00000000E+00  0.00000000E+00  0.00000000E+00 -1.59813030E-17
  0.00000000E+00  0.00000000E+00  0.00000000E+00  0.00000000E+00  0.00000000E+00
  0.00000000E+00  0.00000000E+00  0.00000000E+00  0.00000000E+00  0.00000000E+00
  0.00000000E+00  0.00000000E+00  0.00000000E+00  0.00000000E+00  0.00000000E+00
  0.00000000E+00  0.00000000E+00  0.00000000E+00  0.00000000E+00  0.00000000E+00
  0.00000000E+00  0.00000000E+00  0.00000000E+00  0.00000000E+00  0.00000000E+00
 -1.25824568E-16  0.00000000E+00  0.00000000E+00  0.00000000E+00  1.00000000E+00
 -1.45405072E-17  4.31176166E-17 -8.19004717E-17 -7.99820926E-18  2.29735803E-16
  1.39335331E-16 -3.05777307E-49  0.00000000E+00  0.00000000E+00  0.00000000E+00
  0.00000000E+00  0.00000000E+00  0.00000000E+00  0.00000000E+00  0.00000000E+00
  0.00000000E+00  0.00000000E+00  0.00000000E+00  0.00000000E+00  0.00000000E+00
  0.00000000E+00  6.56066807E-17  0.00000000E+00  0.00000000E+00  8.77053444E-18
  0.00000000E+00 -1.39716937E-16  0.00000000E+00  0.00000000E+00 -2.19131276E-16
  0.00000000E+00  1.68992052E-16  0.00000000E+00  0.00000000E+00 -2.41618560E-17
  0.00000000E+00  1.68076624E-16  0.00000000E+00  0.00000000E+00 -1.49883252E-17
  0.00000000E+00  0.00000000E+00  0.00000000E+00  0.00000000E+00  0.00000000E+00
  0.00000000E+00  0.00000000E+00  0.00000000E+00  0.00000000E+00  0.00000000E+00
  0.00000000E+00  0.00000000E+00  0.00000000E+00  0.00000000E+00  0.00000000E+00
  0.00000000E+00  0.00000000E+00  0.00000000E+00  0.00000000E+00  0.00000000E+00
  0.00000000E+00  0.00000000E+00 -9.73851652E-16  0.00000000E+00  0.00000000E+00
 -2.39572077E-17  0.00000000E+00  0.00000000E+00  0.00000000E+00  1.00000000E+00
  0.00000000E+00  0.00000000E+00  0.00000000E+00  0.00000000E+00  0.00000000E+00
  0.00000000E+00  0.00000000E+00  5.60817202E-51  0.00000000E+00  0.00000000E+00
  0.00000000E+00  0.00000000E+00  0.00000000E+00  0.00000000E+00  0.00000000E+00
  0.00000000E+00  0.00000000E+00  0.00000000E+00  0.00000000E+00  0.00000000E+00
  0.00000000E+00  0.00000000E+00  0.00000000E+00  0.00000000E+00  0.00000000E+00
 -1.61873393E-17  0.00000000E+00  0.00000000E+00  0.00000000E+00  0.00000000E+00
  7.47741184E-17  0.00000000E+00  0.00000000E+00  0.00000000E+00  0.00000000E+00
 -5.07937441E-17  0.00000000E+00  0.00000000E+00  0.00000000E+00  0.00000000E+00
 -2.99280454E-18  0.00000000E+00  0.00000000E+00  0.00000000E+00  0.00000000E+00
  0.00000000E+00  0.00000000E+00  0.00000000E+00  0.00000000E+00  0.00000000E+00
  0.00000000E+00  0.00000000E+00  0.00000000E+00  0.00000000E+00  0.00000000E+00
  0.00000000E+00  0.00000000E+00  0.00000000E+00  0.00000000E+00  0.00000000E+00
  0.00000000E+00  0.00000000E+00  0.00000000E+00  0.00000000E+00  0.00000000E+00
  0.00000000E+00 -1.14859455E-16  0.00000000E+00  0.00000000E+00  0.00000000E+00
  1.00000000E+00  1.95156391E-17 -2.34187669E-17  2.22044605E-16 -1.66533454E-16
  1.11022302E-16 -1.11022302E-16  0.00000000E+00  0.00000000E+00  0.00000000E+00
  0.00000000E+00  0.00000000E+00  0.00000000E+00  0.00000000E+00  0.00000000E+00
  0.00000000E+00  0.00000000E+00  0.00000000E+00  0.00000000E+00 -5.13170824E-49
  0.00000000E+00  0.00000000E+00 -9.71445147E-17  0.00000000E+00  0.00000000E+00
 -2.07217107E-18  0.00000000E+00 -4.44089210E-16  0.00000000E+00  0.00000000E+00
 -2.01481279E-17  0.00000000E+00  0.00000000E+00  0.00000000E+00  0.00000000E+00
  5.14618458E-17  0.00000000E+00  1.11022302E-16  0.00000000E+00  0.00000000E+00
 -1.43023886E-17  0.00000000E+00  0.00000000E+00 -3.42242967E-33  0.00000000E+00
  0.00000000E+00  0.00000000E+00 -2.57367213E-48  0.00000000E+00  0.00000000E+00
  0.00000000E+00  0.00000000E+00  0.00000000E+00  0.00000000E+00  0.00000000E+00
  0.00000000E+00  0.00000000E+00  0.00000000E+00  0.00000000E+00  0.00000000E+00
  0.00000000E+00  0.00000000E+00  0.00000000E+00  6.04367781E-01  0.00000000E+00
  0.00000000E+00 -1.82321408E-16  0.00000000E+00  0.00000000E+00  0.00000000E+00
  2.11393546E-15  0.00000000E+00  1.00000000E+00  0.00000000E+00  0.00000000E+00
  0.00000000E+00  0.00000000E+00  0.00000000E+00  0.00000000E+00  0.00000000E+00
  0.00000000E+00  0.00000000E+00  0.00000000E+00  0.00000000E+00  0.00000000E+00
  0.00000000E+00  0.00000000E+00 -7.79949764E-49  0.00000000E+00  0.00000000E+00
  0.00000000E+00  0.00000000E+00  0.00000000E+00 -5.30444570E-50  0.00000000E+00
 -1.81106448E-17  0.00000000E+00  0.00000000E+00  0.00000000E+00  0.00000000E+00
 -1.13003333E-17  0.00000000E+00  0.00000000E+00  0.00000000E+00  0.00000000E+00
 -1.21229814E-16  0.00000000E+00  0.00000000E+00  0.00000000E+00  0.00000000E+00
 -1.09436270E-16  0.00000000E+00  0.00000000E+00  0.00000000E+00  4.41833770E-33
  0.00000000E+00  0.00000000E+00 -1.71121483E-33  0.00000000E+00  0.00000000E+00
  0.00000000E+00  0.00000000E+00  0.00000000E+00  0.00000000E+00  0.00000000E+00
  0.00000000E+00  0.00000000E+00  0.00000000E+00  0.00000000E+00  0.00000000E+00
  0.00000000E+00  0.00000000E+00  0.00000000E+00  0.00000000E+00  0.00000000E+00
  0.00000000E+00  6.04367781E-01  0.00000000E+00  0.00000000E+00  0.00000000E+00
  5.40955557E-17  0.00000000E+00  0.00000000E+00  0.00000000E+00  0.00000000E+00
  1.00000000E+00  0.00000000E+00  0.00000000E+00  0.00000000E+00  0.00000000E+00
  0.00000000E+00  0.00000000E+00  0.00000000E+00  0.00000000E+00  0.00000000E+00
  0.00000000E+00  0.00000000E+00  0.00000000E+00  0.00000000E+00  0.00000000E+00
  0.00000000E+00  0.00000000E+00  0.00000000E+00  0.00000000E+00  0.00000000E+00
  0.00000000E+00  0.00000000E+00  0.00000000E+00  0.00000000E+00 -1.81106448E-17
  0.00000000E+00  0.00000000E+00  0.00000000E+00  0.00000000E+00 -1.13003333E-17
  0.00000000E+00  0.00000000E+00  0.00000000E+00  0.00000000E+00 -1.21229814E-16
  0.00000000E+00  0.00000000E+00  0.00000000E+00  0.00000000E+00 -5.39251188E-17
  0.00000000E+00  0.00000000E+00  0.00000000E+00  0.00000000E+00  0.00000000E+00
  0.00000000E+00 -1.71121483E-33  0.00000000E+00  0.00000000E+00  0.00000000E+00
  0.00000000E+00  0.00000000E+00  0.00000000E+00  0.00000000E+00  0.00000000E+00
  0.00000000E+00  0.00000000E+00  0.00000000E+00  0.00000000E+00  0.00000000E+00
  0.00000000E+00  0.00000000E+00  0.00000000E+00  0.00000000E+00  0.00000000E+00
  6.04367781E-01  0.00000000E+00  0.00000000E+00  0.00000000E+00 -9.12806851E-18
  0.00000000E+00  0.00000000E+00  0.00000000E+00  0.00000000E+00  1.00000000E+00
 -1.53635027E-19 -9.79190453E-20  1.84033060E-18 -7.85804435E-18 -2.31973858E-17
 -5.30612793E-18  0.00000000E+00  0.00000000E+00  0.00000000E+00  0.00000000E+00
  0.00000000E+00  0.00000000E+00 -4.39629998E-49  0.00000000E+00  0.00000000E+00
  0.00000000E+00  0.00000000E+00  0.00000000E+00  1.80431325E-49  0.00000000E+00
  0.00000000E+00  3.19471313E-18  0.00000000E+00  0.00000000E+00  1.23054001E-16
  0.00000000E+00 -1.01475594E-17  0.00000000E+00  0.00000000E+00  5.71782035E-16
  0.00000000E+00 -8.59580606E-18  0.00000000E+00  0.00000000E+00  6.79773299E-17
  0.00000000E+00  3.36115414E-18  0.00000000E+00  0.00000000E+00 -2.21207530E-16
  0.00000000E+00  0.00000000E+00  3.82639269E-33  0.00000000E+00  0.00000000E+00
  0.00000000E+00 -9.87970346E-34  0.00000000E+00  0.00000000E+00  0.00000000E+00
  0.00000000E+00  0.00000000E+00  0.00000000E+00  0.00000000E+00  0.00000000E+00
  0.00000000E+00  0.00000000E+00  0.00000000E+00  0.00000000E+00  0.00000000E+00
  0.00000000E+00  0.00000000E+00  1.62224354E-16  0.00000000E+00  0.00000000E+00
  6.04367781E-01  0.00000000E+00  0.00000000E+00  0.00000000E+00 -3.17755124E-16
  0.00000000E+00 -1.00556925E-16  0.00000000E+00  0.00000000E+00  1.00000000E+00
  0.00000000E+00  0.00000000E+00  0.00000000E+00  0.00000000E+00  0.00000000E+00
  0.00000000E+00  0.00000000E+00  0.00000000E+00  0.00000000E+00  0.00000000E+00
  0.00000000E+00  0.00000000E+00  0.00000000E+00  3.10649100E-49  0.00000000E+00
  0.00000000E+00  0.00000000E+00  0.00000000E+00  0.00000000E+00  4.22177636E-50
  0.00000000E+00  0.00000000E+00  0.00000000E+00  0.00000000E+00  0.00000000E+00
  3.16296439E-17  0.00000000E+00  0.00000000E+00  0.00000000E+00  0.00000000E+00
 -1.38695247E-16  0.00000000E+00  0.00000000E+00  0.00000000E+00  0.00000000E+00
  2.35795405E-17  0.00000000E+00  0.00000000E+00  0.00000000E+00  0.00000000E+00
 -4.79305145E-17  0.00000000E+00  0.00000000E+00  3.82639269E-33  0.00000000E+00
  0.00000000E+00  0.00000000E+00 -9.87970346E-34  0.00000000E+00  0.00000000E+00
  0.00000000E+00  0.00000000E+00  0.00000000E+00  0.00000000E+00  0.00000000E+00
  0.00000000E+00  0.00000000E+00  0.00000000E+00  0.00000000E+00  0.00000000E+00
  0.00000000E+00  0.00000000E+00  0.00000000E+00  0.00000000E+00  0.00000000E+00
  0.00000000E+00  6.04367781E-01  0.00000000E+00  0.00000000E+00  0.00000000E+00
 -1.25387757E-17  0.00000000E+00  0.00000000E+00  0.00000000E+00  0.00000000E+00
  1.00000000E+00  0.00000000E+00  0.00000000E+00  0.00000000E+00  0.00000000E+00
  0.00000000E+00  0.00000000E+00  0.00000000E+00  0.00000000E+00  0.00000000E+00
  0.00000000E+00  0.00000000E+00  0.00000000E+00  0.00000000E+00  0.00000000E+00
 -4.24517394E-49  0.00000000E+00  0.00000000E+00  0.00000000E+00  0.00000000E+00
  0.00000000E+00  1.66423033E-49  0.00000000E+00 -3.13540748E-17  0.00000000E+00
  0.00000000E+00  0.00000000E+00  0.00000000E+00  1.20582036E-16  0.00000000E+00
  0.00000000E+00  0.00000000E+00  0.00000000E+00  2.80195477E-17  0.00000000E+00
  0.00000000E+00  0.00000000E+00  0.00000000E+00  6.91129308E-17  0.00000000E+00
  0.00000000E+00  0.00000000E+00  2.65440131E-48  0.00000000E+00  0.00000000E+00
  4.52744889E-33  0.00000000E+00  0.00000000E+00  0.00000000E+00  0.00000000E+00
  0.00000000E+00  0.00000000E+00  0.00000000E+00  0.00000000E+00  0.00000000E+00
  0.00000000E+00  0.00000000E+00  0.00000000E+00  0.00000000E+00  0.00000000E+00
  0.00000000E+00  0.00000000E+00  0.00000000E+00  0.00000000E+00  2.21573267E-17
  0.00000000E+00  0.00000000E+00  0.00000000E+00  6.04367781E-01  0.00000000E+00
  0.00000000E+00  0.00000000E+00  0.00000000E+00  4.46195600E-17  0.00000000E+00
  0.00000000E+00  0.00000000E+00  1.00000000E+00  0.00000000E+00  0.00000000E+00
  0.00000000E+00  0.00000000E+00  0.00000000E+00  0.00000000E+00  0.00000000E+00
  0.00000000E+00  0.00000000E+00  0.00000000E+00  0.00000000E+00  0.00000000E+00
  0.00000000E+00  0.00000000E+00  0.00000000E+00  0.00000000E+00  0.00000000E+00
  0.00000000E+00  0.00000000E+00  0.00000000E+00  0.00000000E+00  0.00000000E+00
  0.00000000E+00  3.37063539E-17  0.00000000E+00  0.00000000E+00  0.00000000E+00
  0.00000000E+00 -1.28522987E-16  0.00000000E+00  0.00000000E+00  0.00000000E+00
  0.00000000E+00  2.88652020E-17  0.00000000E+00  0.00000000E+00  0.00000000E+00
  0.00000000E+00 -3.41534068E-17  0.00000000E+00  0.00000000E+00  0.00000000E+00
  0.00000000E+00  0.00000000E+00  0.00000000E+00  4.52744889E-33  0.00000000E+00
  0.00000000E+00  0.00000000E+00  0.00000000E+00  0.00000000E+00  0.00000000E+00
  0.00000000E+00  0.00000000E+00  0.00000000E+00  0.00000000E+00  0.00000000E+00
  0.00000000E+00  0.00000000E+00  0.00000000E+00  0.00000000E+00  0.00000000E+00
  0.00000000E+00  0.00000000E+00 -3.71951424E-17  0.00000000E+00  0.00000000E+00
  0.00000000E+00  6.04367781E-01  0.00000000E+00  0.00000000E+00  0.00000000E+00
  0.00000000E+00 -1.92961452E-16  0.00000000E+00  0.00000000E+00  0.00000000E+00
  1.00000000E+00  1.69218328E-17 -2.07141877E-17  2.21933317E-16 -7.10387934E-17
  1.95427774E-16 -6.39417539E-18  0.00000000E+00  0.00000000E+00  0.00000000E+00
  0.00000000E+00  0.00000000E+00  0.00000000E+00  3.24733932E-49  0.00000000E+00
  0.00000000E+00  0.00000000E+00  0.00000000E+00  0.00000000E+00 -4.63364157E-49
  0.00000000E+00  0.00000000E+00  1.02354877E-16  0.00000000E+00  0.00000000E+00
  6.27680507E-19  0.00000000E+00  4.77674904E-16  0.00000000E+00  0.00000000E+00
 -1.74033894E-17  0.00000000E+00  6.38990316E-18  0.00000000E+00  0.00000000E+00
  4.69440488E-17  0.00000000E+00 -1.61728865E-16  0.00000000E+00  0.00000000E+00
  1.88889753E-17  0.00000000E+00  0.00000000E+00  7.53248150E-49  0.00000000E+00
  0.00000000E+00  0.00000000E+00  5.22784767E-33  0.00000000E+00  0.00000000E+00
  0.00000000E+00  0.00000000E+00  0.00000000E+00  0.00000000E+00  0.00000000E+00
  0.00000000E+00  0.00000000E+00  0.00000000E+00  0.00000000E+00  0.00000000E+00
  0.00000000E+00  0.00000000E+00  0.00000000E+00  2.53591656E-15  0.00000000E+00
  0.00000000E+00 -1.14229385E-18  0.00000000E+00  0.00000000E+00  0.00000000E+00
  6.04367781E-01  0.00000000E+00  2.44966686E-15  0.00000000E+00  0.00000000E+00
 -1.06617334E-17  0.00000000E+00  0.00000000E+00  0.00000000E+00  1.00000000E+00
  0.00000000E+00  0.00000000E+00  0.00000000E+00  0.00000000E+00  0.00000000E+00
  0.00000000E+00  0.00000000E+00  0.00000000E+00  0.00000000E+00  0.00000000E+00
  0.00000000E+00  0.00000000E+00  0.00000000E+00 -6.00508263E-49  0.00000000E+00
  0.00000000E+00  0.00000000E+00  0.00000000E+00  0.00000000E+00 -1.29332454E-49
  0.00000000E+00  0.00000000E+00  0.00000000E+00  0.00000000E+00  0.00000000E+00
 -1.05225348E-17  0.00000000E+00  0.00000000E+00  0.00000000E+00  0.00000000E+00
  4.11086888E-17  0.00000000E+00  0.00000000E+00  0.00000000E+00  0.00000000E+00
 -4.72643339E-17  0.00000000E+00  0.00000000E+00  0.00000000E+00  0.00000000E+00
  8.26838499E-17  0.00000000E+00  0.00000000E+00 -7.59763351E-50  0.00000000E+00
  0.00000000E+00  0.00000000E+00  5.22784767E-33  0.00000000E+00  0.00000000E+00
  0.00000000E+00  0.00000000E+00  0.00000000E+00  0.00000000E+00  0.00000000E+00
  0.00000000E+00  0.00000000E+00  0.00000000E+00  0.00000000E+00  0.00000000E+00
  0.00000000E+00  0.00000000E+00  0.00000000E+00  0.00000000E+00  0.00000000E+00
  0.00000000E+00  3.41421457E-16  0.00000000E+00  0.00000000E+00  0.00000000E+00
  6.04367781E-01  0.00000000E+00  0.00000000E+00  0.00000000E+00  0.00000000E+00
  1.12190587E-16  0.00000000E+00  0.00000000E+00  0.00000000E+00  1.00000000E+00
Kinetic Energy Matrix                      R   N=        3240
  1.62485389E+01 -1.34493805E+01  1.14455463E+01  9.07673079E-01 -1.02084963E+00
  1.10325000E+00  2.20555367E-01 -2.56962682E-01  5.34346871E-01  4.35750000E-01
  4.52040431E-02 -5.35200955E-02  1.60690379E-01  2.04026853E-01  1.66650000E-01
  8.37938169E-03 -9.98631308E-03  3.54708170E-02  5.85003199E-02  7.59981915E-02
  6.21750000E-02  0.00000000E+00  0.00000000E+00  0.00000000E+00  0.00000000E+00
  0.00000000E+00  0.00000000E+00  7.60808750E+00  0.00000000E+00  0.00000000E+00
  0.00000000E+00  0.00000000E+00  0.00000000E+00  0.00000000E+00  0.00000000E+00
  7.60808750E+00  0.00000000E+00  0.00000000E+00  0.00000000E+00  0.00000000E+00
  0.00000000E+00  0.00000000E+00  0.00000000E+00  0.00000000E+00  7.60808750E+00
  0.00000000E+00  0.00000000E+00  0.00000000E+00  0.00000000E+00  0.00000000E+00
  0.00000000E+00  2.01500167E+00  0.00000000E+00  0.00000000E+00  2.03300000E+00
  0.00000000E+00  0.00000000E+00  0.00000000E+00  0.00000000E+00  0.00000000E+00
  0.00000000E+00  0.00000000E+00  2.01500167E+00  0.00000000E+00  0.00000000E+00
  2.03300000E+00  0.00000000E+00  0.00000000E+00  0.00000000E+00  0.00000000E+00
  0.00000000E+00  0.00000000E+00  0.00000000E+00  0.00000000E+00  2.01500167E+00
  0.00000000E+00  0.00000000E+00  2.03300000E+00  0.00000000E+00  0.00000000E+00
  0.00000000E+00  0.00000000E+00  0.00000000E+00  0.00000000E+00  3.55977453E-01
  0.00000000E+00  0.00000000E+00  7.73744899E-01  0.00000000E+00  0.00000000E+00
  7.22500000E-01  0.00000000E+00  0.00000000E+00  0.00000000E+00  0.00000000E+00
  0.00000000E+00  0.00000000E+00  0.00000000E+00  3.55977453E-01  0.00000000E+00
  0.00000000E+00  7.73744899E-01  0.00000000E+00  0.00000000E+00  7.22500000E-01
  0.00000000E+00  0.00000000E+00  0.00000000E+00  0.00000000E+00  0.00000000E+00
  0.00000000E+00  0.00000000E+00  0.00000000E+00  3.55977453E-01  0.00000000E+00
  0.00000000E+00  7.73744899E-01  0.00000000E+00  0.00000000E+00  7.22500000E-01
  0.00000000E+00  0.00000000E+00  0.00000000E+00  0.00000000E+00  0.00000000E+00
  0.00000000E+00  4.24553692E-02  0.00000000E+00  0.00000000E+00  1.39046485E-01
  0.00000000E+00  0.00000000E+00  2.67808914E-01  0.00000000E+00  0.00000000E+00
  2.51750000E-01  0.00000000E+00  0.00000000E+00  0.00000000E+00  0.00000000E+00
  0.00000000E+00  0.00000000E+00  0.00000000E+00  4.24553692E-02  0.00000000E+00
  0.00000000E+00  1.39046485E-01  0.00000000E+00  0.00000000E+00  2.67808914E-01
  0.00000000E+00  0.00000000E+00  2.51750000E-01  0.00000000E+00  0.00000000E+00
  0.00000000E+00  0.00000000E+00  0.00000000E+00  0.00000000E+00  0.00000000E+00
  0.00000000E+00  4.24553692E-02  0.00000000E+00  0.00000000E+00  1.39046485E-01
  0.00000000E+00  0.00000000E+00  2.67808914E-01  0.00000000E+00  0.00000000E+00
  2.51750000E-01  0.00000000E+00  0.00000000E+00  0.00000000E+00  0.00000000E+00
  0.00000000E+00  0.00000000E+00  3.58290150E-03  0.00000000E+00  0.00000000E+00
  1.40241250E-02  0.00000000E+00  0.00000000E+00  4.04588935E-02  0.00000000E+00
  0.00000000E+00  8.28554773E-02  0.00000000E+00  0.00000000E+00  8.04500000E-02
  0.00000000E+00  0.00000000E+00  0.00000000E+00  0.00000000E+00  0.00000000E+00
  0.00000000E+00  0.00000000E+00  3.58290150E-03  0.00000000E+00  0.00000000E+00
  1.40241250E-02  0.00000000E+00  0.00000000E+00  4.04588935E-02  0.00000000E+00
  0.00000000E+00  8.28554773E-02  0.00000000E+00  0.00000000E+00  8.04500000E-02
  0.00000000E+00  0.00000000E+00  0.00000000E+00  0.00000000E+00  0.00000000E+00
  0.00000000E+00  0.00000000E+00  0.00000000E+00  3.58290150E-03  0.00000000E+00
  0.00000000E+00  1.40241250E-02  0.00000000E+00  0.00000000E+00  4.04588935E-02
  0.00000000E+00  0.00000000E+00  8.28554773E-02  0.00000000E+00  0.00000000E+00
  8.04500000E-02  0.00000000E+00 -1.11022302E-16  0.00000000E+00  0.00000000E+00
  0.00000000E+00  0.00000000E+00  0.00000000E+00  0.00000000E+00  0.00000000E+00
  0.00000000E+00  0.00000000E+00  0.00000000E+00  0.00000000E+00  0.00000000E+00
  0.00000000E+00  0.00000000E+00  0.00000000E+00  0.00000000E+00  0.00000000E+00
  0.00000000E+00  0.00000000E+00  6.46800000E+00  0.00000000E+00  0.00000000E+00
  0.00000000E+00  0.00000000E+00  0.00000000E+00  0.00000000E+00  0.00000000E+00
  0.00000000E+00  0.00000000E+00  0.00000000E+00  0.00000000E+00  0.00000000E+00
  0.00000000E+00  0.00000000E+00  0.00000000E+00  0.00000000E+00  0.00000000E+00
  0.00000000E+00  0.00000000E+00  0.00000000E+00  0.00000000E+00  0.00000000E+00
  6.46800000E+00  0.00000000E+00  0.00000000E+00  0.00000000E+00  0.00000000E+00
  0.00000000E+00  0.00000000E+00  0.00000000E+00  0.00000000E+00  0.00000000E+00
  0.00000000E+00  0.00000000E+00  0.00000000E+00  0.00000000E+00  0.00000000E+00
  0.00000000E+00  0.00000000E+00  0.00000000E+00  0.00000000E+00  0.00000000E+00
  0.00000000E+00  0.00000000E+00  0.00000000E+00  0.00000000E+00  6.46800000E+00
 -1.40768759E-17 -1.72396967E-16  4.40568567E-17  2.40632752E-17 -4.85019218E-18
  3.73996090E-19  0.00000000E+00  0.00000000E+00  0.00000000E+00  0.00000000E+00
  0.00000000E+00  0.00000000E+00  0.00000000E+00  0.00000000E+00  0.00000000E+00
  0.00000000E+00  0.00000000E+00  0.00000000E+00  0.00000000E+00  0.00000000E+00
  0.00000000E+00  8.72313838E-16  0.00000000E+00  0.00000000E+00  6.46800000E+00
  0.00000000E+00  0.00000000E+00  0.00000000E+00  0.00000000E+00  0.00000000E+00
  0.00000000E+00  0.00000000E+00  0.00000000E+00  0.00000000E+00  0.00000000E+00
  0.00000000E+00  0.00000000E+00  0.00000000E+00  0.00000000E+00  0.00000000E+00
  0.00000000E+00  0.00000000E+00  0.00000000E+00  0.00000000E+00  0.00000000E+00
  0.00000000E+00  0.00000000E+00  0.00000000E+00  0.00000000E+00  0.00000000E+00
  6.46800000E+00  0.00000000E+00  0.00000000E+00  0.00000000E+00  0.00000000E+00
 -4.44089210E-16  0.00000000E+00  0.00000000E+00  0.00000000E+00  0.00000000E+00
  0.00000000E+00  0.00000000E+00  0.00000000E+00  0.00000000E+00  0.00000000E+00
  0.00000000E+00  0.00000000E+00  0.00000000E+00  0.00000000E+00  0.00000000E+00
  0.00000000E+00  0.00000000E+00  2.12531305E+00  0.00000000E+00  0.00000000E+00
  1.26009658E-17  0.00000000E+00  2.27150000E+00  0.00000000E+00  0.00000000E+00
  0.00000000E+00  0.00000000E+00  0.00000000E+00  0.00000000E+00  0.00000000E+00
  0.00000000E+00  0.00000000E+00  0.00000000E+00  0.00000000E+00  0.00000000E+00
  0.00000000E+00  0.00000000E+00  0.00000000E+00  0.00000000E+00  0.00000000E+00
  0.00000000E+00  0.00000000E+00  0.00000000E+00  0.00000000E+00  0.00000000E+00
  2.12531305E+00  0.00000000E+00  0.00000000E+00  0.00000000E+00  0.00000000E+00
  2.27150000E+00  0.00000000E+00  0.00000000E+00  0.00000000E+00  0.00000000E+00
  0.00000000E+00  0.00000000E+00  0.00000000E+00  0.00000000E+00  0.00000000E+00
  0.00000000E+00  0.00000000E+00  0.00000000E+00  0.00000000E+00  0.00000000E+00
  0.00000000E+00  0.00000000E+00  0.00000000E+00  0.00000000E+00  0.00000000E+00
  0.00000000E+00  0.00000000E+00  0.00000000E+00  0.00000000E+00  2.12531305E+00
  0.00000000E+00  0.00000000E+00  0.00000000E+00  0.00000000E+00  2.27150000E+00
  6.93586544E-18 -2.62352943E-18  5.09806242E-18 -1.68266235E-17  6.54847248E-19
  3.42349609E-18  0.00000000E+00  0.00000000E+00  0.00000000E+00  0.00000000E+00
  0.00000000E+00  0.00000000E+00  0.00000000E+00  0.00000000E+00  0.00000000E+00
  0.00000000E+00  0.00000000E+00  0.00000000E+00  0.00000000E+00  0.00000000E+00
  0.00000000E+00 -1.95943690E-17  0.00000000E+00  0.00000000E+00  2.12531305E+00
  0.00000000E+00 -2.14851590E-18  0.00000000E+00  0.00000000E+00  2.27150000E+00
  0.00000000E+00  0.00000000E+00  0.00000000E+00  0.00000000E+00  0.00000000E+00
  0.00000000E+00  0.00000000E+00  0.00000000E+00  0.00000000E+00  0.00000000E+00
  0.00000000E+00  0.00000000E+00  0.00000000E+00  0.00000000E+00  0.00000000E+00
  0.00000000E+00  0.00000000E+00  0.00000000E+00  0.00000000E+00  0.00000000E+00
  0.00000000E+00  0.00000000E+00  0.00000000E+00  0.00000000E+00  0.00000000E+00
  2.12531305E+00  0.00000000E+00  0.00000000E+00  0.00000000E+00  0.00000000E+00
  2.27150000E+00  0.00000000E+00  0.00000000E+00  0.00000000E+00 -1.11022302E-16
  0.00000000E+00  0.00000000E+00  0.00000000E+00  0.00000000E+00  0.00000000E+00
  0.00000000E+00  0.00000000E+00  0.00000000E+00  0.00000000E+00  0.00000000E+00
  0.00000000E+00  0.00000000E+00  0.00000000E+00  0.00000000E+00  0.00000000E+00
  0.00000000E+00  0.00000000E+00  2.74745882E-01  0.00000000E+00  0.00000000E+00
  1.91289511E-18  0.00000000E+00  7.46790183E-01  0.00000000E+00  0.00000000E+00
 -2.55943479E-18  0.00000000E+00  7.98000000E-01  0.00000000E+00  0.00000000E+00
  0.00000000E+00  0.00000000E+00  0.00000000E+00  0.00000000E+00  0.00000000E+00
  0.00000000E+00  0.00000000E+00  0.00000000E+00  0.00000000E+00  0.00000000E+00
  0.00000000E+00  0.00000000E+00  0.00000000E+00  0.00000000E+00  0.00000000E+00
  0.00000000E+00  0.00000000E+00  0.00000000E+00  0.00000000E+00  0.00000000E+00
  2.74745882E-01  0.00000000E+00  0.00000000E+00  0.00000000E+00  0.00000000E+00
  7.46790183E-01  0.00000000E+00  0.00000000E+00  0.00000000E+00  0.00000000E+00
  7.98000000E-01  0.00000000E+00  0.00000000E+00  0.00000000E+00  0.00000000E+00
  0.00000000E+00  0.00000000E+00  0.00000000E+00  0.00000000E+00  0.00000000E+00
  0.00000000E+00  0.00000000E+00  0.00000000E+00  0.00000000E+00  0.00000000E+00
  0.00000000E+00  0.00000000E+00  0.00000000E+00  0.00000000E+00  0.00000000E+00
  0.00000000E+00  0.00000000E+00  0.00000000E+00  0.00000000E+00  2.74745882E-01
  0.00000000E+00  0.00000000E+00  0.00000000E+00  0.00000000E+00  7.46790183E-01
  0.00000000E+00  0.00000000E+00  0.00000000E+00  0.00000000E+00  7.98000000E-01
 -5.99651439E-18  6.46419147E-18 -1.24720982E-19  5.68245907E-19 -4.38999162E-18
 -3.10275354E-18  0.00000000E+00  0.00000000E+00  0.00000000E+00  0.00000000E+00
  0.00000000E+00  0.00000000E+00  0.00000000E+00  0.00000000E+00  0.00000000E+00
  0.00000000E+00  0.00000000E+00  0.00000000E+00  0.00000000E+00  0.00000000E+00
  0.00000000E+00  6.79798544E-18  0.00000000E+00  0.00000000E+00  2.74745882E-01
  0.00000000E+00  6.26317793E-18  0.00000000E+00  0.00000000E+00  7.46790183E-01
  0.00000000E+00  3.86926621E-18  0.00000000E+00  0.00000000E+00  7.98000000E-01
  0.00000000E+00  0.00000000E+00  0.00000000E+00  0.00000000E+00  0.00000000E+00
  0.00000000E+00  0.00000000E+00  0.00000000E+00  0.00000000E+00  0.00000000E+00
  0.00000000E+00  0.00000000E+00  0.00000000E+00  0.00000000E+00  0.00000000E+00
  0.00000000E+00  0.00000000E+00  0.00000000E+00  0.00000000E+00  0.00000000E+00
  0.00000000E+00  0.00000000E+00  0.00000000E+00  0.00000000E+00  0.00000000E+00
  2.74745882E-01  0.00000000E+00  0.00000000E+00  0.00000000E+00  0.00000000E+00
  7.46790183E-01  0.00000000E+00  0.00000000E+00  0.00000000E+00  0.00000000E+00
  7.98000000E-01  0.00000000E+00  0.00000000E+00  0.00000000E+00  0.00000000E+00
  0.00000000E+00  0.00000000E+00  0.00000000E+00  0.00000000E+00  0.00000000E+00
  0.00000000E+00  0.00000000E+00  0.00000000E+00  0.00000000E+00  0.00000000E+00
  0.00000000E+00  0.00000000E+00  0.00000000E+00  0.00000000E+00  0.00000000E+00
  0.00000000E+00  0.00000000E+00  1.92411216E-02  0.00000000E+00  0.00000000E+00
 -8.39721308E-19  0.00000000E+00  8.72704719E-02  0.00000000E+00  0.00000000E+00
  2.06398651E-18  0.00000000E+00  2.44269040E-01  0.00000000E+00  0.00000000E+00
  1.17008795E-18  0.00000000E+00  2.68100000E-01  0.00000000E+00  0.00000000E+00
  0.00000000E+00  0.00000000E+00  0.00000000E+00  0.00000000E+00  0.00000000E+00
  0.00000000E+00  0.00000000E+00  0.00000000E+00  0.00000000E+00  0.00000000E+00
  0.00000000E+00  0.00000000E+00  0.00000000E+00  0.00000000E+00  0.00000000E+00
  0.00000000E+00  0.00000000E+00  0.00000000E+00  0.00000000E+00  0.00000000E+00
  1.92411216E-02  0.00000000E+00  0.00000000E+00  0.00000000E+00  0.00000000E+00
  8.72704719E-02  0.00000000E+00  0.00000000E+00  0.00000000E+00  0.00000000E+00
  2.44269040E-01  0.00000000E+00  0.00000000E+00  0.00000000E+00  0.00000000E+00
  2.68100000E-01  0.00000000E+00  0.00000000E+00  0.00000000E+00  0.00000000E+00
  0.00000000E+00  0.00000000E+00  0.00000000E+00  0.00000000E+00  0.00000000E+00
  0.00000000E+00  0.00000000E+00  0.00000000E+00  0.00000000E+00  0.00000000E+00
  0.00000000E+00  0.00000000E+00  0.00000000E+00  0.00000000E+00  0.00000000E+00
  0.00000000E+00  0.00000000E+00  0.00000000E+00  0.00000000E+00  1.92411216E-02
  0.00000000E+00  0.00000000E+00  0.00000000E+00  0.00000000E+00  8.72704719E-02
  0.00000000E+00  0.00000000E+00  0.00000000E+00  0.00000000E+00  2.44269040E-01
  0.00000000E+00  0.00000000E+00  0.00000000E+00  0.00000000E+00  2.68100000E-01
 -2.22474361E-18 -1.55075536E-18  9.33933289E-19 -2.90727818E-18  3.24428785E-21
  1.62792546E-18  0.00000000E+00  0.00000000E+00  0.00000000E+00  0.00000000E+00
  0.00000000E+00  0.00000000E+00  0.00000000E+00  0.00000000E+00  0.00000000E+00
  0.00000000E+00  0.00000000E+00  0.00000000E+00  0.00000000E+00  0.00000000E+00
  0.00000000E+00  4.32566666E-20  0.00000000E+00  0.00000000E+00  1.92411216E-02
  0.00000000E+00  8.63866767E-19  0.00000000E+00  0.00000000E+00  8.72704719E-02
  0.00000000E+00  4.64761791E-18  0.00000000E+00  0.00000000E+00  2.44269040E-01
  0.00000000E+00 -6.30361750E-18  0.00000000E+00  0.00000000E+00  2.68100000E-01
  0.00000000E+00  0.00000000E+00  0.00000000E+00  0.00000000E+00  0.00000000E+00
  0.00000000E+00  0.00000000E+00  0.00000000E+00  0.00000000E+00  0.00000000E+00
  0.00000000E+00  0.00000000E+00  0.00000000E+00  0.00000000E+00  0.00000000E+00
  0.00000000E+00  0.00000000E+00  0.00000000E+00  0.00000000E+00  0.00000000E+00
  0.00000000E+00  0.00000000E+00  0.00000000E+00  0.00000000E+00  0.00000000E+00
  1.92411216E-02  0.00000000E+00  0.00000000E+00  0.00000000E+00  0.00000000E+00
  8.72704719E-02  0.00000000E+00  0.00000000E+00  0.00000000E+00  0.00000000E+00
  2.44269040E-01  0.00000000E+00  0.00000000E+00  0.00000000E+00  0.00000000E+00
  2.68100000E-01  0.00000000E+00  0.00000000E+00  0.00000000E+00  0.00000000E+00
  0.00000000E+00  0.00000000E+00  0.00000000E+00  0.00000000E+00 -2.22044605E-16
  0.00000000E+00  0.00000000E+00  6.66133815E-16  0.00000000E+00  0.00000000E+00
 -4.44089210E-16  0.00000000E+00  0.00000000E+00  2.22044605E-16  0.00000000E+00
  0.00000000E+00 -2.77555756E-17  0.00000000E+00  0.00000000E+00  0.00000000E+00
  0.00000000E+00  0.00000000E+00  0.00000000E+00  0.00000000E+00  0.00000000E+00
  0.00000000E+00  0.00000000E+00  0.00000000E+00  0.00000000E+00  0.00000000E+00
  0.00000000E+00  0.00000000E+00  0.00000000E+00  0.00000000E+00  0.00000000E+00
  0.00000000E+00  0.00000000E+00  6.38550000E+00  0.00000000E+00  0.00000000E+00
  0.00000000E+00  0.00000000E+00  0.00000000E+00  0.00000000E+00  2.21430916E-16
  0.00000000E+00  0.00000000E+00 -6.14589893E-16  0.00000000E+00  0.00000000E+00
  3.07918381E-16  0.00000000E+00  0.00000000E+00 -1.32345690E-16  0.00000000E+00
  0.00000000E+00  2.56112256E-17  0.00000000E+00  0.00000000E+00  0.00000000E+00
  0.00000000E+00  0.00000000E+00  0.00000000E+00  0.00000000E+00  0.00000000E+00
  0.00000000E+00  0.00000000E+00  0.00000000E+00  0.00000000E+00  0.00000000E+00
  0.00000000E+00  0.00000000E+00  0.00000000E+00  0.00000000E+00  0.00000000E+00
  0.00000000E+00  0.00000000E+00  0.00000000E+00  0.00000000E+00  0.00000000E+00
  6.38550000E+00  0.00000000E+00  0.00000000E+00  0.00000000E+00  0.00000000E+00
  0.00000000E+00  0.00000000E+00  0.00000000E+00  2.76942067E-16  0.00000000E+00
  0.00000000E+00  1.16176695E-15  0.00000000E+00  0.00000000E+00  3.07918381E-16
  0.00000000E+00  0.00000000E+00 -1.32345690E-16  0.00000000E+00  0.00000000E+00
  2.56112256E-17  0.00000000E+00  0.00000000E+00  0.00000000E+00  0.00000000E+00
  0.00000000E+00  0.00000000E+00  0.00000000E+00  0.00000000E+00  0.00000000E+00
  0.00000000E+00  0.00000000E+00  0.00000000E+00  0.00000000E+00  0.00000000E+00
  0.00000000E+00  0.00000000E+00  0.00000000E+00  0.00000000E+00  0.00000000E+00
  0.00000000E+00  0.00000000E+00  0.00000000E+00  0.00000000E+00  6.38550000E+00
  0.00000000E+00  0.00000000E+00  0.00000000E+00  0.00000000E+00  0.00000000E+00
  0.00000000E+00  0.00000000E+00  0.00000000E+00  4.15431526E-18  0.00000000E+00
  0.00000000E+00  8.77429832E-17  0.00000000E+00  0.00000000E+00  8.38293754E-18
  0.00000000E+00  0.00000000E+00 -3.02186169E-18  0.00000000E+00  0.00000000E+00
  9.48608794E-20  0.00000000E+00  0.00000000E+00  0.00000000E+00  0.00000000E+00
  0.00000000E+00  0.00000000E+00  0.00000000E+00  0.00000000E+00  0.00000000E+00
  0.00000000E+00  0.00000000E+00  0.00000000E+00  0.00000000E+00  0.00000000E+00
  0.00000000E+00  0.00000000E+00  0.00000000E+00  0.00000000E+00  0.00000000E+00
  0.00000000E+00 -2.58877722E-16  0.00000000E+00  0.00000000E+00  6.38550000E+00
  0.00000000E+00  0.00000000E+00  0.00000000E+00  0.00000000E+00  0.00000000E+00
  0.00000000E+00  0.00000000E+00  0.00000000E+00  0.00000000E+00  0.00000000E+00
  0.00000000E+00  0.00000000E+00  0.00000000E+00  0.00000000E+00  0.00000000E+00
  0.00000000E+00  0.00000000E+00  0.00000000E+00  0.00000000E+00  0.00000000E+00
  0.00000000E+00  0.00000000E+00  0.00000000E+00  0.00000000E+00  0.00000000E+00
  0.00000000E+00  0.00000000E+00  0.00000000E+00  0.00000000E+00  0.00000000E+00
  0.00000000E+00  0.00000000E+00  0.00000000E+00  0.00000000E+00  0.00000000E+00
  0.00000000E+00  0.00000000E+00  0.00000000E+00  0.00000000E+00  0.00000000E+00
  0.00000000E+00  0.00000000E+00  0.00000000E+00  0.00000000E+00  0.00000000E+00
  6.38550000E+00  0.00000000E+00  0.00000000E+00  0.00000000E+00  0.00000000E+00
  0.00000000E+00  0.00000000E+00  3.61565479E-16  0.00000000E+00  0.00000000E+00
  8.01276984E-16  0.00000000E+00  0.00000000E+00 -2.47337191E-16  0.00000000E+00
  0.00000000E+00  1.83975148E-16  0.00000000E+00  0.00000000E+00  1.01219851E-16
  0.00000000E+00  0.00000000E+00  0.00000000E+00  0.00000000E+00  0.00000000E+00
  0.00000000E+00  0.00000000E+00  0.00000000E+00  0.00000000E+00  0.00000000E+00
  0.00000000E+00  0.00000000E+00  0.00000000E+00  0.00000000E+00  0.00000000E+00
  0.00000000E+00  0.00000000E+00  0.00000000E+00  0.00000000E+00  0.00000000E+00
  0.00000000E+00  0.00000000E+00  0.00000000E+00  1.32567962E-16  0.00000000E+00
  0.00000000E+00  0.00000000E+00  6.38550000E+00  0.00000000E+00  0.00000000E+00
  0.00000000E+00  0.00000000E+00  0.00000000E+00  0.00000000E+00  0.00000000E+00
 -3.90328062E-16  0.00000000E+00  0.00000000E+00  1.18709354E-15  0.00000000E+00
  0.00000000E+00  2.23418995E-16  0.00000000E+00  0.00000000E+00 -1.83763359E-16
  0.00000000E+00  0.00000000E+00 -9.99346509E-17  0.00000000E+00  0.00000000E+00
  0.00000000E+00  0.00000000E+00  0.00000000E+00  0.00000000E+00  0.00000000E+00
  0.00000000E+00  0.00000000E+00  0.00000000E+00  0.00000000E+00  0.00000000E+00
  0.00000000E+00  0.00000000E+00  0.00000000E+00  0.00000000E+00  0.00000000E+00
  0.00000000E+00  0.00000000E+00  0.00000000E+00  0.00000000E+00  0.00000000E+00
  0.00000000E+00  5.44349840E-17  0.00000000E+00  0.00000000E+00  0.00000000E+00
  6.38550000E+00  0.00000000E+00  0.00000000E+00  0.00000000E+00  0.00000000E+00
  0.00000000E+00  0.00000000E+00  0.00000000E+00  0.00000000E+00  5.55111512E-17
  0.00000000E+00  0.00000000E+00  5.55111512E-16  0.00000000E+00  0.00000000E+00
 -8.88178420E-16  0.00000000E+00  0.00000000E+00 -2.22044605E-16  0.00000000E+00
  0.00000000E+00 -2.22044605E-16  0.00000000E+00  0.00000000E+00  0.00000000E+00
  0.00000000E+00  0.00000000E+00  0.00000000E+00  0.00000000E+00  0.00000000E+00
  0.00000000E+00  0.00000000E+00  0.00000000E+00  0.00000000E+00  0.00000000E+00
  0.00000000E+00  0.00000000E+00  0.00000000E+00  0.00000000E+00  0.00000000E+00
  0.00000000E+00  0.00000000E+00  1.75110720E+00  0.00000000E+00  0.00000000E+00
  1.13392420E-16  0.00000000E+00  0.00000000E+00  0.00000000E+00  2.18250000E+00
  0.00000000E+00  0.00000000E+00  0.00000000E+00  0.00000000E+00  0.00000000E+00
  0.00000000E+00 -6.63456933E-18  0.00000000E+00  0.00000000E+00 -3.51094466E-16
  0.00000000E+00  0.00000000E+00  4.48503521E-16  0.00000000E+00  0.00000000E+00
  1.44056897E-16  0.00000000E+00  0.00000000E+00  6.69175656E-17  0.00000000E+00
  0.00000000E+00  0.00000000E+00  0.00000000E+00  0.00000000E+00  0.00000000E+00
  0.00000000E+00  0.00000000E+00  0.00000000E+00  0.00000000E+00  0.00000000E+00
  0.00000000E+00  0.00000000E+00  0.00000000E+00  0.00000000E+00  0.00000000E+00
  0.00000000E+00  0.00000000E+00  0.00000000E+00  0.00000000E+00  0.00000000E+00
  0.00000000E+00  0.00000000E+00  1.75110720E+00  0.00000000E+00  0.00000000E+00
  0.00000000E+00  2.59664239E-16  0.00000000E+00  0.00000000E+00  2.18250000E+00
  0.00000000E+00  0.00000000E+00  0.00000000E+00  0.00000000E+00  0.00000000E+00
  0.00000000E+00  0.00000000E+00 -6.63456933E-18  0.00000000E+00  0.00000000E+00
 -3.23338890E-16  0.00000000E+00  0.00000000E+00  4.48503521E-16  0.00000000E+00
  0.00000000E+00  1.44056897E-16  0.00000000E+00  0.00000000E+00  7.03870125E-17
  0.00000000E+00  0.00000000E+00  0.00000000E+00  0.00000000E+00  0.00000000E+00
  0.00000000E+00  0.00000000E+00  0.00000000E+00  0.00000000E+00  0.00000000E+00
  0.00000000E+00  0.00000000E+00  0.00000000E+00  0.00000000E+00  0.00000000E+00
  0.00000000E+00  0.00000000E+00  0.00000000E+00  0.00000000E+00  0.00000000E+00
  0.00000000E+00  0.00000000E+00  0.00000000E+00  1.75110720E+00  0.00000000E+00
  0.00000000E+00  0.00000000E+00 -3.03120204E-16  0.00000000E+00  0.00000000E+00
  2.18250000E+00  0.00000000E+00  0.00000000E+00  0.00000000E+00  0.00000000E+00
  0.00000000E+00  0.00000000E+00  0.00000000E+00  0.00000000E+00 -4.17350036E-18
  0.00000000E+00  0.00000000E+00 -1.21590474E-17  0.00000000E+00  0.00000000E+00
  2.60648913E-17  0.00000000E+00  0.00000000E+00 -9.18463412E-18  0.00000000E+00
  0.00000000E+00  9.33390934E-20  0.00000000E+00  0.00000000E+00  0.00000000E+00
  0.00000000E+00  0.00000000E+00  0.00000000E+00  0.00000000E+00  0.00000000E+00
  0.00000000E+00  0.00000000E+00  0.00000000E+00  0.00000000E+00  0.00000000E+00
  0.00000000E+00  0.00000000E+00  0.00000000E+00  0.00000000E+00  0.00000000E+00
  0.00000000E+00  0.00000000E+00  1.05414384E-17  0.00000000E+00  0.00000000E+00
  1.75110720E+00  0.00000000E+00  0.00000000E+00  0.00000000E+00  2.82501941E-17
  0.00000000E+00  0.00000000E+00  2.18250000E+00  0.00000000E+00  0.00000000E+00
  0.00000000E+00  0.00000000E+00  0.00000000E+00  0.00000000E+00  0.00000000E+00
  0.00000000E+00  0.00000000E+00  0.00000000E+00  0.00000000E+00  0.00000000E+00
  0.00000000E+00  0.00000000E+00  0.00000000E+00  0.00000000E+00  0.00000000E+00
  0.00000000E+00  0.00000000E+00  0.00000000E+00  0.00000000E+00  0.00000000E+00
  0.00000000E+00  0.00000000E+00  0.00000000E+00  0.00000000E+00  0.00000000E+00
  0.00000000E+00  0.00000000E+00  0.00000000E+00  0.00000000E+00  0.00000000E+00
  0.00000000E+00  0.00000000E+00  0.00000000E+00  0.00000000E+00  0.00000000E+00
  0.00000000E+00  0.00000000E+00  0.00000000E+00  0.00000000E+00  0.00000000E+00
  0.00000000E+00  0.00000000E+00  0.00000000E+00  1.75110720E+00  0.00000000E+00
  0.00000000E+00  0.00000000E+00  0.00000000E+00  0.00000000E+00  0.00000000E+00
  2.18250000E+00  0.00000000E+00  0.00000000E+00  0.00000000E+00  0.00000000E+00
  0.00000000E+00  0.00000000E+00 -1.92364580E-17  0.00000000E+00  0.00000000E+00
  4.75542001E-16  0.00000000E+00  0.00000000E+00  2.57803798E-16  0.00000000E+00
  0.00000000E+00 -1.48790402E-16  0.00000000E+00  0.00000000E+00 -8.57382823E-17
  0.00000000E+00  0.00000000E+00  0.00000000E+00  0.00000000E+00  0.00000000E+00
  0.00000000E+00  0.00000000E+00  0.00000000E+00  0.00000000E+00  0.00000000E+00
  0.00000000E+00  0.00000000E+00  0.00000000E+00  0.00000000E+00  0.00000000E+00
  0.00000000E+00  0.00000000E+00  0.00000000E+00  0.00000000E+00  0.00000000E+00
  0.00000000E+00  0.00000000E+00  0.00000000E+00  3.11045029E-16  0.00000000E+00
  0.00000000E+00  0.00000000E+00  1.75110720E+00  0.00000000E+00  0.00000000E+00
  4.29052418E-17  0.00000000E+00  0.00000000E+00  0.00000000E+00  2.18250000E+00
  0.00000000E+00  0.00000000E+00  0.00000000E+00  0.00000000E+00  0.00000000E+00
  0.00000000E+00  0.00000000E+00  3.26783499E-17  0.00000000E+00  0.00000000E+00
 -4.61031677E-16  0.00000000E+00  0.00000000E+00 -2.53311014E-16  0.00000000E+00
  0.00000000E+00  1.44847406E-16  0.00000000E+00  0.00000000E+00  8.54678708E-17
  0.00000000E+00  0.00000000E+00  0.00000000E+00  0.00000000E+00  0.00000000E+00
  0.00000000E+00  0.00000000E+00  0.00000000E+00  0.00000000E+00  0.00000000E+00
  0.00000000E+00  0.00000000E+00  0.00000000E+00  0.00000000E+00  0.00000000E+00
  0.00000000E+00  0.00000000E+00  0.00000000E+00  0.00000000E+00  0.00000000E+00
  0.00000000E+00  0.00000000E+00  0.00000000E+00 -3.33762868E-16  0.00000000E+00
  0.00000000E+00  0.00000000E+00  1.75110720E+00  0.00000000E+00  0.00000000E+00
  1.61761173E-17  0.00000000E+00  0.00000000E+00  0.00000000E+00  2.18250000E+00
  0.00000000E+00  0.00000000E+00  0.00000000E+00  0.00000000E+00  0.00000000E+00
  0.00000000E+00  0.00000000E+00  0.00000000E+00  1.38777878E-17  0.00000000E+00
  0.00000000E+00  0.00000000E+00  0.00000000E+00  0.00000000E+00  4.16333634E-17
  0.00000000E+00  0.00000000E+00 -1.38777878E-16  0.00000000E+00  0.00000000E+00
  5.55111512E-17  0.00000000E+00  0.00000000E+00  0.00000000E+00  0.00000000E+00
  0.00000000E+00  0.00000000E+00  0.00000000E+00  0.00000000E+00  0.00000000E+00
  0.00000000E+00  0.00000000E+00  0.00000000E+00  0.00000000E+00  0.00000000E+00
  0.00000000E+00  0.00000000E+00  0.00000000E+00  0.00000000E+00  0.00000000E+00
  0.00000000E+00  2.01699593E-01  0.00000000E+00  0.00000000E+00 -6.48327435E-18
  0.00000000E+00  0.00000000E+00  0.00000000E+00  7.42151142E-01  0.00000000E+00
  0.00000000E+00 -8.08446377E-18  0.00000000E+00  0.00000000E+00  0.00000000E+00
  8.41500000E-01  0.00000000E+00  0.00000000E+00  0.00000000E+00  0.00000000E+00
  0.00000000E+00  0.00000000E+00 -1.17318523E-17  0.00000000E+00  0.00000000E+00
  3.55568556E-17  0.00000000E+00  0.00000000E+00  1.47692766E-16  0.00000000E+00
  0.00000000E+00 -1.90046514E-16  0.00000000E+00  0.00000000E+00 -3.24749526E-17
  0.00000000E+00  0.00000000E+00  0.00000000E+00  0.00000000E+00  0.00000000E+00
  0.00000000E+00  0.00000000E+00  0.00000000E+00  0.00000000E+00  0.00000000E+00
  0.00000000E+00  0.00000000E+00  0.00000000E+00  0.00000000E+00  0.00000000E+00
  0.00000000E+00  0.00000000E+00  0.00000000E+00  0.00000000E+00  0.00000000E+00
  0.00000000E+00  0.00000000E+00  0.00000000E+00  2.01699593E-01  0.00000000E+00
  0.00000000E+00  0.00000000E+00  6.95763172E-17  0.00000000E+00  0.00000000E+00
  7.42151142E-01  0.00000000E+00  0.00000000E+00  0.00000000E+00  2.22615850E-16
  0.00000000E+00  0.00000000E+00  8.41500000E-01  0.00000000E+00  0.00000000E+00
  0.00000000E+00  0.00000000E+00  0.00000000E+00  0.00000000E+00  0.00000000E+00
 -1.17318523E-17  0.00000000E+00  0.00000000E+00  3.55568556E-17  0.00000000E+00
  0.00000000E+00  1.47692766E-16  0.00000000E+00  0.00000000E+00 -1.90046514E-16
  0.00000000E+00  0.00000000E+00 -3.24749526E-17  0.00000000E+00  0.00000000E+00
  0.00000000E+00  0.00000000E+00  0.00000000E+00  0.00000000E+00  0.00000000E+00
  0.00000000E+00  0.00000000E+00  0.00000000E+00  0.00000000E+00  0.00000000E+00
  0.00000000E+00  0.00000000E+00  0.00000000E+00  0.00000000E+00  0.00000000E+00
  0.00000000E+00  0.00000000E+00  0.00000000E+00  0.00000000E+00  0.00000000E+00
  0.00000000E+00  2.01699593E-01  0.00000000E+00  0.00000000E+00  0.00000000E+00
 -5.77448840E-17  0.00000000E+00  0.00000000E+00  7.42151142E-01  0.00000000E+00
  0.00000000E+00  0.00000000E+00 -2.04032787E-16  0.00000000E+00  0.00000000E+00
  8.41500000E-01  0.00000000E+00  0.00000000E+00  0.00000000E+00  0.00000000E+00
  0.00000000E+00  0.00000000E+00  0.00000000E+00  0.00000000E+00 -2.46600162E-19
  0.00000000E+00  0.00000000E+00  2.64841906E-18  0.00000000E+00  0.00000000E+00
 -6.93044353E-18  0.00000000E+00  0.00000000E+00 -9.74635326E-18  0.00000000E+00
  0.00000000E+00  2.40968899E-18  0.00000000E+00  0.00000000E+00  0.00000000E+00
  0.00000000E+00  0.00000000E+00  0.00000000E+00  0.00000000E+00  0.00000000E+00
  0.00000000E+00  0.00000000E+00  0.00000000E+00  0.00000000E+00  0.00000000E+00
  0.00000000E+00  0.00000000E+00  0.00000000E+00  0.00000000E+00  0.00000000E+00
  0.00000000E+00  0.00000000E+00  5.75762109E-19  0.00000000E+00  0.00000000E+00
  2.01699593E-01  0.00000000E+00  0.00000000E+00  0.00000000E+00  8.41542597E-18
  0.00000000E+00  0.00000000E+00  7.42151142E-01  0.00000000E+00  0.00000000E+00
  0.00000000E+00  5.28002788E-18  0.00000000E+00  0.00000000E+00  8.41500000E-01
  0.00000000E+00  0.00000000E+00  0.00000000E+00  0.00000000E+00  0.00000000E+00
  0.00000000E+00  0.00000000E+00  0.00000000E+00  0.00000000E+00  0.00000000E+00
  0.00000000E+00  0.00000000E+00  0.00000000E+00  0.00000000E+00  0.00000000E+00
  0.00000000E+00  0.00000000E+00  0.00000000E+00  0.00000000E+00  0.00000000E+00
  0.00000000E+00  0.00000000E+00  0.00000000E+00  0.00000000E+00  0.00000000E+00
  0.00000000E+00  0.00000000E+00  0.00000000E+00  0.00000000E+00  0.00000000E+00
  0.00000000E+00  0.00000000E+00  0.00000000E+00  0.00000000E+00  0.00000000E+00
  0.00000000E+00  0.00000000E+00  0.00000000E+00  0.00000000E+00  0.00000000E+00
  0.00000000E+00  0.00000000E+00  0.00000000E+00  0.00000000E+00  0.00000000E+00
  2.01699593E-01  0.00000000E+00  0.00000000E+00  0.00000000E+00  0.00000000E+00
  0.00000000E+00  0.00000000E+00  7.42151142E-01  0.00000000E+00  0.00000000E+00
  0.00000000E+00  0.00000000E+00  0.00000000E+00  0.00000000E+00  8.41500000E-01
  0.00000000E+00  0.00000000E+00  0.00000000E+00  0.00000000E+00  0.00000000E+00
  0.00000000E+00  2.28964420E-17  0.00000000E+00  0.00000000E+00 -4.99617061E-17
  0.00000000E+00  0.00000000E+00  6.67691141E-18  0.00000000E+00  0.00000000E+00
 -7.59139968E-17  0.00000000E+00  0.00000000E+00  4.52188530E-17  0.00000000E+00
  0.00000000E+00  0.00000000E+00  0.00000000E+00  0.00000000E+00  0.00000000E+00
  0.00000000E+00  0.00000000E+00  0.00000000E+00  0.00000000E+00  0.00000000E+00
  0.00000000E+00  0.00000000E+00  0.00000000E+00  0.00000000E+00  0.00000000E+00
  0.00000000E+00  0.00000000E+00  0.00000000E+00  0.00000000E+00  0.00000000E+00
  0.00000000E+00  0.00000000E+00  3.75227169E-17  0.00000000E+00  0.00000000E+00
  0.00000000E+00  2.01699593E-01  0.00000000E+00  0.00000000E+00  2.04999475E-16
  0.00000000E+00  0.00000000E+00  0.00000000E+00  7.42151142E-01  0.00000000E+00
  0.00000000E+00 -3.06197465E-16  0.00000000E+00  0.00000000E+00  0.00000000E+00
  8.41500000E-01  0.00000000E+00  0.00000000E+00  0.00000000E+00  0.00000000E+00
  0.00000000E+00  0.00000000E+00  0.00000000E+00 -2.13170573E-17  0.00000000E+00
  0.00000000E+00  5.90151624E-17  0.00000000E+00  0.00000000E+00  2.96117059E-18
  0.00000000E+00  0.00000000E+00  8.84465201E-17  0.00000000E+00  0.00000000E+00
 -5.19564500E-17  0.00000000E+00  0.00000000E+00  0.00000000E+00  0.00000000E+00
  0.00000000E+00  0.00000000E+00  0.00000000E+00  0.00000000E+00  0.00000000E+00
  0.00000000E+00  0.00000000E+00  0.00000000E+00  0.00000000E+00  0.00000000E+00
  0.00000000E+00  0.00000000E+00  0.00000000E+00  0.00000000E+00  0.00000000E+00
  0.00000000E+00  0.00000000E+00  0.00000000E+00  0.00000000E+00 -4.05313056E-17
  0.00000000E+00  0.00000000E+00  0.00000000E+00  2.01699593E-01  0.00000000E+00
  0.00000000E+00 -1.89912458E-16  0.00000000E+00  0.00000000E+00  0.00000000E+00
  7.42151142E-01  0.00000000E+00  0.00000000E+00  2.10768185E-16  0.00000000E+00
  0.00000000E+00  0.00000000E+00  8.41500000E-01  0.00000000E+00  0.00000000E+00
 -3.46944695E-18 -7.21644966E-16  3.60822483E-16 -2.49800181E-16  0.00000000E+00
  0.00000000E+00  0.00000000E+00  0.00000000E+00  0.00000000E+00  0.00000000E+00
  0.00000000E+00  0.00000000E+00  0.00000000E+00  0.00000000E+00  0.00000000E+00
  0.00000000E+00  0.00000000E+00  0.00000000E+00  0.00000000E+00 -4.44089210E-16
  0.00000000E+00  0.00000000E+00 -8.16948079E-17  0.00000000E+00  6.66133815E-16
  0.00000000E+00  0.00000000E+00 -5.00148014E-17  0.00000000E+00  4.44089210E-16
  0.00000000E+00  0.00000000E+00 -2.00123105E-16  0.00000000E+00  3.95516953E-16
  0.00000000E+00  0.00000000E+00  4.67598246E-17  0.00000000E+00  0.00000000E+00
  0.00000000E+00  0.00000000E+00  0.00000000E+00  0.00000000E+00  0.00000000E+00
  0.00000000E+00  0.00000000E+00  0.00000000E+00  0.00000000E+00  0.00000000E+00
  0.00000000E+00  0.00000000E+00  0.00000000E+00  0.00000000E+00  0.00000000E+00
  0.00000000E+00  0.00000000E+00  0.00000000E+00  0.00000000E+00  0.00000000E+00
  5.56050000E+00  0.00000000E+00  0.00000000E+00  0.00000000E+00  0.00000000E+00
  0.00000000E+00  0.00000000E+00  0.00000000E+00  0.00000000E+00  0.00000000E+00
  0.00000000E+00  0.00000000E+00  0.00000000E+00  0.00000000E+00  0.00000000E+00
  0.00000000E+00  0.00000000E+00  0.00000000E+00  0.00000000E+00  0.00000000E+00
  0.00000000E+00  0.00000000E+00  0.00000000E+00 -5.04319832E-16  0.00000000E+00
  0.00000000E+00  0.00000000E+00  0.00000000E+00 -4.65556550E-16  0.00000000E+00
  0.00000000E+00  0.00000000E+00  0.00000000E+00 -2.17521947E-15  0.00000000E+00
  0.00000000E+00  0.00000000E+00  0.00000000E+00 -2.74076329E-16  0.00000000E+00
  0.00000000E+00  0.00000000E+00  0.00000000E+00  0.00000000E+00  0.00000000E+00
  0.00000000E+00  0.00000000E+00  0.00000000E+00  0.00000000E+00  0.00000000E+00
  0.00000000E+00  0.00000000E+00  0.00000000E+00  0.00000000E+00  0.00000000E+00
  0.00000000E+00  0.00000000E+00  0.00000000E+00  0.00000000E+00  0.00000000E+00
  0.00000000E+00  0.00000000E+00  0.00000000E+00  0.00000000E+00  5.56050000E+00
  0.00000000E+00  0.00000000E+00  0.00000000E+00  0.00000000E+00  0.00000000E+00
  0.00000000E+00  0.00000000E+00  0.00000000E+00  0.00000000E+00  0.00000000E+00
  0.00000000E+00  0.00000000E+00  0.00000000E+00  0.00000000E+00  0.00000000E+00
  0.00000000E+00  0.00000000E+00  0.00000000E+00  0.00000000E+00  0.00000000E+00
  0.00000000E+00  0.00000000E+00  0.00000000E+00 -5.04319832E-16  0.00000000E+00
  0.00000000E+00  0.00000000E+00  0.00000000E+00 -4.65556550E-16  0.00000000E+00
  0.00000000E+00  0.00000000E+00  0.00000000E+00 -2.17521947E-15  0.00000000E+00
  0.00000000E+00  0.00000000E+00  0.00000000E+00 -2.74076329E-16  0.00000000E+00
  0.00000000E+00  0.00000000E+00  0.00000000E+00  0.00000000E+00  0.00000000E+00
  0.00000000E+00  0.00000000E+00  0.00000000E+00  0.00000000E+00  0.00000000E+00
  0.00000000E+00  0.00000000E+00  0.00000000E+00  0.00000000E+00  0.00000000E+00
  0.00000000E+00  0.00000000E+00  0.00000000E+00  0.00000000E+00  0.00000000E+00
  0.00000000E+00  0.00000000E+00  0.00000000E+00  0.00000000E+00  5.56050000E+00
  1.67478447E-17  3.39753239E-17  5.42140577E-19  2.28515629E-16  1.82354588E-17
 -2.99879743E-18  0.00000000E+00  0.00000000E+00  0.00000000E+00  0.00000000E+00
  0.00000000E+00  0.00000000E+00  0.00000000E+00  0.00000000E+00  0.00000000E+00
  0.00000000E+00  0.00000000E+00  0.00000000E+00  0.00000000E+00  0.00000000E+00
  0.00000000E+00 -1.60399771E-17  0.00000000E+00  0.00000000E+00  2.77343390E-15
  0.00000000E+00  1.08717012E-16  0.00000000E+00  0.00000000E+00 -1.64804237E-15
  0.00000000E+00 -2.55845439E-18  0.00000000E+00  0.00000000E+00  5.21174113E-16
  0.00000000E+00  5.52539059E-19  0.00000000E+00  0.00000000E+00  6.85197060E-17
  0.00000000E+00  0.00000000E+00  0.00000000E+00  0.00000000E+00  0.00000000E+00
  0.00000000E+00  0.00000000E+00  0.00000000E+00  0.00000000E+00  0.00000000E+00
  0.00000000E+00  0.00000000E+00  0.00000000E+00  0.00000000E+00  0.00000000E+00
  0.00000000E+00  0.00000000E+00  0.00000000E+00  0.00000000E+00  0.00000000E+00
  0.00000000E+00  0.00000000E+00 -6.43115570E-17  0.00000000E+00  0.00000000E+00
  5.56050000E+00  0.00000000E+00  0.00000000E+00  0.00000000E+00  0.00000000E+00
  0.00000000E+00  0.00000000E+00  0.00000000E+00  0.00000000E+00  0.00000000E+00
  0.00000000E+00  0.00000000E+00  0.00000000E+00  0.00000000E+00  0.00000000E+00
  0.00000000E+00  0.00000000E+00  0.00000000E+00  0.00000000E+00  0.00000000E+00
  0.00000000E+00  0.00000000E+00  0.00000000E+00  0.00000000E+00  0.00000000E+00
  0.00000000E+00  2.59547223E-16  0.00000000E+00  0.00000000E+00  0.00000000E+00
  0.00000000E+00  1.31494987E-15  0.00000000E+00  0.00000000E+00  0.00000000E+00
  0.00000000E+00 -1.71852757E-15  0.00000000E+00  0.00000000E+00  0.00000000E+00
  0.00000000E+00  1.32705069E-16  0.00000000E+00  0.00000000E+00  0.00000000E+00
  0.00000000E+00  0.00000000E+00  0.00000000E+00  0.00000000E+00  0.00000000E+00
  0.00000000E+00  0.00000000E+00  0.00000000E+00  0.00000000E+00  0.00000000E+00
  0.00000000E+00  0.00000000E+00  0.00000000E+00  0.00000000E+00  0.00000000E+00
  0.00000000E+00  0.00000000E+00  0.00000000E+00  0.00000000E+00  0.00000000E+00
  0.00000000E+00  0.00000000E+00  5.56050000E+00  0.00000000E+00  0.00000000E+00
  0.00000000E+00  0.00000000E+00  0.00000000E+00  0.00000000E+00  0.00000000E+00
  0.00000000E+00  0.00000000E+00  0.00000000E+00  0.00000000E+00  0.00000000E+00
  0.00000000E+00  0.00000000E+00  0.00000000E+00  0.00000000E+00  0.00000000E+00
  0.00000000E+00  0.00000000E+00  0.00000000E+00  0.00000000E+00  0.00000000E+00
  3.01670822E-16  0.00000000E+00  0.00000000E+00  0.00000000E+00  0.00000000E+00
 -1.04170622E-15  0.00000000E+00  0.00000000E+00  0.00000000E+00  0.00000000E+00
  1.01886977E-15  0.00000000E+00  0.00000000E+00  0.00000000E+00  0.00000000E+00
  7.25828391E-17  0.00000000E+00  0.00000000E+00  0.00000000E+00  0.00000000E+00
  0.00000000E+00  0.00000000E+00  0.00000000E+00  0.00000000E+00  0.00000000E+00
  0.00000000E+00  0.00000000E+00  0.00000000E+00  0.00000000E+00  0.00000000E+00
  0.00000000E+00  0.00000000E+00  0.00000000E+00  0.00000000E+00  0.00000000E+00
  0.00000000E+00  0.00000000E+00  0.00000000E+00  0.00000000E+00  0.00000000E+00
  0.00000000E+00 -1.90002004E-15  0.00000000E+00  0.00000000E+00  0.00000000E+00
  5.56050000E+00  0.00000000E+00  0.00000000E+00  0.00000000E+00  0.00000000E+00
  0.00000000E+00  0.00000000E+00  0.00000000E+00  0.00000000E+00  0.00000000E+00
  0.00000000E+00  0.00000000E+00  0.00000000E+00  0.00000000E+00  0.00000000E+00
  0.00000000E+00  0.00000000E+00  0.00000000E+00  0.00000000E+00  0.00000000E+00
  0.00000000E+00  0.00000000E+00  0.00000000E+00  0.00000000E+00 -3.47659290E-16
  0.00000000E+00  0.00000000E+00  0.00000000E+00  0.00000000E+00  1.06100633E-15
  0.00000000E+00  0.00000000E+00  0.00000000E+00  0.00000000E+00 -9.89678461E-16
  0.00000000E+00  0.00000000E+00  0.00000000E+00  0.00000000E+00 -7.02261493E-17
  0.00000000E+00  0.00000000E+00  0.00000000E+00  0.00000000E+00  0.00000000E+00
  0.00000000E+00  0.00000000E+00  0.00000000E+00  0.00000000E+00  0.00000000E+00
  0.00000000E+00  0.00000000E+00  0.00000000E+00  0.00000000E+00  0.00000000E+00
  0.00000000E+00  0.00000000E+00  0.00000000E+00  0.00000000E+00  0.00000000E+00
  0.00000000E+00  0.00000000E+00  0.00000000E+00  0.00000000E+00  0.00000000E+00
  3.24706196E-15  0.00000000E+00  0.00000000E+00  0.00000000E+00  5.56050000E+00
  2.61970557E-17 -2.52976273E-17 -1.07126334E-18 -2.30032286E-15  3.11816873E-16
  1.70032270E-16  0.00000000E+00  0.00000000E+00  0.00000000E+00  0.00000000E+00
  0.00000000E+00  0.00000000E+00  0.00000000E+00  0.00000000E+00  0.00000000E+00
  0.00000000E+00  0.00000000E+00  0.00000000E+00  0.00000000E+00  0.00000000E+00
  0.00000000E+00  2.15646510E-15  0.00000000E+00  0.00000000E+00 -1.20896156E-16
  0.00000000E+00 -1.29104040E-15  0.00000000E+00  0.00000000E+00 -3.28934873E-16
  0.00000000E+00  1.61319113E-15  0.00000000E+00  0.00000000E+00  8.74556066E-16
  0.00000000E+00 -1.15454517E-16  0.00000000E+00  0.00000000E+00 -1.72464620E-18
  0.00000000E+00  0.00000000E+00  0.00000000E+00  0.00000000E+00  0.00000000E+00
  0.00000000E+00  0.00000000E+00  0.00000000E+00  0.00000000E+00  0.00000000E+00
  0.00000000E+00  0.00000000E+00  0.00000000E+00  0.00000000E+00  0.00000000E+00
  0.00000000E+00  0.00000000E+00  0.00000000E+00  0.00000000E+00  0.00000000E+00
  0.00000000E+00  0.00000000E+00 -9.42217902E-16  0.00000000E+00  0.00000000E+00
  5.91221341E-17  0.00000000E+00  0.00000000E+00  0.00000000E+00  5.56050000E+00
  0.00000000E+00  0.00000000E+00  0.00000000E+00  0.00000000E+00  0.00000000E+00
  0.00000000E+00  0.00000000E+00  0.00000000E+00  0.00000000E+00  0.00000000E+00
  0.00000000E+00  0.00000000E+00  0.00000000E+00  0.00000000E+00  0.00000000E+00
  0.00000000E+00  0.00000000E+00  0.00000000E+00  0.00000000E+00  0.00000000E+00
  0.00000000E+00  0.00000000E+00  0.00000000E+00  0.00000000E+00  0.00000000E+00
 -1.68186173E-17  0.00000000E+00  0.00000000E+00  0.00000000E+00  0.00000000E+00
  2.18366971E-16  0.00000000E+00  0.00000000E+00  0.00000000E+00  0.00000000E+00
 -5.51019156E-18  0.00000000E+00  0.00000000E+00  0.00000000E+00  0.00000000E+00
 -6.21946894E-18  0.00000000E+00  0.00000000E+00  0.00000000E+00  0.00000000E+00
  0.00000000E+00  0.00000000E+00  0.00000000E+00  0.00000000E+00  0.00000000E+00
  0.00000000E+00  0.00000000E+00  0.00000000E+00  0.00000000E+00  0.00000000E+00
  0.00000000E+00  0.00000000E+00  0.00000000E+00  0.00000000E+00  0.00000000E+00
  0.00000000E+00  0.00000000E+00  0.00000000E+00  0.00000000E+00  0.00000000E+00
  0.00000000E+00 -1.04635437E-16  0.00000000E+00  0.00000000E+00  0.00000000E+00
  5.56050000E+00  2.08166817E-17  6.93889390E-18 -1.94289029E-16 -1.94289029E-16
 -4.02455846E-16  3.26128013E-16  0.00000000E+00  0.00000000E+00  0.00000000E+00
  0.00000000E+00  0.00000000E+00  0.00000000E+00  0.00000000E+00  0.00000000E+00
  0.00000000E+00  0.00000000E+00  0.00000000E+00  0.00000000E+00  0.00000000E+00
  0.00000000E+00  0.00000000E+00 -8.32667268E-17  0.00000000E+00  0.00000000E+00
  8.80441197E-18  0.00000000E+00 -5.55111512E-17  0.00000000E+00  0.00000000E+00
 -1.16465508E-17  0.00000000E+00  2.22044605E-16  0.00000000E+00  0.00000000E+00
  8.16851489E-17  0.00000000E+00 -3.33066907E-16  0.00000000E+00  0.00000000E+00
 -1.14856151E-18  0.00000000E+00  0.00000000E+00  0.00000000E+00  0.00000000E+00
  0.00000000E+00  0.00000000E+00  0.00000000E+00  0.00000000E+00  0.00000000E+00
  0.00000000E+00  0.00000000E+00  0.00000000E+00  0.00000000E+00  0.00000000E+00
  0.00000000E+00  0.00000000E+00  0.00000000E+00  0.00000000E+00  0.00000000E+00
  0.00000000E+00  0.00000000E+00  0.00000000E+00  1.98590788E+00  0.00000000E+00
  0.00000000E+00 -1.80104283E-16  0.00000000E+00  0.00000000E+00  0.00000000E+00
  4.81772063E-16  0.00000000E+00  2.33200000E+00  0.00000000E+00  0.00000000E+00
  0.00000000E+00  0.00000000E+00  0.00000000E+00  0.00000000E+00  0.00000000E+00
  0.00000000E+00  0.00000000E+00  0.00000000E+00  0.00000000E+00  0.00000000E+00
  0.00000000E+00  0.00000000E+00  0.00000000E+00  0.00000000E+00  0.00000000E+00
  0.00000000E+00  0.00000000E+00  0.00000000E+00  0.00000000E+00  0.00000000E+00
  1.49825872E-16  0.00000000E+00  0.00000000E+00  0.00000000E+00  0.00000000E+00
 -4.70903686E-16  0.00000000E+00  0.00000000E+00  0.00000000E+00  0.00000000E+00
  6.88355641E-16  0.00000000E+00  0.00000000E+00  0.00000000E+00  0.00000000E+00
 -1.25796132E-17  0.00000000E+00  0.00000000E+00  0.00000000E+00  0.00000000E+00
  0.00000000E+00  0.00000000E+00  0.00000000E+00  0.00000000E+00  0.00000000E+00
  0.00000000E+00  0.00000000E+00  0.00000000E+00  0.00000000E+00  0.00000000E+00
  0.00000000E+00  0.00000000E+00  0.00000000E+00  0.00000000E+00  0.00000000E+00
  0.00000000E+00  0.00000000E+00  0.00000000E+00  0.00000000E+00  0.00000000E+00
  0.00000000E+00  1.98590788E+00  0.00000000E+00  0.00000000E+00  0.00000000E+00
 -2.59334147E-16  0.00000000E+00  0.00000000E+00  0.00000000E+00  0.00000000E+00
  2.33200000E+00  0.00000000E+00  0.00000000E+00  0.00000000E+00  0.00000000E+00
  0.00000000E+00  0.00000000E+00  0.00000000E+00  0.00000000E+00  0.00000000E+00
  0.00000000E+00  0.00000000E+00  0.00000000E+00  0.00000000E+00  0.00000000E+00
  0.00000000E+00  0.00000000E+00  0.00000000E+00  0.00000000E+00  0.00000000E+00
  0.00000000E+00  0.00000000E+00  0.00000000E+00  0.00000000E+00  1.49825872E-16
  0.00000000E+00  0.00000000E+00  0.00000000E+00  0.00000000E+00 -4.70903686E-16
  0.00000000E+00  0.00000000E+00  0.00000000E+00  0.00000000E+00  6.88355641E-16
  0.00000000E+00  0.00000000E+00  0.00000000E+00  0.00000000E+00 -1.25796132E-17
  0.00000000E+00  0.00000000E+00  0.00000000E+00  0.00000000E+00  0.00000000E+00
  0.00000000E+00  0.00000000E+00  0.00000000E+00  0.00000000E+00  0.00000000E+00
  0.00000000E+00  0.00000000E+00  0.00000000E+00  0.00000000E+00  0.00000000E+00
  0.00000000E+00  0.00000000E+00  0.00000000E+00  0.00000000E+00  0.00000000E+00
  0.00000000E+00  0.00000000E+00  0.00000000E+00  0.00000000E+00  0.00000000E+00
  1.98590788E+00  0.00000000E+00  0.00000000E+00  0.00000000E+00  4.09698103E-16
  0.00000000E+00  0.00000000E+00  0.00000000E+00  0.00000000E+00  2.33200000E+00
 -8.38340693E-18  2.67559161E-18  1.45423655E-17 -6.83733931E-19  7.17708838E-18
  4.64321328E-19  0.00000000E+00  0.00000000E+00  0.00000000E+00  0.00000000E+00
  0.00000000E+00  0.00000000E+00  0.00000000E+00  0.00000000E+00  0.00000000E+00
  0.00000000E+00  0.00000000E+00  0.00000000E+00  0.00000000E+00  0.00000000E+00
  0.00000000E+00  4.82029614E-20  0.00000000E+00  0.00000000E+00  5.80084948E-17
  0.00000000E+00  1.75681915E-18  0.00000000E+00  0.00000000E+00  9.74417173E-17
  0.00000000E+00  1.94628449E-17  0.00000000E+00  0.00000000E+00 -2.16581088E-16
  0.00000000E+00 -7.73362128E-19  0.00000000E+00  0.00000000E+00  4.75566141E-16
  0.00000000E+00  0.00000000E+00  0.00000000E+00  0.00000000E+00  0.00000000E+00
  0.00000000E+00  0.00000000E+00  0.00000000E+00  0.00000000E+00  0.00000000E+00
  0.00000000E+00  0.00000000E+00  0.00000000E+00  0.00000000E+00  0.00000000E+00
  0.00000000E+00  0.00000000E+00  0.00000000E+00  0.00000000E+00  0.00000000E+00
  0.00000000E+00  0.00000000E+00  3.98310992E-17  0.00000000E+00  0.00000000E+00
  1.98590788E+00  0.00000000E+00  0.00000000E+00  0.00000000E+00 -1.81122333E-16
  0.00000000E+00  5.67569907E-17  0.00000000E+00  0.00000000E+00  2.33200000E+00
  0.00000000E+00  0.00000000E+00  0.00000000E+00  0.00000000E+00  0.00000000E+00
  0.00000000E+00  0.00000000E+00  0.00000000E+00  0.00000000E+00  0.00000000E+00
  0.00000000E+00  0.00000000E+00  0.00000000E+00  0.00000000E+00  0.00000000E+00
  0.00000000E+00  0.00000000E+00  0.00000000E+00  0.00000000E+00  0.00000000E+00
  0.00000000E+00  0.00000000E+00  0.00000000E+00  0.00000000E+00  0.00000000E+00
 -8.52121956E-17  0.00000000E+00  0.00000000E+00  0.00000000E+00  0.00000000E+00
 -1.02113361E-15  0.00000000E+00  0.00000000E+00  0.00000000E+00  0.00000000E+00
  1.92865617E-16  0.00000000E+00  0.00000000E+00  0.00000000E+00  0.00000000E+00
  2.85438828E-18  0.00000000E+00  0.00000000E+00  0.00000000E+00  0.00000000E+00
  0.00000000E+00  0.00000000E+00  0.00000000E+00  0.00000000E+00  0.00000000E+00
  0.00000000E+00  0.00000000E+00  0.00000000E+00  0.00000000E+00  0.00000000E+00
  0.00000000E+00  0.00000000E+00  0.00000000E+00  0.00000000E+00  0.00000000E+00
  0.00000000E+00  0.00000000E+00  0.00000000E+00  0.00000000E+00  0.00000000E+00
  0.00000000E+00  1.98590788E+00  0.00000000E+00  0.00000000E+00  0.00000000E+00
  1.21587082E-16  0.00000000E+00  0.00000000E+00  0.00000000E+00  0.00000000E+00
  2.33200000E+00  0.00000000E+00  0.00000000E+00  0.00000000E+00  0.00000000E+00
  0.00000000E+00  0.00000000E+00  0.00000000E+00  0.00000000E+00  0.00000000E+00
  0.00000000E+00  0.00000000E+00  0.00000000E+00  0.00000000E+00  0.00000000E+00
  0.00000000E+00  0.00000000E+00  0.00000000E+00  0.00000000E+00  0.00000000E+00
  0.00000000E+00  0.00000000E+00  0.00000000E+00 -1.91499632E-17  0.00000000E+00
  0.00000000E+00  0.00000000E+00  0.00000000E+00  5.73552262E-16  0.00000000E+00
  0.00000000E+00  0.00000000E+00  0.00000000E+00  1.65956066E-16  0.00000000E+00
  0.00000000E+00  0.00000000E+00  0.00000000E+00 -8.79871555E-18  0.00000000E+00
  0.00000000E+00  0.00000000E+00  0.00000000E+00  0.00000000E+00  0.00000000E+00
  0.00000000E+00  0.00000000E+00  0.00000000E+00  0.00000000E+00  0.00000000E+00
  0.00000000E+00  0.00000000E+00  0.00000000E+00  0.00000000E+00  0.00000000E+00
  0.00000000E+00  0.00000000E+00  0.00000000E+00  0.00000000E+00  0.00000000E+00
  0.00000000E+00  0.00000000E+00  0.00000000E+00  0.00000000E+00 -1.43201565E-16
  0.00000000E+00  0.00000000E+00  0.00000000E+00  1.98590788E+00  0.00000000E+00
  0.00000000E+00  0.00000000E+00  0.00000000E+00  3.84628653E-16  0.00000000E+00
  0.00000000E+00  0.00000000E+00  2.33200000E+00  0.00000000E+00  0.00000000E+00
  0.00000000E+00  0.00000000E+00  0.00000000E+00  0.00000000E+00  0.00000000E+00
  0.00000000E+00  0.00000000E+00  0.00000000E+00  0.00000000E+00  0.00000000E+00
  0.00000000E+00  0.00000000E+00  0.00000000E+00  0.00000000E+00  0.00000000E+00
  0.00000000E+00  0.00000000E+00  0.00000000E+00  0.00000000E+00  0.00000000E+00
  0.00000000E+00  1.91143302E-17  0.00000000E+00  0.00000000E+00  0.00000000E+00
  0.00000000E+00 -5.78453415E-16  0.00000000E+00  0.00000000E+00  0.00000000E+00
  0.00000000E+00 -8.29247501E-17  0.00000000E+00  0.00000000E+00  0.00000000E+00
  0.00000000E+00  1.09406628E-18  0.00000000E+00  0.00000000E+00  0.00000000E+00
  0.00000000E+00  0.00000000E+00  0.00000000E+00  0.00000000E+00  0.00000000E+00
  0.00000000E+00  0.00000000E+00  0.00000000E+00  0.00000000E+00  0.00000000E+00
  0.00000000E+00  0.00000000E+00  0.00000000E+00  0.00000000E+00  0.00000000E+00
  0.00000000E+00  0.00000000E+00  0.00000000E+00  0.00000000E+00  0.00000000E+00
  0.00000000E+00  0.00000000E+00  1.19293038E-16  0.00000000E+00  0.00000000E+00
  0.00000000E+00  1.98590788E+00  0.00000000E+00  0.00000000E+00  0.00000000E+00
  0.00000000E+00 -3.23670903E-16  0.00000000E+00  0.00000000E+00  0.00000000E+00
  2.33200000E+00  5.62664320E-18  3.16545120E-17 -2.93113339E-16 -1.62837242E-16
 -3.16195603E-16  6.57075640E-16  0.00000000E+00  0.00000000E+00  0.00000000E+00
  0.00000000E+00  0.00000000E+00  0.00000000E+00  0.00000000E+00  0.00000000E+00
  0.00000000E+00  0.00000000E+00  0.00000000E+00  0.00000000E+00  0.00000000E+00
  0.00000000E+00  0.00000000E+00  7.76167819E-17  0.00000000E+00  0.00000000E+00
 -1.56918779E-17  0.00000000E+00  3.80551369E-16  0.00000000E+00  0.00000000E+00
 -2.44906145E-17  0.00000000E+00 -4.29754364E-16  0.00000000E+00  0.00000000E+00
 -4.18147808E-16  0.00000000E+00  3.58472376E-16  0.00000000E+00  0.00000000E+00
  4.28767672E-18  0.00000000E+00  0.00000000E+00  0.00000000E+00  0.00000000E+00
  0.00000000E+00  0.00000000E+00  0.00000000E+00  0.00000000E+00  0.00000000E+00
  0.00000000E+00  0.00000000E+00  0.00000000E+00  0.00000000E+00  0.00000000E+00
  0.00000000E+00  0.00000000E+00  0.00000000E+00  0.00000000E+00  0.00000000E+00
  0.00000000E+00  0.00000000E+00  0.00000000E+00  3.09467231E-16  0.00000000E+00
  0.00000000E+00  2.49175344E-17  0.00000000E+00  0.00000000E+00  0.00000000E+00
  1.98590788E+00  0.00000000E+00 -7.66955999E-17  0.00000000E+00  0.00000000E+00
  2.82471753E-16  0.00000000E+00  0.00000000E+00  0.00000000E+00  2.33200000E+00
  0.00000000E+00  0.00000000E+00  0.00000000E+00  0.00000000E+00  0.00000000E+00
  0.00000000E+00  0.00000000E+00  0.00000000E+00  0.00000000E+00  0.00000000E+00
  0.00000000E+00  0.00000000E+00  0.00000000E+00  0.00000000E+00  0.00000000E+00
  0.00000000E+00  0.00000000E+00  0.00000000E+00  0.00000000E+00  0.00000000E+00
  0.00000000E+00  0.00000000E+00  0.00000000E+00  0.00000000E+00  0.00000000E+00
 -2.17569142E-18  0.00000000E+00  0.00000000E+00  0.00000000E+00  0.00000000E+00
 -2.24837250E-17  0.00000000E+00  0.00000000E+00  0.00000000E+00  0.00000000E+00
 -8.73718105E-18  0.00000000E+00  0.00000000E+00  0.00000000E+00  0.00000000E+00
 -7.81264102E-18  0.00000000E+00  0.00000000E+00  0.00000000E+00  0.00000000E+00
  0.00000000E+00  0.00000000E+00  0.00000000E+00  0.00000000E+00  0.00000000E+00
  0.00000000E+00  0.00000000E+00  0.00000000E+00  0.00000000E+00  0.00000000E+00
  0.00000000E+00  0.00000000E+00  0.00000000E+00  0.00000000E+00  0.00000000E+00
  0.00000000E+00  0.00000000E+00  0.00000000E+00  0.00000000E+00  0.00000000E+00
  0.00000000E+00  4.99098632E-17  0.00000000E+00  0.00000000E+00  0.00000000E+00
  1.98590788E+00  0.00000000E+00  0.00000000E+00  0.00000000E+00  0.00000000E+00
 -1.32004201E-16  0.00000000E+00  0.00000000E+00  0.00000000E+00  2.33200000E+00
Nuclear Attraction Matrix                  R   N=        3240
 -3.41974406E+01  3.10864784E+01 -2.86993185E+01 -9.00134610E+00  9.29602716E+00
 -8.21131374E+00 -4.80631789E+00  5.03987582E+00 -5.86543941E+00 -5.16053082E+00
 -2.41065374E+00  2.54558302E+00 -3.45696984E+00 -3.63080350E+00 -3.19137866E+00
 -1.16527320E+00  1.23404830E+00 -1.79820268E+00 -2.09691890E+00 -2.21905485E+00
 -1.94932196E+00  0.00000000E+00  0.00000000E+00  0.00000000E+00  0.00000000E+00
  0.00000000E+00  0.00000000E+00 -1.15997574E+01  0.00000000E+00  0.00000000E+00
  0.00000000E+00  0.00000000E+00  0.00000000E+00  0.00000000E+00  0.00000000E+00
 -1.15997574E+01  0.00000000E+00  0.00000000E+00  0.00000000E+00  0.00000000E+00
  0.00000000E+00  0.00000000E+00  0.00000000E+00  0.00000000E+00 -1.15997574E+01
  0.00000000E+00  0.00000000E+00  0.00000000E+00  0.00000000E+00  0.00000000E+00
  0.00000000E+00 -5.57843003E+00  0.00000000E+00  0.00000000E+00 -5.75610534E+00
  0.00000000E+00  0.00000000E+00  0.00000000E+00  0.00000000E+00  0.00000000E+00
  0.00000000E+00  0.00000000E+00 -5.57843003E+00  0.00000000E+00  0.00000000E+00
 -5.75610534E+00  0.00000000E+00  0.00000000E+00  0.00000000E+00  0.00000000E+00
  0.00000000E+00  0.00000000E+00  0.00000000E+00  0.00000000E+00 -5.57843003E+00
  0.00000000E+00  0.00000000E+00 -5.75610534E+00  0.00000000E+00  0.00000000E+00
  0.00000000E+00  0.00000000E+00  0.00000000E+00  0.00000000E+00 -2.12907523E+00
  0.00000000E+00  0.00000000E+00 -3.43904804E+00  0.00000000E+00  0.00000000E+00
 -3.43146023E+00  0.00000000E+00  0.00000000E+00  0.00000000E+00  0.00000000E+00
  0.00000000E+00  0.00000000E+00  0.00000000E+00 -2.12907523E+00  0.00000000E+00
  0.00000000E+00 -3.43904804E+00  0.00000000E+00  0.00000000E+00 -3.43146023E+00
  0.00000000E+00  0.00000000E+00  0.00000000E+00  0.00000000E+00  0.00000000E+00
  0.00000000E+00  0.00000000E+00  0.00000000E+00 -2.12907523E+00  0.00000000E+00
  0.00000000E+00 -3.43904804E+00  0.00000000E+00  0.00000000E+00 -3.43146023E+00
  0.00000000E+00  0.00000000E+00  0.00000000E+00  0.00000000E+00  0.00000000E+00
  0.00000000E+00 -6.53031855E-01  0.00000000E+00  0.00000000E+00 -1.33914078E+00
  0.00000000E+00  0.00000000E+00 -2.02086997E+00  0.00000000E+00  0.00000000E+00
 -2.02555847E+00  0.00000000E+00  0.00000000E+00  0.00000000E+00  0.00000000E+00
  0.00000000E+00  0.00000000E+00  0.00000000E+00 -6.53031855E-01  0.00000000E+00
  0.00000000E+00 -1.33914078E+00  0.00000000E+00  0.00000000E+00 -2.02086997E+00
  0.00000000E+00  0.00000000E+00 -2.02555847E+00  0.00000000E+00  0.00000000E+00
  0.00000000E+00  0.00000000E+00  0.00000000E+00  0.00000000E+00  0.00000000E+00
  0.00000000E+00 -6.53031855E-01  0.00000000E+00  0.00000000E+00 -1.33914078E+00
  0.00000000E+00  0.00000000E+00 -2.02086997E+00  0.00000000E+00  0.00000000E+00
 -2.02555847E+00  0.00000000E+00  0.00000000E+00  0.00000000E+00  0.00000000E+00
  0.00000000E+00  0.00000000E+00 -1.65325995E-01  0.00000000E+00  0.00000000E+00
 -3.76023826E-01  0.00000000E+00  0.00000000E+00 -7.14821992E-01  0.00000000E+00
  0.00000000E+00 -1.11799584E+00  0.00000000E+00  0.00000000E+00 -1.14504635E+00
  0.00000000E+00  0.00000000E+00  0.00000000E+00  0.00000000E+00  0.00000000E+00
  0.00000000E+00  0.00000000E+00 -1.65325995E-01  0.00000000E+00  0.00000000E+00
 -3.76023826E-01  0.00000000E+00  0.00000000E+00 -7.14821992E-01  0.00000000E+00
  0.00000000E+00 -1.11799584E+00  0.00000000E+00  0.00000000E+00 -1.14504635E+00
  0.00000000E+00  0.00000000E+00  0.00000000E+00  0.00000000E+00  0.00000000E+00
  0.00000000E+00  0.00000000E+00  0.00000000E+00 -1.65325995E-01  0.00000000E+00
  0.00000000E+00 -3.76023826E-01  0.00000000E+00  0.00000000E+00 -7.14821992E-01
  0.00000000E+00  0.00000000E+00 -1.11799584E+00  0.00000000E+00  0.00000000E+00
 -1.14504635E+00  0.00000000E+00  0.00000000E+00  0.00000000E+00  0.00000000E+00
  0.00000000E+00  0.00000000E+00  0.00000000E+00  0.00000000E+00  0.00000000E+00
  0.00000000E+00  0.00000000E+00  0.00000000E+00  0.00000000E+00  0.00000000E+00
  0.00000000E+00  0.00000000E+00  0.00000000E+00  0.00000000E+00  0.00000000E+00
  0.00000000E+00  0.00000000E+00 -6.94178277E+00  0.00000000E+00  0.00000000E+00
  0.00000000E+00  0.00000000E+00  0.00000000E+00  0.00000000E+00  0.00000000E+00
  0.00000000E+00  0.00000000E+00  0.00000000E+00  0.00000000E+00  0.00000000E+00
  0.00000000E+00  0.00000000E+00  0.00000000E+00  0.00000000E+00  0.00000000E+00
  0.00000000E+00  0.00000000E+00  0.00000000E+00  0.00000000E+00  0.00000000E+00
 -6.94178277E+00  0.00000000E+00  0.00000000E+00  0.00000000E+00  0.00000000E+00
  0.00000000E+00  0.00000000E+00  0.00000000E+00  0.00000000E+00  0.00000000E+00
  0.00000000E+00  0.00000000E+00  0.00000000E+00  0.00000000E+00  0.00000000E+00
  0.00000000E+00  0.00000000E+00  0.00000000E+00  0.00000000E+00  0.00000000E+00
  0.00000000E+00  0.00000000E+00  0.00000000E+00  0.00000000E+00 -6.94178277E+00
 -2.21415195E-16  1.21406285E-16 -2.52072663E-16  2.05466295E-16  7.59889215E-17
  3.23592917E-17  0.00000000E+00  0.00000000E+00  0.00000000E+00  0.00000000E+00
  0.00000000E+00  0.00000000E+00  0.00000000E+00  0.00000000E+00  0.00000000E+00
  0.00000000E+00  0.00000000E+00  0.00000000E+00  0.00000000E+00  0.00000000E+00
  0.00000000E+00  1.81931481E-16  0.00000000E+00  0.00000000E+00 -6.94178277E+00
  0.00000000E+00  0.00000000E+00  0.00000000E+00  0.00000000E+00  0.00000000E+00
  0.00000000E+00  0.00000000E+00  0.00000000E+00  0.00000000E+00  0.00000000E+00
  0.00000000E+00  0.00000000E+00  0.00000000E+00  0.00000000E+00  0.00000000E+00
  0.00000000E+00  0.00000000E+00  0.00000000E+00  0.00000000E+00  0.00000000E+00
  0.00000000E+00  0.00000000E+00  0.00000000E+00  0.00000000E+00  0.00000000E+00
 -6.94178277E+00  0.00000000E+00  0.00000000E+00  0.00000000E+00  0.00000000E+00
  0.00000000E+00  0.00000000E+00  0.00000000E+00  0.00000000E+00  0.00000000E+00
  0.00000000E+00  0.00000000E+00  0.00000000E+00  0.00000000E+00  0.00000000E+00
  0.00000000E+00  0.00000000E+00  0.00000000E+00  0.00000000E+00  0.00000000E+00
  0.00000000E+00  0.00000000E+00 -3.60670861E+00  0.00000000E+00  0.00000000E+00
 -1.18435502E-16  0.00000000E+00 -4.11379252E+00  0.00000000E+00  0.00000000E+00
  0.00000000E+00  0.00000000E+00  0.00000000E+00  0.00000000E+00  0.00000000E+00
  0.00000000E+00  0.00000000E+00  0.00000000E+00  0.00000000E+00  0.00000000E+00
  0.00000000E+00  0.00000000E+00  0.00000000E+00  0.00000000E+00  0.00000000E+00
  0.00000000E+00  0.00000000E+00  0.00000000E+00  0.00000000E+00  0.00000000E+00
 -3.60670861E+00  0.00000000E+00  0.00000000E+00  0.00000000E+00  0.00000000E+00
 -4.11379252E+00  0.00000000E+00  0.00000000E+00  0.00000000E+00  0.00000000E+00
  0.00000000E+00  0.00000000E+00  0.00000000E+00  0.00000000E+00  0.00000000E+00
  0.00000000E+00  0.00000000E+00  0.00000000E+00  0.00000000E+00  0.00000000E+00
  0.00000000E+00  0.00000000E+00  0.00000000E+00  0.00000000E+00  0.00000000E+00
  0.00000000E+00  0.00000000E+00  0.00000000E+00  0.00000000E+00 -3.60670861E+00
  0.00000000E+00  0.00000000E+00  0.00000000E+00  0.00000000E+00 -4.11379252E+00
  5.00852585E-17  4.94319631E-17  1.37129665E-16 -1.05753884E-16  9.75631930E-17
  3.88198904E-17  0.00000000E+00  0.00000000E+00  0.00000000E+00  0.00000000E+00
  0.00000000E+00  0.00000000E+00  0.00000000E+00  0.00000000E+00  0.00000000E+00
  0.00000000E+00  0.00000000E+00  0.00000000E+00  0.00000000E+00  0.00000000E+00
  0.00000000E+00 -1.03609103E-16  0.00000000E+00  0.00000000E+00 -3.60670861E+00
  0.00000000E+00 -2.14509944E-17  0.00000000E+00  0.00000000E+00 -4.11379252E+00
  0.00000000E+00  0.00000000E+00  0.00000000E+00  0.00000000E+00  0.00000000E+00
  0.00000000E+00  0.00000000E+00  0.00000000E+00  0.00000000E+00  0.00000000E+00
  0.00000000E+00  0.00000000E+00  0.00000000E+00  0.00000000E+00  0.00000000E+00
  0.00000000E+00  0.00000000E+00  0.00000000E+00  0.00000000E+00  0.00000000E+00
  0.00000000E+00  0.00000000E+00  0.00000000E+00  0.00000000E+00  0.00000000E+00
 -3.60670861E+00  0.00000000E+00  0.00000000E+00  0.00000000E+00  0.00000000E+00
 -4.11379252E+00  0.00000000E+00  0.00000000E+00  0.00000000E+00  0.00000000E+00
  0.00000000E+00  0.00000000E+00  0.00000000E+00  0.00000000E+00  0.00000000E+00
  0.00000000E+00  0.00000000E+00  0.00000000E+00  0.00000000E+00  0.00000000E+00
  0.00000000E+00  0.00000000E+00  0.00000000E+00  0.00000000E+00  0.00000000E+00
  0.00000000E+00  0.00000000E+00 -1.00610290E+00  0.00000000E+00  0.00000000E+00
  2.19892989E-17  0.00000000E+00 -2.13808735E+00  0.00000000E+00  0.00000000E+00
  1.08677468E-17  0.00000000E+00 -2.43830180E+00  0.00000000E+00  0.00000000E+00
  0.00000000E+00  0.00000000E+00  0.00000000E+00  0.00000000E+00  0.00000000E+00
  0.00000000E+00  0.00000000E+00  0.00000000E+00  0.00000000E+00  0.00000000E+00
  0.00000000E+00  0.00000000E+00  0.00000000E+00  0.00000000E+00  0.00000000E+00
  0.00000000E+00  0.00000000E+00  0.00000000E+00  0.00000000E+00  0.00000000E+00
 -1.00610290E+00  0.00000000E+00  0.00000000E+00  0.00000000E+00  0.00000000E+00
 -2.13808735E+00  0.00000000E+00  0.00000000E+00  0.00000000E+00  0.00000000E+00
 -2.43830180E+00  0.00000000E+00  0.00000000E+00  0.00000000E+00  0.00000000E+00
  0.00000000E+00  0.00000000E+00  0.00000000E+00  0.00000000E+00  0.00000000E+00
  0.00000000E+00  0.00000000E+00  0.00000000E+00  0.00000000E+00  0.00000000E+00
  0.00000000E+00  0.00000000E+00  0.00000000E+00  0.00000000E+00  0.00000000E+00
  0.00000000E+00  0.00000000E+00  0.00000000E+00  0.00000000E+00 -1.00610290E+00
  0.00000000E+00  0.00000000E+00  0.00000000E+00  0.00000000E+00 -2.13808735E+00
  0.00000000E+00  0.00000000E+00  0.00000000E+00  0.00000000E+00 -2.43830180E+00
  3.48730194E-18  5.97486983E-18 -2.07259912E-17 -4.32803354E-17  2.84025792E-17
 -1.45556489E-17  0.00000000E+00  0.00000000E+00  0.00000000E+00  0.00000000E+00
  0.00000000E+00  0.00000000E+00  0.00000000E+00  0.00000000E+00  0.00000000E+00
  0.00000000E+00  0.00000000E+00  0.00000000E+00  0.00000000E+00  0.00000000E+00
  0.00000000E+00 -2.19892989E-17  0.00000000E+00  0.00000000E+00 -1.00610290E+00
  0.00000000E+00 -1.08677468E-17  0.00000000E+00  0.00000000E+00 -2.13808735E+00
  0.00000000E+00 -9.47438338E-18  0.00000000E+00  0.00000000E+00 -2.43830180E+00
  0.00000000E+00  0.00000000E+00  0.00000000E+00  0.00000000E+00  0.00000000E+00
  0.00000000E+00  0.00000000E+00  0.00000000E+00  0.00000000E+00  0.00000000E+00
  0.00000000E+00  0.00000000E+00  0.00000000E+00  0.00000000E+00  0.00000000E+00
  0.00000000E+00  0.00000000E+00  0.00000000E+00  0.00000000E+00  0.00000000E+00
  0.00000000E+00  0.00000000E+00  0.00000000E+00  0.00000000E+00  0.00000000E+00
 -1.00610290E+00  0.00000000E+00  0.00000000E+00  0.00000000E+00  0.00000000E+00
 -2.13808735E+00  0.00000000E+00  0.00000000E+00  0.00000000E+00  0.00000000E+00
 -2.43830180E+00  0.00000000E+00  0.00000000E+00  0.00000000E+00  0.00000000E+00
  0.00000000E+00  0.00000000E+00  0.00000000E+00  0.00000000E+00  0.00000000E+00
  0.00000000E+00  0.00000000E+00  0.00000000E+00  0.00000000E+00  0.00000000E+00
  0.00000000E+00  0.00000000E+00  0.00000000E+00  0.00000000E+00  0.00000000E+00
  0.00000000E+00  0.00000000E+00 -1.87204967E-01  0.00000000E+00  0.00000000E+00
  1.64315449E-18  0.00000000E+00 -5.59688994E-01  0.00000000E+00  0.00000000E+00
 -2.03049226E-18  0.00000000E+00 -1.21284878E+00  0.00000000E+00  0.00000000E+00
 -7.25737574E-17  0.00000000E+00 -1.41330020E+00  0.00000000E+00  0.00000000E+00
  0.00000000E+00  0.00000000E+00  0.00000000E+00  0.00000000E+00  0.00000000E+00
  0.00000000E+00  0.00000000E+00  0.00000000E+00  0.00000000E+00  0.00000000E+00
  0.00000000E+00  0.00000000E+00  0.00000000E+00  0.00000000E+00  0.00000000E+00
  0.00000000E+00  0.00000000E+00  0.00000000E+00  0.00000000E+00  0.00000000E+00
 -1.87204967E-01  0.00000000E+00  0.00000000E+00  0.00000000E+00  0.00000000E+00
 -5.59688994E-01  0.00000000E+00  0.00000000E+00  0.00000000E+00  0.00000000E+00
 -1.21284878E+00  0.00000000E+00  0.00000000E+00  0.00000000E+00  0.00000000E+00
 -1.41330020E+00  0.00000000E+00  0.00000000E+00  0.00000000E+00  0.00000000E+00
  0.00000000E+00  0.00000000E+00  0.00000000E+00  0.00000000E+00  0.00000000E+00
  0.00000000E+00  0.00000000E+00  0.00000000E+00  0.00000000E+00  0.00000000E+00
  0.00000000E+00  0.00000000E+00  0.00000000E+00  0.00000000E+00  0.00000000E+00
  0.00000000E+00  0.00000000E+00  0.00000000E+00  0.00000000E+00 -1.87204967E-01
  0.00000000E+00  0.00000000E+00  0.00000000E+00  0.00000000E+00 -5.59688994E-01
  0.00000000E+00  0.00000000E+00  0.00000000E+00  0.00000000E+00 -1.21284878E+00
  0.00000000E+00  0.00000000E+00  0.00000000E+00  0.00000000E+00 -1.41330020E+00
 -8.75683162E-19  7.27708806E-20 -7.74256956E-18 -2.51610392E-17  4.99839833E-17
 -4.51093225E-17  0.00000000E+00  0.00000000E+00  0.00000000E+00  0.00000000E+00
  0.00000000E+00  0.00000000E+00  0.00000000E+00  0.00000000E+00  0.00000000E+00
  0.00000000E+00  0.00000000E+00  0.00000000E+00  0.00000000E+00  0.00000000E+00
  0.00000000E+00 -1.64315449E-18  0.00000000E+00  0.00000000E+00 -1.87204967E-01
  0.00000000E+00  2.03049226E-18  0.00000000E+00  0.00000000E+00 -5.59688994E-01
  0.00000000E+00  1.70626062E-17  0.00000000E+00  0.00000000E+00 -1.21284878E+00
  0.00000000E+00  1.74025757E-17  0.00000000E+00  0.00000000E+00 -1.41330020E+00
  0.00000000E+00  0.00000000E+00  0.00000000E+00  0.00000000E+00  0.00000000E+00
  0.00000000E+00  0.00000000E+00  0.00000000E+00  0.00000000E+00  0.00000000E+00
  0.00000000E+00  0.00000000E+00  0.00000000E+00  0.00000000E+00  0.00000000E+00
  0.00000000E+00  0.00000000E+00  0.00000000E+00  0.00000000E+00  0.00000000E+00
  0.00000000E+00  0.00000000E+00  0.00000000E+00  0.00000000E+00  0.00000000E+00
 -1.87204967E-01  0.00000000E+00  0.00000000E+00  0.00000000E+00  0.00000000E+00
 -5.59688994E-01  0.00000000E+00  0.00000000E+00  0.00000000E+00  0.00000000E+00
 -1.21284878E+00  0.00000000E+00  0.00000000E+00  0.00000000E+00  0.00000000E+00
 -1.41330020E+00  0.00000000E+00  0.00000000E+00  0.00000000E+00  0.00000000E+00
  0.00000000E+00  0.00000000E+00  0.00000000E+00  0.00000000E+00  0.00000000E+00
  0.00000000E+00  0.00000000E+00  0.00000000E+00  0.00000000E+00  0.00000000E+00
  0.00000000E+00  0.00000000E+00  0.00000000E+00  0.00000000E+00  0.00000000E+00
  0.00000000E+00  5.55111512E-17  0.00000000E+00  0.00000000E+00  0.00000000E+00
  0.00000000E+00  0.00000000E+00  0.00000000E+00  0.00000000E+00  0.00000000E+00
  0.00000000E+00  0.00000000E+00  0.00000000E+00  0.00000000E+00  0.00000000E+00
  0.00000000E+00  0.00000000E+00  0.00000000E+00  0.00000000E+00  0.00000000E+00
  0.00000000E+00  0.00000000E+00 -5.21392096E+00  0.00000000E+00  0.00000000E+00
  0.00000000E+00  0.00000000E+00  0.00000000E+00  0.00000000E+00 -2.89337022E-16
  0.00000000E+00  0.00000000E+00 -2.35737453E-16  0.00000000E+00  0.00000000E+00
 -2.14230464E-16  0.00000000E+00  0.00000000E+00 -2.46870700E-17  0.00000000E+00
  0.00000000E+00 -3.73915082E-17  0.00000000E+00  0.00000000E+00  0.00000000E+00
  0.00000000E+00  0.00000000E+00  0.00000000E+00  0.00000000E+00  0.00000000E+00
  0.00000000E+00  0.00000000E+00  0.00000000E+00  0.00000000E+00  0.00000000E+00
  0.00000000E+00  0.00000000E+00  0.00000000E+00  0.00000000E+00  0.00000000E+00
  0.00000000E+00  0.00000000E+00  0.00000000E+00  0.00000000E+00  0.00000000E+00
 -5.21392096E+00  0.00000000E+00  0.00000000E+00  0.00000000E+00  0.00000000E+00
  0.00000000E+00  0.00000000E+00  0.00000000E+00  1.54752188E-16  0.00000000E+00
  0.00000000E+00 -2.35737453E-16  0.00000000E+00  0.00000000E+00 -2.14230464E-16
  0.00000000E+00  0.00000000E+00 -2.46870700E-17  0.00000000E+00  0.00000000E+00
 -3.73915082E-17  0.00000000E+00  0.00000000E+00  0.00000000E+00  0.00000000E+00
  0.00000000E+00  0.00000000E+00  0.00000000E+00  0.00000000E+00  0.00000000E+00
  0.00000000E+00  0.00000000E+00  0.00000000E+00  0.00000000E+00  0.00000000E+00
  0.00000000E+00  0.00000000E+00  0.00000000E+00  0.00000000E+00  0.00000000E+00
  0.00000000E+00  0.00000000E+00  0.00000000E+00  0.00000000E+00 -5.21392096E+00
  0.00000000E+00  0.00000000E+00  0.00000000E+00  0.00000000E+00  0.00000000E+00
  0.00000000E+00  0.00000000E+00  0.00000000E+00 -6.99191579E-18  0.00000000E+00
  0.00000000E+00 -1.35964461E-17  0.00000000E+00  0.00000000E+00  9.47763964E-17
  0.00000000E+00  0.00000000E+00  1.16456844E-19  0.00000000E+00  0.00000000E+00
  9.51463831E-18  0.00000000E+00  0.00000000E+00  0.00000000E+00  0.00000000E+00
  0.00000000E+00  0.00000000E+00  0.00000000E+00  0.00000000E+00  0.00000000E+00
  0.00000000E+00  0.00000000E+00  0.00000000E+00  0.00000000E+00  0.00000000E+00
  0.00000000E+00  0.00000000E+00  0.00000000E+00  0.00000000E+00  0.00000000E+00
  0.00000000E+00 -1.36322479E-16  0.00000000E+00  0.00000000E+00 -5.21392096E+00
  0.00000000E+00  0.00000000E+00  0.00000000E+00  0.00000000E+00  0.00000000E+00
  0.00000000E+00  0.00000000E+00  0.00000000E+00  0.00000000E+00  0.00000000E+00
  0.00000000E+00  0.00000000E+00  0.00000000E+00  0.00000000E+00  0.00000000E+00
  0.00000000E+00  0.00000000E+00  0.00000000E+00  0.00000000E+00  0.00000000E+00
  0.00000000E+00  0.00000000E+00  0.00000000E+00  0.00000000E+00  0.00000000E+00
  0.00000000E+00  0.00000000E+00  0.00000000E+00  0.00000000E+00  0.00000000E+00
  0.00000000E+00  0.00000000E+00  0.00000000E+00  0.00000000E+00  0.00000000E+00
  0.00000000E+00  0.00000000E+00  0.00000000E+00  0.00000000E+00  0.00000000E+00
  0.00000000E+00  0.00000000E+00  0.00000000E+00  0.00000000E+00  0.00000000E+00
 -5.21392096E+00  0.00000000E+00  0.00000000E+00  0.00000000E+00  0.00000000E+00
  0.00000000E+00  0.00000000E+00 -6.14457218E-16  0.00000000E+00  0.00000000E+00
 -2.59174534E-16  0.00000000E+00  0.00000000E+00 -5.35520010E-16  0.00000000E+00
  0.00000000E+00 -6.72390230E-17  0.00000000E+00  0.00000000E+00 -1.64009561E-17
  0.00000000E+00  0.00000000E+00  0.00000000E+00  0.00000000E+00  0.00000000E+00
  0.00000000E+00  0.00000000E+00  0.00000000E+00  0.00000000E+00  0.00000000E+00
  0.00000000E+00  0.00000000E+00  0.00000000E+00  0.00000000E+00  0.00000000E+00
  0.00000000E+00  0.00000000E+00  0.00000000E+00  0.00000000E+00  0.00000000E+00
  0.00000000E+00  0.00000000E+00  0.00000000E+00  1.15350733E-15  0.00000000E+00
  0.00000000E+00  0.00000000E+00 -5.21392096E+00  0.00000000E+00  0.00000000E+00
  0.00000000E+00  0.00000000E+00  0.00000000E+00  0.00000000E+00  0.00000000E+00
  3.34463104E-16  0.00000000E+00  0.00000000E+00  6.35437967E-16  0.00000000E+00
  0.00000000E+00  3.38253538E-16  0.00000000E+00  0.00000000E+00  1.55561201E-16
  0.00000000E+00  0.00000000E+00  1.41913383E-17  0.00000000E+00  0.00000000E+00
  0.00000000E+00  0.00000000E+00  0.00000000E+00  0.00000000E+00  0.00000000E+00
  0.00000000E+00  0.00000000E+00  0.00000000E+00  0.00000000E+00  0.00000000E+00
  0.00000000E+00  0.00000000E+00  0.00000000E+00  0.00000000E+00  0.00000000E+00
  0.00000000E+00  0.00000000E+00  0.00000000E+00  0.00000000E+00  0.00000000E+00
  0.00000000E+00 -1.09176228E-15  0.00000000E+00  0.00000000E+00  0.00000000E+00
 -5.21392096E+00  0.00000000E+00  0.00000000E+00  0.00000000E+00  0.00000000E+00
  0.00000000E+00  0.00000000E+00  0.00000000E+00  0.00000000E+00  1.11022302E-16
  0.00000000E+00  0.00000000E+00  0.00000000E+00  0.00000000E+00  0.00000000E+00
  8.88178420E-16  0.00000000E+00  0.00000000E+00  2.22044605E-16  0.00000000E+00
  0.00000000E+00  0.00000000E+00  0.00000000E+00  0.00000000E+00  0.00000000E+00
  0.00000000E+00  0.00000000E+00  0.00000000E+00  0.00000000E+00  0.00000000E+00
  0.00000000E+00  0.00000000E+00  0.00000000E+00  0.00000000E+00  0.00000000E+00
  0.00000000E+00  0.00000000E+00  0.00000000E+00  0.00000000E+00  0.00000000E+00
  0.00000000E+00  0.00000000E+00 -2.29881887E+00  0.00000000E+00  0.00000000E+00
 -6.42376144E-17  0.00000000E+00  0.00000000E+00  0.00000000E+00 -3.04820461E+00
  0.00000000E+00  0.00000000E+00  0.00000000E+00  0.00000000E+00  0.00000000E+00
  0.00000000E+00 -3.54745984E-17  0.00000000E+00  0.00000000E+00 -2.17799982E-16
  0.00000000E+00  0.00000000E+00 -2.39640497E-16  0.00000000E+00  0.00000000E+00
 -1.17165950E-16  0.00000000E+00  0.00000000E+00 -3.23171053E-17  0.00000000E+00
  0.00000000E+00  0.00000000E+00  0.00000000E+00  0.00000000E+00  0.00000000E+00
  0.00000000E+00  0.00000000E+00  0.00000000E+00  0.00000000E+00  0.00000000E+00
  0.00000000E+00  0.00000000E+00  0.00000000E+00  0.00000000E+00  0.00000000E+00
  0.00000000E+00  0.00000000E+00  0.00000000E+00  0.00000000E+00  0.00000000E+00
  0.00000000E+00  0.00000000E+00 -2.29881887E+00  0.00000000E+00  0.00000000E+00
  0.00000000E+00 -1.43515165E-16  0.00000000E+00  0.00000000E+00 -3.04820461E+00
  0.00000000E+00  0.00000000E+00  0.00000000E+00  0.00000000E+00  0.00000000E+00
  0.00000000E+00  0.00000000E+00 -3.54745984E-17  0.00000000E+00  0.00000000E+00
  4.24462326E-18  0.00000000E+00  0.00000000E+00 -2.39640497E-16  0.00000000E+00
  0.00000000E+00 -1.17165950E-16  0.00000000E+00  0.00000000E+00 -3.23171053E-17
  0.00000000E+00  0.00000000E+00  0.00000000E+00  0.00000000E+00  0.00000000E+00
  0.00000000E+00  0.00000000E+00  0.00000000E+00  0.00000000E+00  0.00000000E+00
  0.00000000E+00  0.00000000E+00  0.00000000E+00  0.00000000E+00  0.00000000E+00
  0.00000000E+00  0.00000000E+00  0.00000000E+00  0.00000000E+00  0.00000000E+00
  0.00000000E+00  0.00000000E+00  0.00000000E+00 -2.29881887E+00  0.00000000E+00
  0.00000000E+00  0.00000000E+00  2.78153690E-16  0.00000000E+00  0.00000000E+00
 -3.04820461E+00  0.00000000E+00  0.00000000E+00  0.00000000E+00  0.00000000E+00
  0.00000000E+00  0.00000000E+00  0.00000000E+00  0.00000000E+00  2.37905911E-17
  0.00000000E+00  0.00000000E+00 -1.72457963E-17  0.00000000E+00  0.00000000E+00
 -2.25279075E-18  0.00000000E+00  0.00000000E+00 -1.07998476E-16  0.00000000E+00
  0.00000000E+00  2.08094557E-17  0.00000000E+00  0.00000000E+00  0.00000000E+00
  0.00000000E+00  0.00000000E+00  0.00000000E+00  0.00000000E+00  0.00000000E+00
  0.00000000E+00  0.00000000E+00  0.00000000E+00  0.00000000E+00  0.00000000E+00
  0.00000000E+00  0.00000000E+00  0.00000000E+00  0.00000000E+00  0.00000000E+00
  0.00000000E+00  0.00000000E+00  3.79406178E-17  0.00000000E+00  0.00000000E+00
 -2.29881887E+00  0.00000000E+00  0.00000000E+00  0.00000000E+00  7.21515224E-17
  0.00000000E+00  0.00000000E+00 -3.04820461E+00  0.00000000E+00  0.00000000E+00
  0.00000000E+00  0.00000000E+00  0.00000000E+00  0.00000000E+00  0.00000000E+00
  0.00000000E+00  0.00000000E+00  0.00000000E+00  0.00000000E+00  0.00000000E+00
  0.00000000E+00  0.00000000E+00  0.00000000E+00  0.00000000E+00  0.00000000E+00
  0.00000000E+00  0.00000000E+00  0.00000000E+00  0.00000000E+00  0.00000000E+00
  0.00000000E+00  0.00000000E+00  0.00000000E+00  0.00000000E+00  0.00000000E+00
  0.00000000E+00  0.00000000E+00  0.00000000E+00  0.00000000E+00  0.00000000E+00
  0.00000000E+00  0.00000000E+00  0.00000000E+00  0.00000000E+00  0.00000000E+00
  0.00000000E+00  0.00000000E+00  0.00000000E+00  0.00000000E+00  0.00000000E+00
  0.00000000E+00  0.00000000E+00  0.00000000E+00 -2.29881887E+00  0.00000000E+00
  0.00000000E+00  0.00000000E+00  0.00000000E+00  0.00000000E+00  0.00000000E+00
 -3.04820461E+00  0.00000000E+00  0.00000000E+00  0.00000000E+00  0.00000000E+00
  0.00000000E+00  0.00000000E+00 -2.25568502E-17  0.00000000E+00  0.00000000E+00
 -2.64088978E-16  0.00000000E+00  0.00000000E+00  2.55725481E-16  0.00000000E+00
  0.00000000E+00 -7.41108688E-17  0.00000000E+00  0.00000000E+00 -1.51716137E-17
  0.00000000E+00  0.00000000E+00  0.00000000E+00  0.00000000E+00  0.00000000E+00
  0.00000000E+00  0.00000000E+00  0.00000000E+00  0.00000000E+00  0.00000000E+00
  0.00000000E+00  0.00000000E+00  0.00000000E+00  0.00000000E+00  0.00000000E+00
  0.00000000E+00  0.00000000E+00  0.00000000E+00  0.00000000E+00  0.00000000E+00
  0.00000000E+00  0.00000000E+00  0.00000000E+00 -5.64779964E-17  0.00000000E+00
  0.00000000E+00  0.00000000E+00 -2.29881887E+00  0.00000000E+00  0.00000000E+00
 -8.54665747E-17  0.00000000E+00  0.00000000E+00  0.00000000E+00 -3.04820461E+00
  0.00000000E+00  0.00000000E+00  0.00000000E+00  0.00000000E+00  0.00000000E+00
  0.00000000E+00  0.00000000E+00 -3.47895163E-17  0.00000000E+00  0.00000000E+00
  2.49456375E-16  0.00000000E+00  0.00000000E+00 -3.59377623E-16  0.00000000E+00
  0.00000000E+00  6.40702052E-18  0.00000000E+00  0.00000000E+00  2.16890962E-17
  0.00000000E+00  0.00000000E+00  0.00000000E+00  0.00000000E+00  0.00000000E+00
  0.00000000E+00  0.00000000E+00  0.00000000E+00  0.00000000E+00  0.00000000E+00
  0.00000000E+00  0.00000000E+00  0.00000000E+00  0.00000000E+00  0.00000000E+00
  0.00000000E+00  0.00000000E+00  0.00000000E+00  0.00000000E+00  0.00000000E+00
  0.00000000E+00  0.00000000E+00  0.00000000E+00  4.19151654E-17  0.00000000E+00
  0.00000000E+00  0.00000000E+00 -2.29881887E+00  0.00000000E+00  0.00000000E+00
 -1.61587328E-16  0.00000000E+00  0.00000000E+00  0.00000000E+00 -3.04820461E+00
  0.00000000E+00  0.00000000E+00  0.00000000E+00  0.00000000E+00  0.00000000E+00
  0.00000000E+00  0.00000000E+00  0.00000000E+00  0.00000000E+00  0.00000000E+00
  0.00000000E+00  0.00000000E+00  0.00000000E+00  0.00000000E+00 -2.22044605E-16
  0.00000000E+00  0.00000000E+00  0.00000000E+00  0.00000000E+00  0.00000000E+00
  1.11022302E-16  0.00000000E+00  0.00000000E+00  0.00000000E+00  0.00000000E+00
  0.00000000E+00  0.00000000E+00  0.00000000E+00  0.00000000E+00  0.00000000E+00
  0.00000000E+00  0.00000000E+00  0.00000000E+00  0.00000000E+00  0.00000000E+00
  0.00000000E+00  0.00000000E+00  0.00000000E+00  0.00000000E+00  0.00000000E+00
  0.00000000E+00 -5.32004210E-01  0.00000000E+00  0.00000000E+00  8.19300284E-18
  0.00000000E+00  0.00000000E+00  0.00000000E+00 -1.55016763E+00  0.00000000E+00
  0.00000000E+00 -1.70669307E-17  0.00000000E+00  0.00000000E+00  0.00000000E+00
 -1.89275346E+00  0.00000000E+00  0.00000000E+00  0.00000000E+00  0.00000000E+00
  0.00000000E+00  0.00000000E+00 -1.06589291E-18  0.00000000E+00  0.00000000E+00
 -1.67494147E-17  0.00000000E+00  0.00000000E+00  2.33113682E-17  0.00000000E+00
  0.00000000E+00  2.23554806E-17  0.00000000E+00  0.00000000E+00 -1.35398619E-16
  0.00000000E+00  0.00000000E+00  0.00000000E+00  0.00000000E+00  0.00000000E+00
  0.00000000E+00  0.00000000E+00  0.00000000E+00  0.00000000E+00  0.00000000E+00
  0.00000000E+00  0.00000000E+00  0.00000000E+00  0.00000000E+00  0.00000000E+00
  0.00000000E+00  0.00000000E+00  0.00000000E+00  0.00000000E+00  0.00000000E+00
  0.00000000E+00  0.00000000E+00  0.00000000E+00 -5.32004210E-01  0.00000000E+00
  0.00000000E+00  0.00000000E+00  3.90530110E-17  0.00000000E+00  0.00000000E+00
 -1.55016763E+00  0.00000000E+00  0.00000000E+00  0.00000000E+00 -7.18773163E-17
  0.00000000E+00  0.00000000E+00 -1.89275346E+00  0.00000000E+00  0.00000000E+00
  0.00000000E+00  0.00000000E+00  0.00000000E+00  0.00000000E+00  0.00000000E+00
 -1.06589291E-18  0.00000000E+00  0.00000000E+00 -1.67494147E-17  0.00000000E+00
  0.00000000E+00  2.33113682E-17  0.00000000E+00  0.00000000E+00  2.23554806E-17
  0.00000000E+00  0.00000000E+00 -2.43763168E-17  0.00000000E+00  0.00000000E+00
  0.00000000E+00  0.00000000E+00  0.00000000E+00  0.00000000E+00  0.00000000E+00
  0.00000000E+00  0.00000000E+00  0.00000000E+00  0.00000000E+00  0.00000000E+00
  0.00000000E+00  0.00000000E+00  0.00000000E+00  0.00000000E+00  0.00000000E+00
  0.00000000E+00  0.00000000E+00  0.00000000E+00  0.00000000E+00  0.00000000E+00
  0.00000000E+00 -5.32004210E-01  0.00000000E+00  0.00000000E+00  0.00000000E+00
 -5.25779816E-17  0.00000000E+00  0.00000000E+00 -1.55016763E+00  0.00000000E+00
  0.00000000E+00  0.00000000E+00  1.30512057E-16  0.00000000E+00  0.00000000E+00
 -1.89275346E+00  0.00000000E+00  0.00000000E+00  0.00000000E+00  0.00000000E+00
  0.00000000E+00  0.00000000E+00  0.00000000E+00  0.00000000E+00  3.08725042E-18
  0.00000000E+00  0.00000000E+00 -1.01432875E-17  0.00000000E+00  0.00000000E+00
 -4.49816223E-17  0.00000000E+00  0.00000000E+00  9.47993309E-17  0.00000000E+00
  0.00000000E+00  5.18959748E-17  0.00000000E+00  0.00000000E+00  0.00000000E+00
  0.00000000E+00  0.00000000E+00  0.00000000E+00  0.00000000E+00  0.00000000E+00
  0.00000000E+00  0.00000000E+00  0.00000000E+00  0.00000000E+00  0.00000000E+00
  0.00000000E+00  0.00000000E+00  0.00000000E+00  0.00000000E+00  0.00000000E+00
  0.00000000E+00  0.00000000E+00  5.38746498E-17  0.00000000E+00  0.00000000E+00
 -5.32004210E-01  0.00000000E+00  0.00000000E+00  0.00000000E+00 -3.01128134E-17
  0.00000000E+00  0.00000000E+00 -1.55016763E+00  0.00000000E+00  0.00000000E+00
  0.00000000E+00  5.45558051E-17  0.00000000E+00  0.00000000E+00 -1.89275346E+00
  0.00000000E+00  0.00000000E+00  0.00000000E+00  0.00000000E+00  0.00000000E+00
  0.00000000E+00  0.00000000E+00  0.00000000E+00  0.00000000E+00  0.00000000E+00
  0.00000000E+00  0.00000000E+00  0.00000000E+00  0.00000000E+00  0.00000000E+00
  0.00000000E+00  0.00000000E+00  0.00000000E+00  0.00000000E+00  0.00000000E+00
  0.00000000E+00  0.00000000E+00  0.00000000E+00  0.00000000E+00  0.00000000E+00
  0.00000000E+00  0.00000000E+00  0.00000000E+00  0.00000000E+00  0.00000000E+00
  0.00000000E+00  0.00000000E+00  0.00000000E+00  0.00000000E+00  0.00000000E+00
  0.00000000E+00  0.00000000E+00  0.00000000E+00  0.00000000E+00  0.00000000E+00
  0.00000000E+00  0.00000000E+00  0.00000000E+00  0.00000000E+00  0.00000000E+00
 -5.32004210E-01  0.00000000E+00  0.00000000E+00  0.00000000E+00  0.00000000E+00
  0.00000000E+00  0.00000000E+00 -1.55016763E+00  0.00000000E+00  0.00000000E+00
  0.00000000E+00  0.00000000E+00  0.00000000E+00  0.00000000E+00 -1.89275346E+00
  0.00000000E+00  0.00000000E+00  0.00000000E+00  0.00000000E+00  0.00000000E+00
  0.00000000E+00 -1.20962940E-17  0.00000000E+00  0.00000000E+00 -6.55547980E-17
  0.00000000E+00  0.00000000E+00 -3.76561887E-16  0.00000000E+00  0.00000000E+00
 -3.53952418E-16  0.00000000E+00  0.00000000E+00 -3.52055229E-18  0.00000000E+00
  0.00000000E+00  0.00000000E+00  0.00000000E+00  0.00000000E+00  0.00000000E+00
  0.00000000E+00  0.00000000E+00  0.00000000E+00  0.00000000E+00  0.00000000E+00
  0.00000000E+00  0.00000000E+00  0.00000000E+00  0.00000000E+00  0.00000000E+00
  0.00000000E+00  0.00000000E+00  0.00000000E+00  0.00000000E+00  0.00000000E+00
  0.00000000E+00  0.00000000E+00  5.41287019E-17  0.00000000E+00  0.00000000E+00
  0.00000000E+00 -5.32004210E-01  0.00000000E+00  0.00000000E+00 -7.07440816E-17
  0.00000000E+00  0.00000000E+00  0.00000000E+00 -1.55016763E+00  0.00000000E+00
  0.00000000E+00 -1.69538056E-16  0.00000000E+00  0.00000000E+00  0.00000000E+00
 -1.89275346E+00  0.00000000E+00  0.00000000E+00  0.00000000E+00  0.00000000E+00
  0.00000000E+00  0.00000000E+00  0.00000000E+00  1.40135482E-17  0.00000000E+00
  0.00000000E+00  5.67640125E-17  0.00000000E+00  0.00000000E+00  3.71582986E-16
  0.00000000E+00  0.00000000E+00  3.68045201E-16  0.00000000E+00  0.00000000E+00
  4.97645789E-17  0.00000000E+00  0.00000000E+00  0.00000000E+00  0.00000000E+00
  0.00000000E+00  0.00000000E+00  0.00000000E+00  0.00000000E+00  0.00000000E+00
  0.00000000E+00  0.00000000E+00  0.00000000E+00  0.00000000E+00  0.00000000E+00
  0.00000000E+00  0.00000000E+00  0.00000000E+00  0.00000000E+00  0.00000000E+00
  0.00000000E+00  0.00000000E+00  0.00000000E+00  0.00000000E+00 -5.39688363E-17
  0.00000000E+00  0.00000000E+00  0.00000000E+00 -5.32004210E-01  0.00000000E+00
  0.00000000E+00  3.22433259E-17  0.00000000E+00  0.00000000E+00  0.00000000E+00
 -1.55016763E+00  0.00000000E+00  0.00000000E+00  2.10104929E-16  0.00000000E+00
  0.00000000E+00  0.00000000E+00 -1.89275346E+00  1.11022302E-16 -1.11022302E-16
  0.00000000E+00 -4.44089210E-16 -2.22044605E-16  2.22044605E-16  0.00000000E+00
  0.00000000E+00  0.00000000E+00  0.00000000E+00  0.00000000E+00  0.00000000E+00
  0.00000000E+00  0.00000000E+00  0.00000000E+00  0.00000000E+00  0.00000000E+00
  0.00000000E+00  0.00000000E+00  0.00000000E+00  0.00000000E+00  0.00000000E+00
  0.00000000E+00  0.00000000E+00 -7.91678633E-17  0.00000000E+00 -4.44089210E-16
  0.00000000E+00  0.00000000E+00  7.27379547E-17  0.00000000E+00  2.22044605E-16
  0.00000000E+00  0.00000000E+00  5.32095802E-17  0.00000000E+00  5.55111512E-17
  0.00000000E+00  0.00000000E+00 -4.35052437E-17  0.00000000E+00  0.00000000E+00
  0.00000000E+00  0.00000000E+00  0.00000000E+00  0.00000000E+00  0.00000000E+00
  0.00000000E+00  0.00000000E+00  0.00000000E+00  0.00000000E+00  0.00000000E+00
  0.00000000E+00  0.00000000E+00  0.00000000E+00  0.00000000E+00  0.00000000E+00
  0.00000000E+00  0.00000000E+00  0.00000000E+00  0.00000000E+00  0.00000000E+00
 -3.91197708E+00  0.00000000E+00  0.00000000E+00  0.00000000E+00  0.00000000E+00
  0.00000000E+00  0.00000000E+00  0.00000000E+00  0.00000000E+00  0.00000000E+00
  0.00000000E+00  0.00000000E+00  0.00000000E+00  0.00000000E+00  0.00000000E+00
  0.00000000E+00  0.00000000E+00  0.00000000E+00  0.00000000E+00  0.00000000E+00
  0.00000000E+00  0.00000000E+00  0.00000000E+00  4.24654479E-16  0.00000000E+00
  0.00000000E+00  0.00000000E+00  0.00000000E+00  6.26980467E-16  0.00000000E+00
  0.00000000E+00  0.00000000E+00  0.00000000E+00  1.28727922E-16  0.00000000E+00
  0.00000000E+00  0.00000000E+00  0.00000000E+00  7.72454995E-17  0.00000000E+00
  0.00000000E+00  0.00000000E+00  0.00000000E+00  0.00000000E+00  0.00000000E+00
  0.00000000E+00  0.00000000E+00  0.00000000E+00  0.00000000E+00  0.00000000E+00
  0.00000000E+00  0.00000000E+00  0.00000000E+00  0.00000000E+00  0.00000000E+00
  0.00000000E+00  0.00000000E+00  0.00000000E+00  0.00000000E+00  0.00000000E+00
  0.00000000E+00  0.00000000E+00  0.00000000E+00  0.00000000E+00 -3.91197708E+00
  0.00000000E+00  0.00000000E+00  0.00000000E+00  0.00000000E+00  0.00000000E+00
  0.00000000E+00  0.00000000E+00  0.00000000E+00  0.00000000E+00  0.00000000E+00
  0.00000000E+00  0.00000000E+00  0.00000000E+00  0.00000000E+00  0.00000000E+00
  0.00000000E+00  0.00000000E+00  0.00000000E+00  0.00000000E+00  0.00000000E+00
  0.00000000E+00  0.00000000E+00  0.00000000E+00  4.24654479E-16  0.00000000E+00
  0.00000000E+00  0.00000000E+00  0.00000000E+00  6.26980467E-16  0.00000000E+00
  0.00000000E+00  0.00000000E+00  0.00000000E+00  1.28727922E-16  0.00000000E+00
  0.00000000E+00  0.00000000E+00  0.00000000E+00 -3.37768029E-17  0.00000000E+00
  0.00000000E+00  0.00000000E+00  0.00000000E+00  0.00000000E+00  0.00000000E+00
  0.00000000E+00  0.00000000E+00  0.00000000E+00  0.00000000E+00  0.00000000E+00
  0.00000000E+00  0.00000000E+00  0.00000000E+00  0.00000000E+00  0.00000000E+00
  0.00000000E+00  0.00000000E+00  0.00000000E+00  0.00000000E+00  0.00000000E+00
  0.00000000E+00  0.00000000E+00  0.00000000E+00  0.00000000E+00 -3.91197708E+00
 -1.40832629E-17  3.35310461E-17 -2.76186263E-17 -5.41519279E-17  4.38678461E-17
  3.93623225E-18  0.00000000E+00  0.00000000E+00  0.00000000E+00  0.00000000E+00
  0.00000000E+00  0.00000000E+00  0.00000000E+00  0.00000000E+00  0.00000000E+00
  0.00000000E+00  0.00000000E+00  0.00000000E+00  0.00000000E+00  0.00000000E+00
  0.00000000E+00  9.03275404E-18  0.00000000E+00  0.00000000E+00  3.62114923E-16
  0.00000000E+00  4.11995958E-17  0.00000000E+00  0.00000000E+00  8.63539838E-16
  0.00000000E+00  2.22294121E-17  0.00000000E+00  0.00000000E+00 -6.20662598E-17
  0.00000000E+00 -1.00340141E-17  0.00000000E+00  0.00000000E+00 -7.65121232E-17
  0.00000000E+00  0.00000000E+00  0.00000000E+00  0.00000000E+00  0.00000000E+00
  0.00000000E+00  0.00000000E+00  0.00000000E+00  0.00000000E+00  0.00000000E+00
  0.00000000E+00  0.00000000E+00  0.00000000E+00  0.00000000E+00  0.00000000E+00
  0.00000000E+00  0.00000000E+00  0.00000000E+00  0.00000000E+00  0.00000000E+00
  0.00000000E+00  0.00000000E+00  4.51013590E-16  0.00000000E+00  0.00000000E+00
 -3.91197708E+00  0.00000000E+00  0.00000000E+00  0.00000000E+00  0.00000000E+00
  0.00000000E+00  0.00000000E+00  0.00000000E+00  0.00000000E+00  0.00000000E+00
  0.00000000E+00  0.00000000E+00  0.00000000E+00  0.00000000E+00  0.00000000E+00
  0.00000000E+00  0.00000000E+00  0.00000000E+00  0.00000000E+00  0.00000000E+00
  0.00000000E+00  0.00000000E+00  0.00000000E+00  0.00000000E+00  0.00000000E+00
  0.00000000E+00  3.24983820E-17  0.00000000E+00  0.00000000E+00  0.00000000E+00
  0.00000000E+00 -7.98262594E-16  0.00000000E+00  0.00000000E+00  0.00000000E+00
  0.00000000E+00  3.03213539E-17  0.00000000E+00  0.00000000E+00  0.00000000E+00
  0.00000000E+00  7.45802420E-17  0.00000000E+00  0.00000000E+00  0.00000000E+00
  0.00000000E+00  0.00000000E+00  0.00000000E+00  0.00000000E+00  0.00000000E+00
  0.00000000E+00  0.00000000E+00  0.00000000E+00  0.00000000E+00  0.00000000E+00
  0.00000000E+00  0.00000000E+00  0.00000000E+00  0.00000000E+00  0.00000000E+00
  0.00000000E+00  0.00000000E+00  0.00000000E+00  0.00000000E+00  0.00000000E+00
  0.00000000E+00  0.00000000E+00 -3.91197708E+00  0.00000000E+00  0.00000000E+00
  0.00000000E+00  0.00000000E+00  0.00000000E+00  0.00000000E+00  0.00000000E+00
  0.00000000E+00  0.00000000E+00  0.00000000E+00  0.00000000E+00  0.00000000E+00
  0.00000000E+00  0.00000000E+00  0.00000000E+00  0.00000000E+00  0.00000000E+00
  0.00000000E+00  0.00000000E+00  0.00000000E+00  0.00000000E+00  0.00000000E+00
  2.51326926E-16  0.00000000E+00  0.00000000E+00  0.00000000E+00  0.00000000E+00
  7.12847348E-16  0.00000000E+00  0.00000000E+00  0.00000000E+00  0.00000000E+00
  8.17284014E-17  0.00000000E+00  0.00000000E+00  0.00000000E+00  0.00000000E+00
 -2.96887839E-17  0.00000000E+00  0.00000000E+00  0.00000000E+00  0.00000000E+00
  0.00000000E+00  0.00000000E+00  0.00000000E+00  0.00000000E+00  0.00000000E+00
  0.00000000E+00  0.00000000E+00  0.00000000E+00  0.00000000E+00  0.00000000E+00
  0.00000000E+00  0.00000000E+00  0.00000000E+00  0.00000000E+00  0.00000000E+00
  0.00000000E+00  0.00000000E+00  0.00000000E+00  0.00000000E+00  0.00000000E+00
  0.00000000E+00  5.79469021E-17  0.00000000E+00  0.00000000E+00  0.00000000E+00
 -3.91197708E+00  0.00000000E+00  0.00000000E+00  0.00000000E+00  0.00000000E+00
  0.00000000E+00  0.00000000E+00  0.00000000E+00  0.00000000E+00  0.00000000E+00
  0.00000000E+00  0.00000000E+00  0.00000000E+00  0.00000000E+00  0.00000000E+00
  0.00000000E+00  0.00000000E+00  0.00000000E+00  0.00000000E+00  0.00000000E+00
  0.00000000E+00  0.00000000E+00  0.00000000E+00  0.00000000E+00 -2.09648840E-16
  0.00000000E+00  0.00000000E+00  0.00000000E+00  0.00000000E+00 -1.02012865E-15
  0.00000000E+00  0.00000000E+00  0.00000000E+00  0.00000000E+00  1.17469255E-17
  0.00000000E+00  0.00000000E+00  0.00000000E+00  0.00000000E+00  6.26408366E-17
  0.00000000E+00  0.00000000E+00  0.00000000E+00  0.00000000E+00  0.00000000E+00
  0.00000000E+00  0.00000000E+00  0.00000000E+00  0.00000000E+00  0.00000000E+00
  0.00000000E+00  0.00000000E+00  0.00000000E+00  0.00000000E+00  0.00000000E+00
  0.00000000E+00  0.00000000E+00  0.00000000E+00  0.00000000E+00  0.00000000E+00
  0.00000000E+00  0.00000000E+00  0.00000000E+00  0.00000000E+00  0.00000000E+00
 -1.94383930E-16  0.00000000E+00  0.00000000E+00  0.00000000E+00 -3.91197708E+00
  3.60393622E-17 -2.38039975E-17 -2.47300356E-16 -6.34002699E-16 -2.43573658E-16
  2.62759641E-17  0.00000000E+00  0.00000000E+00  0.00000000E+00  0.00000000E+00
  0.00000000E+00  0.00000000E+00  0.00000000E+00  0.00000000E+00  0.00000000E+00
  0.00000000E+00  0.00000000E+00  0.00000000E+00  0.00000000E+00  0.00000000E+00
  0.00000000E+00 -2.27519667E-16  0.00000000E+00  0.00000000E+00 -2.09835691E-16
  0.00000000E+00  6.79113613E-16  0.00000000E+00  0.00000000E+00 -5.20066993E-17
  0.00000000E+00  1.73486893E-16  0.00000000E+00  0.00000000E+00  1.10858855E-16
  0.00000000E+00 -4.67828157E-18  0.00000000E+00  0.00000000E+00 -3.08635416E-17
  0.00000000E+00  0.00000000E+00  0.00000000E+00  0.00000000E+00  0.00000000E+00
  0.00000000E+00  0.00000000E+00  0.00000000E+00  0.00000000E+00  0.00000000E+00
  0.00000000E+00  0.00000000E+00  0.00000000E+00  0.00000000E+00  0.00000000E+00
  0.00000000E+00  0.00000000E+00  0.00000000E+00  0.00000000E+00  0.00000000E+00
  0.00000000E+00  0.00000000E+00  4.03603363E-16  0.00000000E+00  0.00000000E+00
 -1.01372836E-16  0.00000000E+00  0.00000000E+00  0.00000000E+00 -3.91197708E+00
  0.00000000E+00  0.00000000E+00  0.00000000E+00  0.00000000E+00  0.00000000E+00
  0.00000000E+00  0.00000000E+00  0.00000000E+00  0.00000000E+00  0.00000000E+00
  0.00000000E+00  0.00000000E+00  0.00000000E+00  0.00000000E+00  0.00000000E+00
  0.00000000E+00  0.00000000E+00  0.00000000E+00  0.00000000E+00  0.00000000E+00
  0.00000000E+00  0.00000000E+00  0.00000000E+00  0.00000000E+00  0.00000000E+00
  7.16483784E-17  0.00000000E+00  0.00000000E+00  0.00000000E+00  0.00000000E+00
  1.14283419E-16  0.00000000E+00  0.00000000E+00  0.00000000E+00  0.00000000E+00
 -1.03637776E-16  0.00000000E+00  0.00000000E+00  0.00000000E+00  0.00000000E+00
 -4.67390988E-18  0.00000000E+00  0.00000000E+00  0.00000000E+00  0.00000000E+00
  0.00000000E+00  0.00000000E+00  0.00000000E+00  0.00000000E+00  0.00000000E+00
  0.00000000E+00  0.00000000E+00  0.00000000E+00  0.00000000E+00  0.00000000E+00
  0.00000000E+00  0.00000000E+00  0.00000000E+00  0.00000000E+00  0.00000000E+00
  0.00000000E+00  0.00000000E+00  0.00000000E+00  0.00000000E+00  0.00000000E+00
  0.00000000E+00  2.21328997E-16  0.00000000E+00  0.00000000E+00  0.00000000E+00
 -3.91197708E+00 -6.93889390E-18 -2.08166817E-17 -1.11022302E-16  2.22044605E-16
  4.44089210E-16  2.22044605E-16  0.00000000E+00  0.00000000E+00  0.00000000E+00
  0.00000000E+00  0.00000000E+00  0.00000000E+00  0.00000000E+00  0.00000000E+00
  0.00000000E+00  0.00000000E+00  0.00000000E+00  0.00000000E+00  0.00000000E+00
  0.00000000E+00  0.00000000E+00  0.00000000E+00  0.00000000E+00  0.00000000E+00
  1.16447495E-17  0.00000000E+00  0.00000000E+00  0.00000000E+00  0.00000000E+00
 -1.00599124E-16  0.00000000E+00 -2.22044605E-16  0.00000000E+00  0.00000000E+00
 -1.40537199E-17  0.00000000E+00  0.00000000E+00  0.00000000E+00  0.00000000E+00
  3.78981601E-18  0.00000000E+00  0.00000000E+00  0.00000000E+00  0.00000000E+00
  0.00000000E+00  0.00000000E+00  0.00000000E+00  0.00000000E+00  0.00000000E+00
  0.00000000E+00  0.00000000E+00  0.00000000E+00  0.00000000E+00  0.00000000E+00
  0.00000000E+00  0.00000000E+00  0.00000000E+00  0.00000000E+00  0.00000000E+00
  0.00000000E+00  0.00000000E+00  0.00000000E+00 -1.99174153E+00  0.00000000E+00
  0.00000000E+00 -1.91734496E-16  0.00000000E+00  0.00000000E+00  0.00000000E+00
 -1.41967830E-16  0.00000000E+00 -2.53339933E+00  0.00000000E+00  0.00000000E+00
  0.00000000E+00  0.00000000E+00  0.00000000E+00  0.00000000E+00  0.00000000E+00
  0.00000000E+00  0.00000000E+00  0.00000000E+00  0.00000000E+00  0.00000000E+00
  0.00000000E+00  0.00000000E+00  0.00000000E+00  0.00000000E+00  0.00000000E+00
  0.00000000E+00  0.00000000E+00  0.00000000E+00  0.00000000E+00  0.00000000E+00
  4.47968268E-17  0.00000000E+00  0.00000000E+00  0.00000000E+00  0.00000000E+00
  1.51797386E-16  0.00000000E+00  0.00000000E+00  0.00000000E+00  0.00000000E+00
  2.15928527E-17  0.00000000E+00  0.00000000E+00  0.00000000E+00  0.00000000E+00
  1.67015161E-16  0.00000000E+00  0.00000000E+00  0.00000000E+00  0.00000000E+00
  0.00000000E+00  0.00000000E+00  0.00000000E+00  0.00000000E+00  0.00000000E+00
  0.00000000E+00  0.00000000E+00  0.00000000E+00  0.00000000E+00  0.00000000E+00
  0.00000000E+00  0.00000000E+00  0.00000000E+00  0.00000000E+00  0.00000000E+00
  0.00000000E+00  0.00000000E+00  0.00000000E+00  0.00000000E+00  0.00000000E+00
  0.00000000E+00 -1.99174153E+00  0.00000000E+00  0.00000000E+00  0.00000000E+00
 -3.49974624E-16  0.00000000E+00  0.00000000E+00  0.00000000E+00  0.00000000E+00
 -2.53339933E+00  0.00000000E+00  0.00000000E+00  0.00000000E+00  0.00000000E+00
  0.00000000E+00  0.00000000E+00  0.00000000E+00  0.00000000E+00  0.00000000E+00
  0.00000000E+00  0.00000000E+00  0.00000000E+00  0.00000000E+00  0.00000000E+00
  0.00000000E+00  0.00000000E+00  0.00000000E+00  0.00000000E+00  0.00000000E+00
  0.00000000E+00  0.00000000E+00  0.00000000E+00  0.00000000E+00  4.47968268E-17
  0.00000000E+00  0.00000000E+00  0.00000000E+00  0.00000000E+00  1.51797386E-16
  0.00000000E+00  0.00000000E+00  0.00000000E+00  0.00000000E+00  2.15928527E-17
  0.00000000E+00  0.00000000E+00  0.00000000E+00  0.00000000E+00  1.67015161E-16
  0.00000000E+00  0.00000000E+00  0.00000000E+00  0.00000000E+00  0.00000000E+00
  0.00000000E+00  0.00000000E+00  0.00000000E+00  0.00000000E+00  0.00000000E+00
  0.00000000E+00  0.00000000E+00  0.00000000E+00  0.00000000E+00  0.00000000E+00
  0.00000000E+00  0.00000000E+00  0.00000000E+00  0.00000000E+00  0.00000000E+00
  0.00000000E+00  0.00000000E+00  0.00000000E+00  0.00000000E+00  0.00000000E+00
 -1.99174153E+00  0.00000000E+00  0.00000000E+00  0.00000000E+00  3.55529184E-16
  0.00000000E+00  0.00000000E+00  0.00000000E+00  0.00000000E+00 -2.53339933E+00
 -4.12672820E-19  9.34132725E-19  1.84711149E-17 -1.92790563E-17 -5.79826014E-17
  1.32261125E-17  0.00000000E+00  0.00000000E+00  0.00000000E+00  0.00000000E+00
  0.00000000E+00  0.00000000E+00  0.00000000E+00  0.00000000E+00  0.00000000E+00
  0.00000000E+00  0.00000000E+00  0.00000000E+00  0.00000000E+00  0.00000000E+00
  0.00000000E+00 -6.84087357E-18  0.00000000E+00  0.00000000E+00  7.91567286E-17
  0.00000000E+00  8.17273271E-18  0.00000000E+00  0.00000000E+00  5.24146121E-16
  0.00000000E+00  1.65224855E-17  0.00000000E+00  0.00000000E+00  4.92650630E-16
  0.00000000E+00 -1.66167682E-17  0.00000000E+00  0.00000000E+00  1.98478111E-16
  0.00000000E+00  0.00000000E+00  0.00000000E+00  0.00000000E+00  0.00000000E+00
  0.00000000E+00  0.00000000E+00  0.00000000E+00  0.00000000E+00  0.00000000E+00
  0.00000000E+00  0.00000000E+00  0.00000000E+00  0.00000000E+00  0.00000000E+00
  0.00000000E+00  0.00000000E+00  0.00000000E+00  0.00000000E+00  0.00000000E+00
  0.00000000E+00  0.00000000E+00 -1.83409637E-16  0.00000000E+00  0.00000000E+00
 -1.99174153E+00  0.00000000E+00  0.00000000E+00  0.00000000E+00 -2.65281506E-17
  0.00000000E+00 -1.39250738E-16  0.00000000E+00  0.00000000E+00 -2.53339933E+00
  0.00000000E+00  0.00000000E+00  0.00000000E+00  0.00000000E+00  0.00000000E+00
  0.00000000E+00  0.00000000E+00  0.00000000E+00  0.00000000E+00  0.00000000E+00
  0.00000000E+00  0.00000000E+00  0.00000000E+00  0.00000000E+00  0.00000000E+00
  0.00000000E+00  0.00000000E+00  0.00000000E+00  0.00000000E+00  0.00000000E+00
  0.00000000E+00  0.00000000E+00  0.00000000E+00  0.00000000E+00  0.00000000E+00
 -7.37419550E-17  0.00000000E+00  0.00000000E+00  0.00000000E+00  0.00000000E+00
 -2.59694276E-16  0.00000000E+00  0.00000000E+00  0.00000000E+00  0.00000000E+00
 -3.08557742E-16  0.00000000E+00  0.00000000E+00  0.00000000E+00  0.00000000E+00
 -3.30887293E-17  0.00000000E+00  0.00000000E+00  0.00000000E+00  0.00000000E+00
  0.00000000E+00  0.00000000E+00  0.00000000E+00  0.00000000E+00  0.00000000E+00
  0.00000000E+00  0.00000000E+00  0.00000000E+00  0.00000000E+00  0.00000000E+00
  0.00000000E+00  0.00000000E+00  0.00000000E+00  0.00000000E+00  0.00000000E+00
  0.00000000E+00  0.00000000E+00  0.00000000E+00  0.00000000E+00  0.00000000E+00
  0.00000000E+00 -1.99174153E+00  0.00000000E+00  0.00000000E+00  0.00000000E+00
 -1.39376235E-16  0.00000000E+00  0.00000000E+00  0.00000000E+00  0.00000000E+00
 -2.53339933E+00  0.00000000E+00  0.00000000E+00  0.00000000E+00  0.00000000E+00
  0.00000000E+00  0.00000000E+00  0.00000000E+00  0.00000000E+00  0.00000000E+00
  0.00000000E+00  0.00000000E+00  0.00000000E+00  0.00000000E+00  0.00000000E+00
  0.00000000E+00  0.00000000E+00  0.00000000E+00  0.00000000E+00  0.00000000E+00
  0.00000000E+00  0.00000000E+00  0.00000000E+00  8.17648602E-17  0.00000000E+00
  0.00000000E+00  0.00000000E+00  0.00000000E+00  2.91195651E-16  0.00000000E+00
  0.00000000E+00  0.00000000E+00  0.00000000E+00  2.91097580E-16  0.00000000E+00
  0.00000000E+00  0.00000000E+00  0.00000000E+00  7.42526818E-17  0.00000000E+00
  0.00000000E+00  0.00000000E+00  0.00000000E+00  0.00000000E+00  0.00000000E+00
  0.00000000E+00  0.00000000E+00  0.00000000E+00  0.00000000E+00  0.00000000E+00
  0.00000000E+00  0.00000000E+00  0.00000000E+00  0.00000000E+00  0.00000000E+00
  0.00000000E+00  0.00000000E+00  0.00000000E+00  0.00000000E+00  0.00000000E+00
  0.00000000E+00  0.00000000E+00  0.00000000E+00  0.00000000E+00 -3.01346770E-16
  0.00000000E+00  0.00000000E+00  0.00000000E+00 -1.99174153E+00  0.00000000E+00
  0.00000000E+00  0.00000000E+00  0.00000000E+00 -1.30542441E-16  0.00000000E+00
  0.00000000E+00  0.00000000E+00 -2.53339933E+00  0.00000000E+00  0.00000000E+00
  0.00000000E+00  0.00000000E+00  0.00000000E+00  0.00000000E+00  0.00000000E+00
  0.00000000E+00  0.00000000E+00  0.00000000E+00  0.00000000E+00  0.00000000E+00
  0.00000000E+00  0.00000000E+00  0.00000000E+00  0.00000000E+00  0.00000000E+00
  0.00000000E+00  0.00000000E+00  0.00000000E+00  0.00000000E+00  0.00000000E+00
  0.00000000E+00 -3.55753969E-17  0.00000000E+00  0.00000000E+00  0.00000000E+00
  0.00000000E+00 -1.54059522E-16  0.00000000E+00  0.00000000E+00  0.00000000E+00
  0.00000000E+00 -2.12502427E-16  0.00000000E+00  0.00000000E+00  0.00000000E+00
  0.00000000E+00 -1.23346638E-16  0.00000000E+00  0.00000000E+00  0.00000000E+00
  0.00000000E+00  0.00000000E+00  0.00000000E+00  0.00000000E+00  0.00000000E+00
  0.00000000E+00  0.00000000E+00  0.00000000E+00  0.00000000E+00  0.00000000E+00
  0.00000000E+00  0.00000000E+00  0.00000000E+00  0.00000000E+00  0.00000000E+00
  0.00000000E+00  0.00000000E+00  0.00000000E+00  0.00000000E+00  0.00000000E+00
  0.00000000E+00  0.00000000E+00  3.50623327E-16  0.00000000E+00  0.00000000E+00
  0.00000000E+00 -1.99174153E+00  0.00000000E+00  0.00000000E+00  0.00000000E+00
  0.00000000E+00 -1.83592185E-16  0.00000000E+00  0.00000000E+00  0.00000000E+00
 -2.53339933E+00 -9.09774949E-18 -7.40397720E-18 -1.71748740E-16 -4.95304438E-17
  1.26919959E-16  4.03760544E-17  0.00000000E+00  0.00000000E+00  0.00000000E+00
  0.00000000E+00  0.00000000E+00  0.00000000E+00  0.00000000E+00  0.00000000E+00
  0.00000000E+00  0.00000000E+00  0.00000000E+00  0.00000000E+00  0.00000000E+00
  0.00000000E+00  0.00000000E+00  1.19214083E-16  0.00000000E+00  0.00000000E+00
  5.33092789E-17  0.00000000E+00  4.01353187E-16  0.00000000E+00  0.00000000E+00
 -2.52313026E-17  0.00000000E+00  2.79340880E-16  0.00000000E+00  0.00000000E+00
  1.24518090E-16  0.00000000E+00  1.32234867E-16  0.00000000E+00  0.00000000E+00
  3.84375744E-17  0.00000000E+00  0.00000000E+00  0.00000000E+00  0.00000000E+00
  0.00000000E+00  0.00000000E+00  0.00000000E+00  0.00000000E+00  0.00000000E+00
  0.00000000E+00  0.00000000E+00  0.00000000E+00  0.00000000E+00  0.00000000E+00
  0.00000000E+00  0.00000000E+00  0.00000000E+00  0.00000000E+00  0.00000000E+00
  0.00000000E+00  0.00000000E+00  0.00000000E+00  1.01647666E-16  0.00000000E+00
  0.00000000E+00 -6.08245922E-17  0.00000000E+00  0.00000000E+00  0.00000000E+00
 -1.99174153E+00  0.00000000E+00  1.45861313E-16  0.00000000E+00  0.00000000E+00
  9.75461001E-17  0.00000000E+00  0.00000000E+00  0.00000000E+00 -2.53339933E+00
  0.00000000E+00  0.00000000E+00  0.00000000E+00  0.00000000E+00  0.00000000E+00
  0.00000000E+00  0.00000000E+00  0.00000000E+00  0.00000000E+00  0.00000000E+00
  0.00000000E+00  0.00000000E+00  0.00000000E+00  0.00000000E+00  0.00000000E+00
  0.00000000E+00  0.00000000E+00  0.00000000E+00  0.00000000E+00  0.00000000E+00
  0.00000000E+00  0.00000000E+00  0.00000000E+00  0.00000000E+00  0.00000000E+00
  3.66828772E-17  0.00000000E+00  0.00000000E+00  0.00000000E+00  0.00000000E+00
 -9.46992225E-17  0.00000000E+00  0.00000000E+00  0.00000000E+00  0.00000000E+00
  8.36991640E-17  0.00000000E+00  0.00000000E+00  0.00000000E+00  0.00000000E+00
  9.94343431E-17  0.00000000E+00  0.00000000E+00  0.00000000E+00  0.00000000E+00
  0.00000000E+00  0.00000000E+00  0.00000000E+00  0.00000000E+00  0.00000000E+00
  0.00000000E+00  0.00000000E+00  0.00000000E+00  0.00000000E+00  0.00000000E+00
  0.00000000E+00  0.00000000E+00  0.00000000E+00  0.00000000E+00  0.00000000E+00
  0.00000000E+00  0.00000000E+00  0.00000000E+00  0.00000000E+00  0.00000000E+00
  0.00000000E+00  1.10015333E-17  0.00000000E+00  0.00000000E+00  0.00000000E+00
 -1.99174153E+00  0.00000000E+00  0.00000000E+00  0.00000000E+00  0.00000000E+00
  1.72646382E-16  0.00000000E+00  0.00000000E+00  0.00000000E+00 -2.53339933E+00
Core Hamiltonian Matrix                    R   N=        3240
 -1.79489018E+01  1.76370979E+01 -1.72537722E+01 -8.09367302E+00  8.27517752E+00
 -7.10806374E+00 -4.58576252E+00  4.78291314E+00 -5.33109254E+00 -4.72478082E+00
 -2.36544970E+00  2.49206292E+00 -3.29627946E+00 -3.42677665E+00 -3.02472866E+00
 -1.15689382E+00  1.22406198E+00 -1.76273187E+00 -2.03841858E+00 -2.14305666E+00
 -1.88714696E+00  0.00000000E+00  0.00000000E+00  0.00000000E+00  0.00000000E+00
  0.00000000E+00  0.00000000E+00 -3.99166991E+00  0.00000000E+00  0.00000000E+00
  0.00000000E+00  0.00000000E+00  0.00000000E+00  0.00000000E+00  0.00000000E+00
 -3.99166991E+00  0.00000000E+00  0.00000000E+00  0.00000000E+00  0.00000000E+00
  0.00000000E+00  0.00000000E+00  0.00000000E+00  0.00000000E+00 -3.99166991E+00
  0.00000000E+00  0.00000000E+00  0.00000000E+00  0.00000000E+00  0.00000000E+00
  0.00000000E+00 -3.56342836E+00  0.00000000E+00  0.00000000E+00 -3.72310534E+00
  0.00000000E+00  0.00000000E+00  0.00000000E+00  0.00000000E+00  0.00000000E+00
  0.00000000E+00  0.00000000E+00 -3.56342836E+00  0.00000000E+00  0.00000000E+00
 -3.72310534E+00  0.00000000E+00  0.00000000E+00  0.00000000E+00  0.00000000E+00
  0.00000000E+00  0.00000000E+00  0.00000000E+00  0.00000000E+00 -3.56342836E+00
  0.00000000E+00  0.00000000E+00 -3.72310534E+00  0.00000000E+00  0.00000000E+00
  0.00000000E+00  0.00000000E+00  0.00000000E+00  0.00000000E+00 -1.77309778E+00
  0.00000000E+00  0.00000000E+00 -2.66530314E+00  0.00000000E+00  0.00000000E+00
 -2.70896023E+00  0.00000000E+00  0.00000000E+00  0.00000000E+00  0.00000000E+00
  0.00000000E+00  0.00000000E+00  0.00000000E+00 -1.77309778E+00  0.00000000E+00
  0.00000000E+00 -2.66530314E+00  0.00000000E+00  0.00000000E+00 -2.70896023E+00
  0.00000000E+00  0.00000000E+00  0.00000000E+00  0.00000000E+00  0.00000000E+00
  0.00000000E+00  0.00000000E+00  0.00000000E+00 -1.77309778E+00  0.00000000E+00
  0.00000000E+00 -2.66530314E+00  0.00000000E+00  0.00000000E+00 -2.70896023E+00
  0.00000000E+00  0.00000000E+00  0.00000000E+00  0.00000000E+00  0.00000000E+00
  0.00000000E+00 -6.10576485E-01  0.00000000E+00  0.00000000E+00 -1.20009430E+00
  0.00000000E+00  0.00000000E+00 -1.75306105E+00  0.00000000E+00  0.00000000E+00
 -1.77380847E+00  0.00000000E+00  0.00000000E+00  0.00000000E+00  0.00000000E+00
  0.00000000E+00  0.00000000E+00  0.00000000E+00 -6.10576485E-01  0.00000000E+00
  0.00000000E+00 -1.20009430E+00  0.00000000E+00  0.00000000E+00 -1.75306105E+00
  0.00000000E+00  0.00000000E+00 -1.77380847E+00  0.00000000E+00  0.00000000E+00
  0.00000000E+00  0.00000000E+00  0.00000000E+00  0.00000000E+00  0.00000000E+00
  0.00000000E+00 -6.10576485E-01  0.00000000E+00  0.00000000E+00 -1.20009430E+00
  0.00000000E+00  0.00000000E+00 -1.75306105E+00  0.00000000E+00  0.00000000E+00
 -1.77380847E+00  0.00000000E+00  0.00000000E+00  0.00000000E+00  0.00000000E+00
  0.00000000E+00  0.00000000E+00 -1.61743093E-01  0.00000000E+00  0.00000000E+00
 -3.61999701E-01  0.00000000E+00  0.00000000E+00 -6.74363099E-01  0.00000000E+00
  0.00000000E+00 -1.03514037E+00  0.00000000E+00  0.00000000E+00 -1.06459635E+00
  0.00000000E+00  0.00000000E+00  0.00000000E+00  0.00000000E+00  0.00000000E+00
  0.00000000E+00  0.00000000E+00 -1.61743093E-01  0.00000000E+00  0.00000000E+00
 -3.61999701E-01  0.00000000E+00  0.00000000E+00 -6.74363099E-01  0.00000000E+00
  0.00000000E+00 -1.03514037E+00  0.00000000E+00  0.00000000E+00 -1.06459635E+00
  0.00000000E+00  0.00000000E+00  0.00000000E+00  0.00000000E+00  0.00000000E+00
  0.00000000E+00  0.00000000E+00  0.00000000E+00 -1.61743093E-01  0.00000000E+00
  0.00000000E+00 -3.61999701E-01  0.00000000E+00  0.00000000E+00 -6.74363099E-01
  0.00000000E+00  0.00000000E+00 -1.03514037E+00  0.00000000E+00  0.00000000E+00
 -1.06459635E+00  0.00000000E+00 -1.11022302E-16  0.00000000E+00  0.00000000E+00
  0.00000000E+00  0.00000000E+00  0.00000000E+00  0.00000000E+00  0.00000000E+00
  0.00000000E+00  0.00000000E+00  0.00000000E+00  0.00000000E+00  0.00000000E+00
  0.00000000E+00  0.00000000E+00  0.00000000E+00  0.00000000E+00  0.00000000E+00
  0.00000000E+00  0.00000000E+00 -4.73782767E-01  0.00000000E+00  0.00000000E+00
  0.00000000E+00  0.00000000E+00  0.00000000E+00  0.00000000E+00  0.00000000E+00
  0.00000000E+00  0.00000000E+00  0.00000000E+00  0.00000000E+00  0.00000000E+00
  0.00000000E+00  0.00000000E+00  0.00000000E+00  0.00000000E+00  0.00000000E+00
  0.00000000E+00  0.00000000E+00  0.00000000E+00  0.00000000E+00  0.00000000E+00
 -4.73782767E-01  0.00000000E+00  0.00000000E+00  0.00000000E+00  0.00000000E+00
  0.00000000E+00  0.00000000E+00  0.00000000E+00  0.00000000E+00  0.00000000E+00
  0.00000000E+00  0.00000000E+00  0.00000000E+00  0.00000000E+00  0.00000000E+00
  0.00000000E+00  0.00000000E+00  0.00000000E+00  0.00000000E+00  0.00000000E+00
  0.00000000E+00  0.00000000E+00  0.00000000E+00  0.00000000E+00 -4.73782767E-01
 -2.35492071E-16 -5.09906824E-17 -2.08015806E-16  2.29529570E-16  7.11387294E-17
  3.27332878E-17  0.00000000E+00  0.00000000E+00  0.00000000E+00  0.00000000E+00
  0.00000000E+00  0.00000000E+00  0.00000000E+00  0.00000000E+00  0.00000000E+00
  0.00000000E+00  0.00000000E+00  0.00000000E+00  0.00000000E+00  0.00000000E+00
  0.00000000E+00  1.05424532E-15  0.00000000E+00  0.00000000E+00 -4.73782767E-01
  0.00000000E+00  0.00000000E+00  0.00000000E+00  0.00000000E+00  0.00000000E+00
  0.00000000E+00  0.00000000E+00  0.00000000E+00  0.00000000E+00  0.00000000E+00
  0.00000000E+00  0.00000000E+00  0.00000000E+00  0.00000000E+00  0.00000000E+00
  0.00000000E+00  0.00000000E+00  0.00000000E+00  0.00000000E+00  0.00000000E+00
  0.00000000E+00  0.00000000E+00  0.00000000E+00  0.00000000E+00  0.00000000E+00
 -4.73782767E-01  0.00000000E+00  0.00000000E+00  0.00000000E+00  0.00000000E+00
 -4.44089210E-16  0.00000000E+00  0.00000000E+00  0.00000000E+00  0.00000000E+00
  0.00000000E+00  0.00000000E+00  0.00000000E+00  0.00000000E+00  0.00000000E+00
  0.00000000E+00  0.00000000E+00  0.00000000E+00  0.00000000E+00  0.00000000E+00
  0.00000000E+00  0.00000000E+00 -1.48139556E+00  0.00000000E+00  0.00000000E+00
 -1.05834536E-16  0.00000000E+00 -1.84229252E+00  0.00000000E+00  0.00000000E+00
  0.00000000E+00  0.00000000E+00  0.00000000E+00  0.00000000E+00  0.00000000E+00
  0.00000000E+00  0.00000000E+00  0.00000000E+00  0.00000000E+00  0.00000000E+00
  0.00000000E+00  0.00000000E+00  0.00000000E+00  0.00000000E+00  0.00000000E+00
  0.00000000E+00  0.00000000E+00  0.00000000E+00  0.00000000E+00  0.00000000E+00
 -1.48139556E+00  0.00000000E+00  0.00000000E+00  0.00000000E+00  0.00000000E+00
 -1.84229252E+00  0.00000000E+00  0.00000000E+00  0.00000000E+00  0.00000000E+00
  0.00000000E+00  0.00000000E+00  0.00000000E+00  0.00000000E+00  0.00000000E+00
  0.00000000E+00  0.00000000E+00  0.00000000E+00  0.00000000E+00  0.00000000E+00
  0.00000000E+00  0.00000000E+00  0.00000000E+00  0.00000000E+00  0.00000000E+00
  0.00000000E+00  0.00000000E+00  0.00000000E+00  0.00000000E+00 -1.48139556E+00
  0.00000000E+00  0.00000000E+00  0.00000000E+00  0.00000000E+00 -1.84229252E+00
  5.70211239E-17  4.68084336E-17  1.42227727E-16 -1.22580508E-16  9.82180403E-17
  4.22433865E-17  0.00000000E+00  0.00000000E+00  0.00000000E+00  0.00000000E+00
  0.00000000E+00  0.00000000E+00  0.00000000E+00  0.00000000E+00  0.00000000E+00
  0.00000000E+00  0.00000000E+00  0.00000000E+00  0.00000000E+00  0.00000000E+00
  0.00000000E+00 -1.23203472E-16  0.00000000E+00  0.00000000E+00 -1.48139556E+00
  0.00000000E+00 -2.35995103E-17  0.00000000E+00  0.00000000E+00 -1.84229252E+00
  0.00000000E+00  0.00000000E+00  0.00000000E+00  0.00000000E+00  0.00000000E+00
  0.00000000E+00  0.00000000E+00  0.00000000E+00  0.00000000E+00  0.00000000E+00
  0.00000000E+00  0.00000000E+00  0.00000000E+00  0.00000000E+00  0.00000000E+00
  0.00000000E+00  0.00000000E+00  0.00000000E+00  0.00000000E+00  0.00000000E+00
  0.00000000E+00  0.00000000E+00  0.00000000E+00  0.00000000E+00  0.00000000E+00
 -1.48139556E+00  0.00000000E+00  0.00000000E+00  0.00000000E+00  0.00000000E+00
 -1.84229252E+00  0.00000000E+00  0.00000000E+00  0.00000000E+00 -1.11022302E-16
  0.00000000E+00  0.00000000E+00  0.00000000E+00  0.00000000E+00  0.00000000E+00
  0.00000000E+00  0.00000000E+00  0.00000000E+00  0.00000000E+00  0.00000000E+00
  0.00000000E+00  0.00000000E+00  0.00000000E+00  0.00000000E+00  0.00000000E+00
  0.00000000E+00  0.00000000E+00 -7.31357014E-01  0.00000000E+00  0.00000000E+00
  2.39021940E-17  0.00000000E+00 -1.39129717E+00  0.00000000E+00  0.00000000E+00
  8.30831196E-18  0.00000000E+00 -1.64030180E+00  0.00000000E+00  0.00000000E+00
  0.00000000E+00  0.00000000E+00  0.00000000E+00  0.00000000E+00  0.00000000E+00
  0.00000000E+00  0.00000000E+00  0.00000000E+00  0.00000000E+00  0.00000000E+00
  0.00000000E+00  0.00000000E+00  0.00000000E+00  0.00000000E+00  0.00000000E+00
  0.00000000E+00  0.00000000E+00  0.00000000E+00  0.00000000E+00  0.00000000E+00
 -7.31357014E-01  0.00000000E+00  0.00000000E+00  0.00000000E+00  0.00000000E+00
 -1.39129717E+00  0.00000000E+00  0.00000000E+00  0.00000000E+00  0.00000000E+00
 -1.64030180E+00  0.00000000E+00  0.00000000E+00  0.00000000E+00  0.00000000E+00
  0.00000000E+00  0.00000000E+00  0.00000000E+00  0.00000000E+00  0.00000000E+00
  0.00000000E+00  0.00000000E+00  0.00000000E+00  0.00000000E+00  0.00000000E+00
  0.00000000E+00  0.00000000E+00  0.00000000E+00  0.00000000E+00  0.00000000E+00
  0.00000000E+00  0.00000000E+00  0.00000000E+00  0.00000000E+00 -7.31357014E-01
  0.00000000E+00  0.00000000E+00  0.00000000E+00  0.00000000E+00 -1.39129717E+00
  0.00000000E+00  0.00000000E+00  0.00000000E+00  0.00000000E+00 -1.64030180E+00
 -2.50921244E-18  1.24390613E-17 -2.08507122E-17 -4.27120895E-17  2.40125876E-17
 -1.76584025E-17  0.00000000E+00  0.00000000E+00  0.00000000E+00  0.00000000E+00
  0.00000000E+00  0.00000000E+00  0.00000000E+00  0.00000000E+00  0.00000000E+00
  0.00000000E+00  0.00000000E+00  0.00000000E+00  0.00000000E+00  0.00000000E+00
  0.00000000E+00 -1.51913135E-17  0.00000000E+00  0.00000000E+00 -7.31357014E-01
  0.00000000E+00 -4.60456882E-18  0.00000000E+00  0.00000000E+00 -1.39129717E+00
  0.00000000E+00 -5.60511717E-18  0.00000000E+00  0.00000000E+00 -1.64030180E+00
  0.00000000E+00  0.00000000E+00  0.00000000E+00  0.00000000E+00  0.00000000E+00
  0.00000000E+00  0.00000000E+00  0.00000000E+00  0.00000000E+00  0.00000000E+00
  0.00000000E+00  0.00000000E+00  0.00000000E+00  0.00000000E+00  0.00000000E+00
  0.00000000E+00  0.00000000E+00  0.00000000E+00  0.00000000E+00  0.00000000E+00
  0.00000000E+00  0.00000000E+00  0.00000000E+00  0.00000000E+00  0.00000000E+00
 -7.31357014E-01  0.00000000E+00  0.00000000E+00  0.00000000E+00  0.00000000E+00
 -1.39129717E+00  0.00000000E+00  0.00000000E+00  0.00000000E+00  0.00000000E+00
 -1.64030180E+00  0.00000000E+00  0.00000000E+00  0.00000000E+00  0.00000000E+00
  0.00000000E+00  0.00000000E+00  0.00000000E+00  0.00000000E+00  0.00000000E+00
  0.00000000E+00  0.00000000E+00  0.00000000E+00  0.00000000E+00  0.00000000E+00
  0.00000000E+00  0.00000000E+00  0.00000000E+00  0.00000000E+00  0.00000000E+00
  0.00000000E+00  0.00000000E+00 -1.67963845E-01  0.00000000E+00  0.00000000E+00
  8.03433184E-19  0.00000000E+00 -4.72418522E-01  0.00000000E+00  0.00000000E+00
  3.34942454E-20  0.00000000E+00 -9.68579737E-01  0.00000000E+00  0.00000000E+00
 -7.14036695E-17  0.00000000E+00 -1.14520020E+00  0.00000000E+00  0.00000000E+00
  0.00000000E+00  0.00000000E+00  0.00000000E+00  0.00000000E+00  0.00000000E+00
  0.00000000E+00  0.00000000E+00  0.00000000E+00  0.00000000E+00  0.00000000E+00
  0.00000000E+00  0.00000000E+00  0.00000000E+00  0.00000000E+00  0.00000000E+00
  0.00000000E+00  0.00000000E+00  0.00000000E+00  0.00000000E+00  0.00000000E+00
 -1.67963845E-01  0.00000000E+00  0.00000000E+00  0.00000000E+00  0.00000000E+00
 -4.72418522E-01  0.00000000E+00  0.00000000E+00  0.00000000E+00  0.00000000E+00
 -9.68579737E-01  0.00000000E+00  0.00000000E+00  0.00000000E+00  0.00000000E+00
 -1.14520020E+00  0.00000000E+00  0.00000000E+00  0.00000000E+00  0.00000000E+00
  0.00000000E+00  0.00000000E+00  0.00000000E+00  0.00000000E+00  0.00000000E+00
  0.00000000E+00  0.00000000E+00  0.00000000E+00  0.00000000E+00  0.00000000E+00
  0.00000000E+00  0.00000000E+00  0.00000000E+00  0.00000000E+00  0.00000000E+00
  0.00000000E+00  0.00000000E+00  0.00000000E+00  0.00000000E+00 -1.67963845E-01
  0.00000000E+00  0.00000000E+00  0.00000000E+00  0.00000000E+00 -4.72418522E-01
  0.00000000E+00  0.00000000E+00  0.00000000E+00  0.00000000E+00 -9.68579737E-01
  0.00000000E+00  0.00000000E+00  0.00000000E+00  0.00000000E+00 -1.14520020E+00
 -3.10042677E-18 -1.47798448E-18 -6.80863627E-18 -2.80683173E-17  4.99872275E-17
 -4.34813970E-17  0.00000000E+00  0.00000000E+00  0.00000000E+00  0.00000000E+00
  0.00000000E+00  0.00000000E+00  0.00000000E+00  0.00000000E+00  0.00000000E+00
  0.00000000E+00  0.00000000E+00  0.00000000E+00  0.00000000E+00  0.00000000E+00
  0.00000000E+00 -1.59989783E-18  0.00000000E+00  0.00000000E+00 -1.67963845E-01
  0.00000000E+00  2.89435903E-18  0.00000000E+00  0.00000000E+00 -4.72418522E-01
  0.00000000E+00  2.17102241E-17  0.00000000E+00  0.00000000E+00 -9.68579737E-01
  0.00000000E+00  1.10989582E-17  0.00000000E+00  0.00000000E+00 -1.14520020E+00
  0.00000000E+00  0.00000000E+00  0.00000000E+00  0.00000000E+00  0.00000000E+00
  0.00000000E+00  0.00000000E+00  0.00000000E+00  0.00000000E+00  0.00000000E+00
  0.00000000E+00  0.00000000E+00  0.00000000E+00  0.00000000E+00  0.00000000E+00
  0.00000000E+00  0.00000000E+00  0.00000000E+00  0.00000000E+00  0.00000000E+00
  0.00000000E+00  0.00000000E+00  0.00000000E+00  0.00000000E+00  0.00000000E+00
 -1.67963845E-01  0.00000000E+00  0.00000000E+00  0.00000000E+00  0.00000000E+00
 -4.72418522E-01  0.00000000E+00  0.00000000E+00  0.00000000E+00  0.00000000E+00
 -9.68579737E-01  0.00000000E+00  0.00000000E+00  0.00000000E+00  0.00000000E+00
 -1.14520020E+00  0.00000000E+00  0.00000000E+00  0.00000000E+00  0.00000000E+00
  0.00000000E+00  0.00000000E+00  0.00000000E+00  0.00000000E+00 -2.22044605E-16
  0.00000000E+00  0.00000000E+00  6.66133815E-16  0.00000000E+00  0.00000000E+00
 -4.44089210E-16  0.00000000E+00  0.00000000E+00  2.22044605E-16  0.00000000E+00
  0.00000000E+00  2.77555756E-17  0.00000000E+00  0.00000000E+00  0.00000000E+00
  0.00000000E+00  0.00000000E+00  0.00000000E+00  0.00000000E+00  0.00000000E+00
  0.00000000E+00  0.00000000E+00  0.00000000E+00  0.00000000E+00  0.00000000E+00
  0.00000000E+00  0.00000000E+00  0.00000000E+00  0.00000000E+00  0.00000000E+00
  0.00000000E+00  0.00000000E+00  1.17157904E+00  0.00000000E+00  0.00000000E+00
  0.00000000E+00  0.00000000E+00  0.00000000E+00  0.00000000E+00 -6.79061055E-17
  0.00000000E+00  0.00000000E+00 -8.50327346E-16  0.00000000E+00  0.00000000E+00
  9.36879165E-17  0.00000000E+00  0.00000000E+00 -1.57032760E-16  0.00000000E+00
  0.00000000E+00 -1.17802825E-17  0.00000000E+00  0.00000000E+00  0.00000000E+00
  0.00000000E+00  0.00000000E+00  0.00000000E+00  0.00000000E+00  0.00000000E+00
  0.00000000E+00  0.00000000E+00  0.00000000E+00  0.00000000E+00  0.00000000E+00
  0.00000000E+00  0.00000000E+00  0.00000000E+00  0.00000000E+00  0.00000000E+00
  0.00000000E+00  0.00000000E+00  0.00000000E+00  0.00000000E+00  0.00000000E+00
  1.17157904E+00  0.00000000E+00  0.00000000E+00  0.00000000E+00  0.00000000E+00
  0.00000000E+00  0.00000000E+00  0.00000000E+00  4.31694256E-16  0.00000000E+00
  0.00000000E+00  9.26029494E-16  0.00000000E+00  0.00000000E+00  9.36879165E-17
  0.00000000E+00  0.00000000E+00 -1.57032760E-16  0.00000000E+00  0.00000000E+00
 -1.17802825E-17  0.00000000E+00  0.00000000E+00  0.00000000E+00  0.00000000E+00
  0.00000000E+00  0.00000000E+00  0.00000000E+00  0.00000000E+00  0.00000000E+00
  0.00000000E+00  0.00000000E+00  0.00000000E+00  0.00000000E+00  0.00000000E+00
  0.00000000E+00  0.00000000E+00  0.00000000E+00  0.00000000E+00  0.00000000E+00
  0.00000000E+00  0.00000000E+00  0.00000000E+00  0.00000000E+00  1.17157904E+00
  0.00000000E+00  0.00000000E+00  0.00000000E+00  0.00000000E+00  0.00000000E+00
  0.00000000E+00  0.00000000E+00  0.00000000E+00 -2.83760053E-18  0.00000000E+00
  0.00000000E+00  7.41465371E-17  0.00000000E+00  0.00000000E+00  1.03159334E-16
  0.00000000E+00  0.00000000E+00 -2.90540485E-18  0.00000000E+00  0.00000000E+00
  9.60949919E-18  0.00000000E+00  0.00000000E+00  0.00000000E+00  0.00000000E+00
  0.00000000E+00  0.00000000E+00  0.00000000E+00  0.00000000E+00  0.00000000E+00
  0.00000000E+00  0.00000000E+00  0.00000000E+00  0.00000000E+00  0.00000000E+00
  0.00000000E+00  0.00000000E+00  0.00000000E+00  0.00000000E+00  0.00000000E+00
  0.00000000E+00 -3.95200201E-16  0.00000000E+00  0.00000000E+00  1.17157904E+00
  0.00000000E+00  0.00000000E+00  0.00000000E+00  0.00000000E+00  0.00000000E+00
  0.00000000E+00  0.00000000E+00  0.00000000E+00  0.00000000E+00  0.00000000E+00
  0.00000000E+00  0.00000000E+00  0.00000000E+00  0.00000000E+00  0.00000000E+00
  0.00000000E+00  0.00000000E+00  0.00000000E+00  0.00000000E+00  0.00000000E+00
  0.00000000E+00  0.00000000E+00  0.00000000E+00  0.00000000E+00  0.00000000E+00
  0.00000000E+00  0.00000000E+00  0.00000000E+00  0.00000000E+00  0.00000000E+00
  0.00000000E+00  0.00000000E+00  0.00000000E+00  0.00000000E+00  0.00000000E+00
  0.00000000E+00  0.00000000E+00  0.00000000E+00  0.00000000E+00  0.00000000E+00
  0.00000000E+00  0.00000000E+00  0.00000000E+00  0.00000000E+00  0.00000000E+00
  1.17157904E+00  0.00000000E+00  0.00000000E+00  0.00000000E+00  0.00000000E+00
  0.00000000E+00  0.00000000E+00 -2.52891739E-16  0.00000000E+00  0.00000000E+00
  5.42102450E-16  0.00000000E+00  0.00000000E+00 -7.82857200E-16  0.00000000E+00
  0.00000000E+00  1.16736125E-16  0.00000000E+00  0.00000000E+00  8.48188948E-17
  0.00000000E+00  0.00000000E+00  0.00000000E+00  0.00000000E+00  0.00000000E+00
  0.00000000E+00  0.00000000E+00  0.00000000E+00  0.00000000E+00  0.00000000E+00
  0.00000000E+00  0.00000000E+00  0.00000000E+00  0.00000000E+00  0.00000000E+00
  0.00000000E+00  0.00000000E+00  0.00000000E+00  0.00000000E+00  0.00000000E+00
  0.00000000E+00  0.00000000E+00  0.00000000E+00  1.28607529E-15  0.00000000E+00
  0.00000000E+00  0.00000000E+00  1.17157904E+00  0.00000000E+00  0.00000000E+00
  0.00000000E+00  0.00000000E+00  0.00000000E+00  0.00000000E+00  0.00000000E+00
 -5.58649580E-17  0.00000000E+00  0.00000000E+00  1.82253150E-15  0.00000000E+00
  0.00000000E+00  5.61672533E-16  0.00000000E+00  0.00000000E+00 -2.82021577E-17
  0.00000000E+00  0.00000000E+00 -8.57433126E-17  0.00000000E+00  0.00000000E+00
  0.00000000E+00  0.00000000E+00  0.00000000E+00  0.00000000E+00  0.00000000E+00
  0.00000000E+00  0.00000000E+00  0.00000000E+00  0.00000000E+00  0.00000000E+00
  0.00000000E+00  0.00000000E+00  0.00000000E+00  0.00000000E+00  0.00000000E+00
  0.00000000E+00  0.00000000E+00  0.00000000E+00  0.00000000E+00  0.00000000E+00
  0.00000000E+00 -1.03732730E-15  0.00000000E+00  0.00000000E+00  0.00000000E+00
  1.17157904E+00  0.00000000E+00  0.00000000E+00  0.00000000E+00  0.00000000E+00
  0.00000000E+00  0.00000000E+00  0.00000000E+00  0.00000000E+00  1.66533454E-16
  0.00000000E+00  0.00000000E+00  5.55111512E-16  0.00000000E+00  0.00000000E+00
  0.00000000E+00  0.00000000E+00  0.00000000E+00  0.00000000E+00  0.00000000E+00
  0.00000000E+00 -2.22044605E-16  0.00000000E+00  0.00000000E+00  0.00000000E+00
  0.00000000E+00  0.00000000E+00  0.00000000E+00  0.00000000E+00  0.00000000E+00
  0.00000000E+00  0.00000000E+00  0.00000000E+00  0.00000000E+00  0.00000000E+00
  0.00000000E+00  0.00000000E+00  0.00000000E+00  0.00000000E+00  0.00000000E+00
  0.00000000E+00  0.00000000E+00 -5.47711674E-01  0.00000000E+00  0.00000000E+00
  4.91548061E-17  0.00000000E+00  0.00000000E+00  0.00000000E+00 -8.65704607E-01
  0.00000000E+00  0.00000000E+00  0.00000000E+00  0.00000000E+00  0.00000000E+00
  0.00000000E+00 -4.21091677E-17  0.00000000E+00  0.00000000E+00 -5.68894448E-16
  0.00000000E+00  0.00000000E+00  2.08863024E-16  0.00000000E+00  0.00000000E+00
  2.68909471E-17  0.00000000E+00  0.00000000E+00  3.46004603E-17  0.00000000E+00
  0.00000000E+00  0.00000000E+00  0.00000000E+00  0.00000000E+00  0.00000000E+00
  0.00000000E+00  0.00000000E+00  0.00000000E+00  0.00000000E+00  0.00000000E+00
  0.00000000E+00  0.00000000E+00  0.00000000E+00  0.00000000E+00  0.00000000E+00
  0.00000000E+00  0.00000000E+00  0.00000000E+00  0.00000000E+00  0.00000000E+00
  0.00000000E+00  0.00000000E+00 -5.47711674E-01  0.00000000E+00  0.00000000E+00
  0.00000000E+00  1.16149074E-16  0.00000000E+00  0.00000000E+00 -8.65704607E-01
  0.00000000E+00  0.00000000E+00  0.00000000E+00  0.00000000E+00  0.00000000E+00
  0.00000000E+00  0.00000000E+00 -4.21091677E-17  0.00000000E+00  0.00000000E+00
 -3.19094267E-16  0.00000000E+00  0.00000000E+00  2.08863024E-16  0.00000000E+00
  0.00000000E+00  2.68909471E-17  0.00000000E+00  0.00000000E+00  3.80699072E-17
  0.00000000E+00  0.00000000E+00  0.00000000E+00  0.00000000E+00  0.00000000E+00
  0.00000000E+00  0.00000000E+00  0.00000000E+00  0.00000000E+00  0.00000000E+00
  0.00000000E+00  0.00000000E+00  0.00000000E+00  0.00000000E+00  0.00000000E+00
  0.00000000E+00  0.00000000E+00  0.00000000E+00  0.00000000E+00  0.00000000E+00
  0.00000000E+00  0.00000000E+00  0.00000000E+00 -5.47711674E-01  0.00000000E+00
  0.00000000E+00  0.00000000E+00 -2.49665141E-17  0.00000000E+00  0.00000000E+00
 -8.65704607E-01  0.00000000E+00  0.00000000E+00  0.00000000E+00  0.00000000E+00
  0.00000000E+00  0.00000000E+00  0.00000000E+00  0.00000000E+00  1.96170907E-17
  0.00000000E+00  0.00000000E+00 -2.94048437E-17  0.00000000E+00  0.00000000E+00
  2.38121006E-17  0.00000000E+00  0.00000000E+00 -1.17183110E-16  0.00000000E+00
  0.00000000E+00  2.09027948E-17  0.00000000E+00  0.00000000E+00  0.00000000E+00
  0.00000000E+00  0.00000000E+00  0.00000000E+00  0.00000000E+00  0.00000000E+00
  0.00000000E+00  0.00000000E+00  0.00000000E+00  0.00000000E+00  0.00000000E+00
  0.00000000E+00  0.00000000E+00  0.00000000E+00  0.00000000E+00  0.00000000E+00
  0.00000000E+00  0.00000000E+00  4.84820562E-17  0.00000000E+00  0.00000000E+00
 -5.47711674E-01  0.00000000E+00  0.00000000E+00  0.00000000E+00  1.00401716E-16
  0.00000000E+00  0.00000000E+00 -8.65704607E-01  0.00000000E+00  0.00000000E+00
  0.00000000E+00  0.00000000E+00  0.00000000E+00  0.00000000E+00  0.00000000E+00
  0.00000000E+00  0.00000000E+00  0.00000000E+00  0.00000000E+00  0.00000000E+00
  0.00000000E+00  0.00000000E+00  0.00000000E+00  0.00000000E+00  0.00000000E+00
  0.00000000E+00  0.00000000E+00  0.00000000E+00  0.00000000E+00  0.00000000E+00
  0.00000000E+00  0.00000000E+00  0.00000000E+00  0.00000000E+00  0.00000000E+00
  0.00000000E+00  0.00000000E+00  0.00000000E+00  0.00000000E+00  0.00000000E+00
  0.00000000E+00  0.00000000E+00  0.00000000E+00  0.00000000E+00  0.00000000E+00
  0.00000000E+00  0.00000000E+00  0.00000000E+00  0.00000000E+00  0.00000000E+00
  0.00000000E+00  0.00000000E+00  0.00000000E+00 -5.47711674E-01  0.00000000E+00
  0.00000000E+00  0.00000000E+00  0.00000000E+00  0.00000000E+00  0.00000000E+00
 -8.65704607E-01  0.00000000E+00  0.00000000E+00  0.00000000E+00  0.00000000E+00
  0.00000000E+00  0.00000000E+00 -4.17933082E-17  0.00000000E+00  0.00000000E+00
  2.11453023E-16  0.00000000E+00  0.00000000E+00  5.13529279E-16  0.00000000E+00
  0.00000000E+00 -2.22901271E-16  0.00000000E+00  0.00000000E+00 -1.00909896E-16
  0.00000000E+00  0.00000000E+00  0.00000000E+00  0.00000000E+00  0.00000000E+00
  0.00000000E+00  0.00000000E+00  0.00000000E+00  0.00000000E+00  0.00000000E+00
  0.00000000E+00  0.00000000E+00  0.00000000E+00  0.00000000E+00  0.00000000E+00
  0.00000000E+00  0.00000000E+00  0.00000000E+00  0.00000000E+00  0.00000000E+00
  0.00000000E+00  0.00000000E+00  0.00000000E+00  2.54567032E-16  0.00000000E+00
  0.00000000E+00  0.00000000E+00 -5.47711674E-01  0.00000000E+00  0.00000000E+00
 -4.25613329E-17  0.00000000E+00  0.00000000E+00  0.00000000E+00 -8.65704607E-01
  0.00000000E+00  0.00000000E+00  0.00000000E+00  0.00000000E+00  0.00000000E+00
  0.00000000E+00  0.00000000E+00 -2.11116633E-18  0.00000000E+00  0.00000000E+00
 -2.11575302E-16  0.00000000E+00  0.00000000E+00 -6.12688637E-16  0.00000000E+00
  0.00000000E+00  1.51254426E-16  0.00000000E+00  0.00000000E+00  1.07156967E-16
  0.00000000E+00  0.00000000E+00  0.00000000E+00  0.00000000E+00  0.00000000E+00
  0.00000000E+00  0.00000000E+00  0.00000000E+00  0.00000000E+00  0.00000000E+00
  0.00000000E+00  0.00000000E+00  0.00000000E+00  0.00000000E+00  0.00000000E+00
  0.00000000E+00  0.00000000E+00  0.00000000E+00  0.00000000E+00  0.00000000E+00
  0.00000000E+00  0.00000000E+00  0.00000000E+00 -2.91847702E-16  0.00000000E+00
  0.00000000E+00  0.00000000E+00 -5.47711674E-01  0.00000000E+00  0.00000000E+00
 -1.45411211E-16  0.00000000E+00  0.00000000E+00  0.00000000E+00 -8.65704607E-01
  0.00000000E+00  0.00000000E+00  0.00000000E+00  0.00000000E+00  0.00000000E+00
  0.00000000E+00  0.00000000E+00  0.00000000E+00  1.38777878E-17  0.00000000E+00
  0.00000000E+00  0.00000000E+00  0.00000000E+00  0.00000000E+00 -1.80411242E-16
  0.00000000E+00  0.00000000E+00 -1.38777878E-16  0.00000000E+00  0.00000000E+00
  1.66533454E-16  0.00000000E+00  0.00000000E+00  0.00000000E+00  0.00000000E+00
  0.00000000E+00  0.00000000E+00  0.00000000E+00  0.00000000E+00  0.00000000E+00
  0.00000000E+00  0.00000000E+00  0.00000000E+00  0.00000000E+00  0.00000000E+00
  0.00000000E+00  0.00000000E+00  0.00000000E+00  0.00000000E+00  0.00000000E+00
  0.00000000E+00 -3.30304617E-01  0.00000000E+00  0.00000000E+00  1.70972849E-18
  0.00000000E+00  0.00000000E+00  0.00000000E+00 -8.08016485E-01  0.00000000E+00
  0.00000000E+00 -2.51513945E-17  0.00000000E+00  0.00000000E+00  0.00000000E+00
 -1.05125346E+00  0.00000000E+00  0.00000000E+00  0.00000000E+00  0.00000000E+00
  0.00000000E+00  0.00000000E+00 -1.27977452E-17  0.00000000E+00  0.00000000E+00
  1.88074410E-17  0.00000000E+00  0.00000000E+00  1.71004134E-16  0.00000000E+00
  0.00000000E+00 -1.67691033E-16  0.00000000E+00  0.00000000E+00 -1.67873572E-16
  0.00000000E+00  0.00000000E+00  0.00000000E+00  0.00000000E+00  0.00000000E+00
  0.00000000E+00  0.00000000E+00  0.00000000E+00  0.00000000E+00  0.00000000E+00
  0.00000000E+00  0.00000000E+00  0.00000000E+00  0.00000000E+00  0.00000000E+00
  0.00000000E+00  0.00000000E+00  0.00000000E+00  0.00000000E+00  0.00000000E+00
  0.00000000E+00  0.00000000E+00  0.00000000E+00 -3.30304617E-01  0.00000000E+00
  0.00000000E+00  0.00000000E+00  1.08629328E-16  0.00000000E+00  0.00000000E+00
 -8.08016485E-01  0.00000000E+00  0.00000000E+00  0.00000000E+00  1.50738533E-16
  0.00000000E+00  0.00000000E+00 -1.05125346E+00  0.00000000E+00  0.00000000E+00
  0.00000000E+00  0.00000000E+00  0.00000000E+00  0.00000000E+00  0.00000000E+00
 -1.27977452E-17  0.00000000E+00  0.00000000E+00  1.88074410E-17  0.00000000E+00
  0.00000000E+00  1.71004134E-16  0.00000000E+00  0.00000000E+00 -1.67691033E-16
  0.00000000E+00  0.00000000E+00 -5.68512695E-17  0.00000000E+00  0.00000000E+00
  0.00000000E+00  0.00000000E+00  0.00000000E+00  0.00000000E+00  0.00000000E+00
  0.00000000E+00  0.00000000E+00  0.00000000E+00  0.00000000E+00  0.00000000E+00
  0.00000000E+00  0.00000000E+00  0.00000000E+00  0.00000000E+00  0.00000000E+00
  0.00000000E+00  0.00000000E+00  0.00000000E+00  0.00000000E+00  0.00000000E+00
  0.00000000E+00 -3.30304617E-01  0.00000000E+00  0.00000000E+00  0.00000000E+00
 -1.10322866E-16  0.00000000E+00  0.00000000E+00 -8.08016485E-01  0.00000000E+00
  0.00000000E+00  0.00000000E+00 -7.35207306E-17  0.00000000E+00  0.00000000E+00
 -1.05125346E+00  0.00000000E+00  0.00000000E+00  0.00000000E+00  0.00000000E+00
  0.00000000E+00  0.00000000E+00  0.00000000E+00  0.00000000E+00  2.84065026E-18
  0.00000000E+00  0.00000000E+00 -7.49486840E-18  0.00000000E+00  0.00000000E+00
 -5.19120658E-17  0.00000000E+00  0.00000000E+00  8.50529776E-17  0.00000000E+00
  0.00000000E+00  5.43056638E-17  0.00000000E+00  0.00000000E+00  0.00000000E+00
  0.00000000E+00  0.00000000E+00  0.00000000E+00  0.00000000E+00  0.00000000E+00
  0.00000000E+00  0.00000000E+00  0.00000000E+00  0.00000000E+00  0.00000000E+00
  0.00000000E+00  0.00000000E+00  0.00000000E+00  0.00000000E+00  0.00000000E+00
  0.00000000E+00  0.00000000E+00  5.44504119E-17  0.00000000E+00  0.00000000E+00
 -3.30304617E-01  0.00000000E+00  0.00000000E+00  0.00000000E+00 -2.16973874E-17
  0.00000000E+00  0.00000000E+00 -8.08016485E-01  0.00000000E+00  0.00000000E+00
  0.00000000E+00  5.98358330E-17  0.00000000E+00  0.00000000E+00 -1.05125346E+00
  0.00000000E+00  0.00000000E+00  0.00000000E+00  0.00000000E+00  0.00000000E+00
  0.00000000E+00  0.00000000E+00  0.00000000E+00  0.00000000E+00  0.00000000E+00
  0.00000000E+00  0.00000000E+00  0.00000000E+00  0.00000000E+00  0.00000000E+00
  0.00000000E+00  0.00000000E+00  0.00000000E+00  0.00000000E+00  0.00000000E+00
  0.00000000E+00  0.00000000E+00  0.00000000E+00  0.00000000E+00  0.00000000E+00
  0.00000000E+00  0.00000000E+00  0.00000000E+00  0.00000000E+00  0.00000000E+00
  0.00000000E+00  0.00000000E+00  0.00000000E+00  0.00000000E+00  0.00000000E+00
  0.00000000E+00  0.00000000E+00  0.00000000E+00  0.00000000E+00  0.00000000E+00
  0.00000000E+00  0.00000000E+00  0.00000000E+00  0.00000000E+00  0.00000000E+00
 -3.30304617E-01  0.00000000E+00  0.00000000E+00  0.00000000E+00  0.00000000E+00
  0.00000000E+00  0.00000000E+00 -8.08016485E-01  0.00000000E+00  0.00000000E+00
  0.00000000E+00  0.00000000E+00  0.00000000E+00  0.00000000E+00 -1.05125346E+00
  0.00000000E+00  0.00000000E+00  0.00000000E+00  0.00000000E+00  0.00000000E+00
  0.00000000E+00  1.08001479E-17  0.00000000E+00  0.00000000E+00 -1.15516504E-16
  0.00000000E+00  0.00000000E+00 -3.69884975E-16  0.00000000E+00  0.00000000E+00
 -4.29866415E-16  0.00000000E+00  0.00000000E+00  4.16983007E-17  0.00000000E+00
  0.00000000E+00  0.00000000E+00  0.00000000E+00  0.00000000E+00  0.00000000E+00
  0.00000000E+00  0.00000000E+00  0.00000000E+00  0.00000000E+00  0.00000000E+00
  0.00000000E+00  0.00000000E+00  0.00000000E+00  0.00000000E+00  0.00000000E+00
  0.00000000E+00  0.00000000E+00  0.00000000E+00  0.00000000E+00  0.00000000E+00
  0.00000000E+00  0.00000000E+00  9.16514188E-17  0.00000000E+00  0.00000000E+00
  0.00000000E+00 -3.30304617E-01  0.00000000E+00  0.00000000E+00  1.34255393E-16
  0.00000000E+00  0.00000000E+00  0.00000000E+00 -8.08016485E-01  0.00000000E+00
  0.00000000E+00 -4.75735521E-16  0.00000000E+00  0.00000000E+00  0.00000000E+00
 -1.05125346E+00  0.00000000E+00  0.00000000E+00  0.00000000E+00  0.00000000E+00
  0.00000000E+00  0.00000000E+00  0.00000000E+00 -7.30350914E-18  0.00000000E+00
  0.00000000E+00  1.15779175E-16  0.00000000E+00  0.00000000E+00  3.74544156E-16
  0.00000000E+00  0.00000000E+00  4.56491721E-16  0.00000000E+00  0.00000000E+00
 -2.19187105E-18  0.00000000E+00  0.00000000E+00  0.00000000E+00  0.00000000E+00
  0.00000000E+00  0.00000000E+00  0.00000000E+00  0.00000000E+00  0.00000000E+00
  0.00000000E+00  0.00000000E+00  0.00000000E+00  0.00000000E+00  0.00000000E+00
  0.00000000E+00  0.00000000E+00  0.00000000E+00  0.00000000E+00  0.00000000E+00
  0.00000000E+00  0.00000000E+00  0.00000000E+00  0.00000000E+00 -9.45001418E-17
  0.00000000E+00  0.00000000E+00  0.00000000E+00 -3.30304617E-01  0.00000000E+00
  0.00000000E+00 -1.57669132E-16  0.00000000E+00  0.00000000E+00  0.00000000E+00
 -8.08016485E-01  0.00000000E+00  0.00000000E+00  4.20873115E-16  0.00000000E+00
  0.00000000E+00  0.00000000E+00 -1.05125346E+00  1.11022302E-16 -1.11022302E-16
 -3.46944695E-18 -1.16573418E-15  1.38777878E-16 -2.77555756E-17  0.00000000E+00
  0.00000000E+00  0.00000000E+00  0.00000000E+00  0.00000000E+00  0.00000000E+00
  0.00000000E+00  0.00000000E+00  0.00000000E+00  0.00000000E+00  0.00000000E+00
  0.00000000E+00  0.00000000E+00  0.00000000E+00  0.00000000E+00 -4.44089210E-16
  0.00000000E+00  0.00000000E+00 -1.60862671E-16  0.00000000E+00  2.22044605E-16
  0.00000000E+00  0.00000000E+00  2.27231532E-17  0.00000000E+00  6.66133815E-16
  0.00000000E+00  0.00000000E+00 -1.46913525E-16  0.00000000E+00  4.51028104E-16
  0.00000000E+00  0.00000000E+00  3.25458093E-18  0.00000000E+00  0.00000000E+00
  0.00000000E+00  0.00000000E+00  0.00000000E+00  0.00000000E+00  0.00000000E+00
  0.00000000E+00  0.00000000E+00  0.00000000E+00  0.00000000E+00  0.00000000E+00
  0.00000000E+00  0.00000000E+00  0.00000000E+00  0.00000000E+00  0.00000000E+00
  0.00000000E+00  0.00000000E+00  0.00000000E+00  0.00000000E+00  0.00000000E+00
  1.64852292E+00  0.00000000E+00  0.00000000E+00  0.00000000E+00  0.00000000E+00
  0.00000000E+00  0.00000000E+00  0.00000000E+00  0.00000000E+00  0.00000000E+00
  0.00000000E+00  0.00000000E+00  0.00000000E+00  0.00000000E+00  0.00000000E+00
  0.00000000E+00  0.00000000E+00  0.00000000E+00  0.00000000E+00  0.00000000E+00
  0.00000000E+00  0.00000000E+00  0.00000000E+00 -7.96653530E-17  0.00000000E+00
  0.00000000E+00  0.00000000E+00  0.00000000E+00  1.61423917E-16  0.00000000E+00
  0.00000000E+00  0.00000000E+00  0.00000000E+00 -2.04649155E-15  0.00000000E+00
  0.00000000E+00  0.00000000E+00  0.00000000E+00 -1.96830830E-16  0.00000000E+00
  0.00000000E+00  0.00000000E+00  0.00000000E+00  0.00000000E+00  0.00000000E+00
  0.00000000E+00  0.00000000E+00  0.00000000E+00  0.00000000E+00  0.00000000E+00
  0.00000000E+00  0.00000000E+00  0.00000000E+00  0.00000000E+00  0.00000000E+00
  0.00000000E+00  0.00000000E+00  0.00000000E+00  0.00000000E+00  0.00000000E+00
  0.00000000E+00  0.00000000E+00  0.00000000E+00  0.00000000E+00  1.64852292E+00
  0.00000000E+00  0.00000000E+00  0.00000000E+00  0.00000000E+00  0.00000000E+00
  0.00000000E+00  0.00000000E+00  0.00000000E+00  0.00000000E+00  0.00000000E+00
  0.00000000E+00  0.00000000E+00  0.00000000E+00  0.00000000E+00  0.00000000E+00
  0.00000000E+00  0.00000000E+00  0.00000000E+00  0.00000000E+00  0.00000000E+00
  0.00000000E+00  0.00000000E+00  0.00000000E+00 -7.96653530E-17  0.00000000E+00
  0.00000000E+00  0.00000000E+00  0.00000000E+00  1.61423917E-16  0.00000000E+00
  0.00000000E+00  0.00000000E+00  0.00000000E+00 -2.04649155E-15  0.00000000E+00
  0.00000000E+00  0.00000000E+00  0.00000000E+00 -3.07853132E-16  0.00000000E+00
  0.00000000E+00  0.00000000E+00  0.00000000E+00  0.00000000E+00  0.00000000E+00
  0.00000000E+00  0.00000000E+00  0.00000000E+00  0.00000000E+00  0.00000000E+00
  0.00000000E+00  0.00000000E+00  0.00000000E+00  0.00000000E+00  0.00000000E+00
  0.00000000E+00  0.00000000E+00  0.00000000E+00  0.00000000E+00  0.00000000E+00
  0.00000000E+00  0.00000000E+00  0.00000000E+00  0.00000000E+00  1.64852292E+00
  2.66458188E-18  6.75063700E-17 -2.70764857E-17  1.74363701E-16  6.21033048E-17
  9.37434827E-19  0.00000000E+00  0.00000000E+00  0.00000000E+00  0.00000000E+00
  0.00000000E+00  0.00000000E+00  0.00000000E+00  0.00000000E+00  0.00000000E+00
  0.00000000E+00  0.00000000E+00  0.00000000E+00  0.00000000E+00  0.00000000E+00
  0.00000000E+00 -7.00722302E-18  0.00000000E+00  0.00000000E+00  3.13554883E-15
  0.00000000E+00  1.49916608E-16  0.00000000E+00  0.00000000E+00 -7.84502533E-16
  0.00000000E+00  1.96709577E-17  0.00000000E+00  0.00000000E+00  4.59107853E-16
  0.00000000E+00 -9.48147500E-18  0.00000000E+00  0.00000000E+00 -7.99241721E-18
  0.00000000E+00  0.00000000E+00  0.00000000E+00  0.00000000E+00  0.00000000E+00
  0.00000000E+00  0.00000000E+00  0.00000000E+00  0.00000000E+00  0.00000000E+00
  0.00000000E+00  0.00000000E+00  0.00000000E+00  0.00000000E+00  0.00000000E+00
  0.00000000E+00  0.00000000E+00  0.00000000E+00  0.00000000E+00  0.00000000E+00
  0.00000000E+00  0.00000000E+00  3.86702033E-16  0.00000000E+00  0.00000000E+00
  1.64852292E+00  0.00000000E+00  0.00000000E+00  0.00000000E+00  0.00000000E+00
  0.00000000E+00  0.00000000E+00  0.00000000E+00  0.00000000E+00  0.00000000E+00
  0.00000000E+00  0.00000000E+00  0.00000000E+00  0.00000000E+00  0.00000000E+00
  0.00000000E+00  0.00000000E+00  0.00000000E+00  0.00000000E+00  0.00000000E+00
  0.00000000E+00  0.00000000E+00  0.00000000E+00  0.00000000E+00  0.00000000E+00
  0.00000000E+00  2.92045605E-16  0.00000000E+00  0.00000000E+00  0.00000000E+00
  0.00000000E+00  5.16687277E-16  0.00000000E+00  0.00000000E+00  0.00000000E+00
  0.00000000E+00 -1.68820621E-15  0.00000000E+00  0.00000000E+00  0.00000000E+00
  0.00000000E+00  2.07285311E-16  0.00000000E+00  0.00000000E+00  0.00000000E+00
  0.00000000E+00  0.00000000E+00  0.00000000E+00  0.00000000E+00  0.00000000E+00
  0.00000000E+00  0.00000000E+00  0.00000000E+00  0.00000000E+00  0.00000000E+00
  0.00000000E+00  0.00000000E+00  0.00000000E+00  0.00000000E+00  0.00000000E+00
  0.00000000E+00  0.00000000E+00  0.00000000E+00  0.00000000E+00  0.00000000E+00
  0.00000000E+00  0.00000000E+00  1.64852292E+00  0.00000000E+00  0.00000000E+00
  0.00000000E+00  0.00000000E+00  0.00000000E+00  0.00000000E+00  0.00000000E+00
  0.00000000E+00  0.00000000E+00  0.00000000E+00  0.00000000E+00  0.00000000E+00
  0.00000000E+00  0.00000000E+00  0.00000000E+00  0.00000000E+00  0.00000000E+00
  0.00000000E+00  0.00000000E+00  0.00000000E+00  0.00000000E+00  0.00000000E+00
  5.52997748E-16  0.00000000E+00  0.00000000E+00  0.00000000E+00  0.00000000E+00
 -3.28858869E-16  0.00000000E+00  0.00000000E+00  0.00000000E+00  0.00000000E+00
  1.10059817E-15  0.00000000E+00  0.00000000E+00  0.00000000E+00  0.00000000E+00
  4.28940552E-17  0.00000000E+00  0.00000000E+00  0.00000000E+00  0.00000000E+00
  0.00000000E+00  0.00000000E+00  0.00000000E+00  0.00000000E+00  0.00000000E+00
  0.00000000E+00  0.00000000E+00  0.00000000E+00  0.00000000E+00  0.00000000E+00
  0.00000000E+00  0.00000000E+00  0.00000000E+00  0.00000000E+00  0.00000000E+00
  0.00000000E+00  0.00000000E+00  0.00000000E+00  0.00000000E+00  0.00000000E+00
  0.00000000E+00 -1.84207313E-15  0.00000000E+00  0.00000000E+00  0.00000000E+00
  1.64852292E+00  0.00000000E+00  0.00000000E+00  0.00000000E+00  0.00000000E+00
  0.00000000E+00  0.00000000E+00  0.00000000E+00  0.00000000E+00  0.00000000E+00
  0.00000000E+00  0.00000000E+00  0.00000000E+00  0.00000000E+00  0.00000000E+00
  0.00000000E+00  0.00000000E+00  0.00000000E+00  0.00000000E+00  0.00000000E+00
  0.00000000E+00  0.00000000E+00  0.00000000E+00  0.00000000E+00 -5.57308130E-16
  0.00000000E+00  0.00000000E+00  0.00000000E+00  0.00000000E+00  4.08776711E-17
  0.00000000E+00  0.00000000E+00  0.00000000E+00  0.00000000E+00 -9.77931535E-16
  0.00000000E+00  0.00000000E+00  0.00000000E+00  0.00000000E+00 -7.58531265E-18
  0.00000000E+00  0.00000000E+00  0.00000000E+00  0.00000000E+00  0.00000000E+00
  0.00000000E+00  0.00000000E+00  0.00000000E+00  0.00000000E+00  0.00000000E+00
  0.00000000E+00  0.00000000E+00  0.00000000E+00  0.00000000E+00  0.00000000E+00
  0.00000000E+00  0.00000000E+00  0.00000000E+00  0.00000000E+00  0.00000000E+00
  0.00000000E+00  0.00000000E+00  0.00000000E+00  0.00000000E+00  0.00000000E+00
  3.05267803E-15  0.00000000E+00  0.00000000E+00  0.00000000E+00  1.64852292E+00
  6.22364178E-17 -4.91016248E-17 -2.48371619E-16 -2.93432556E-15  6.82432152E-17
  1.96308234E-16  0.00000000E+00  0.00000000E+00  0.00000000E+00  0.00000000E+00
  0.00000000E+00  0.00000000E+00  0.00000000E+00  0.00000000E+00  0.00000000E+00
  0.00000000E+00  0.00000000E+00  0.00000000E+00  0.00000000E+00  0.00000000E+00
  0.00000000E+00  1.92894543E-15  0.00000000E+00  0.00000000E+00 -3.30731848E-16
  0.00000000E+00 -6.11926782E-16  0.00000000E+00  0.00000000E+00 -3.80941572E-16
  0.00000000E+00  1.78667803E-15  0.00000000E+00  0.00000000E+00  9.85414921E-16
  0.00000000E+00 -1.20132799E-16  0.00000000E+00  0.00000000E+00 -3.25881878E-17
  0.00000000E+00  0.00000000E+00  0.00000000E+00  0.00000000E+00  0.00000000E+00
  0.00000000E+00  0.00000000E+00  0.00000000E+00  0.00000000E+00  0.00000000E+00
  0.00000000E+00  0.00000000E+00  0.00000000E+00  0.00000000E+00  0.00000000E+00
  0.00000000E+00  0.00000000E+00  0.00000000E+00  0.00000000E+00  0.00000000E+00
  0.00000000E+00  0.00000000E+00 -5.38614538E-16  0.00000000E+00  0.00000000E+00
 -4.22507020E-17  0.00000000E+00  0.00000000E+00  0.00000000E+00  1.64852292E+00
  0.00000000E+00  0.00000000E+00  0.00000000E+00  0.00000000E+00  0.00000000E+00
  0.00000000E+00  0.00000000E+00  0.00000000E+00  0.00000000E+00  0.00000000E+00
  0.00000000E+00  0.00000000E+00  0.00000000E+00  0.00000000E+00  0.00000000E+00
  0.00000000E+00  0.00000000E+00  0.00000000E+00  0.00000000E+00  0.00000000E+00
  0.00000000E+00  0.00000000E+00  0.00000000E+00  0.00000000E+00  0.00000000E+00
  5.48297611E-17  0.00000000E+00  0.00000000E+00  0.00000000E+00  0.00000000E+00
  3.32650390E-16  0.00000000E+00  0.00000000E+00  0.00000000E+00  0.00000000E+00
 -1.09147968E-16  0.00000000E+00  0.00000000E+00  0.00000000E+00  0.00000000E+00
 -1.08933788E-17  0.00000000E+00  0.00000000E+00  0.00000000E+00  0.00000000E+00
  0.00000000E+00  0.00000000E+00  0.00000000E+00  0.00000000E+00  0.00000000E+00
  0.00000000E+00  0.00000000E+00  0.00000000E+00  0.00000000E+00  0.00000000E+00
  0.00000000E+00  0.00000000E+00  0.00000000E+00  0.00000000E+00  0.00000000E+00
  0.00000000E+00  0.00000000E+00  0.00000000E+00  0.00000000E+00  0.00000000E+00
  0.00000000E+00  1.16693560E-16  0.00000000E+00  0.00000000E+00  0.00000000E+00
  1.64852292E+00  1.38777878E-17 -1.38777878E-17 -3.05311332E-16  2.77555756E-17
  4.16333634E-17  5.48172618E-16  0.00000000E+00  0.00000000E+00  0.00000000E+00
  0.00000000E+00  0.00000000E+00  0.00000000E+00  0.00000000E+00  0.00000000E+00
  0.00000000E+00  0.00000000E+00  0.00000000E+00  0.00000000E+00  0.00000000E+00
  0.00000000E+00  0.00000000E+00 -8.32667268E-17  0.00000000E+00  0.00000000E+00
  2.04491615E-17  0.00000000E+00 -5.55111512E-17  0.00000000E+00  0.00000000E+00
 -1.12245675E-16  0.00000000E+00  0.00000000E+00  0.00000000E+00  0.00000000E+00
  6.76314290E-17  0.00000000E+00 -3.33066907E-16  0.00000000E+00  0.00000000E+00
  2.64125449E-18  0.00000000E+00  0.00000000E+00  0.00000000E+00  0.00000000E+00
  0.00000000E+00  0.00000000E+00  0.00000000E+00  0.00000000E+00  0.00000000E+00
  0.00000000E+00  0.00000000E+00  0.00000000E+00  0.00000000E+00  0.00000000E+00
  0.00000000E+00  0.00000000E+00  0.00000000E+00  0.00000000E+00  0.00000000E+00
  0.00000000E+00  0.00000000E+00  0.00000000E+00 -5.83364962E-03  0.00000000E+00
  0.00000000E+00 -3.71838778E-16  0.00000000E+00  0.00000000E+00  0.00000000E+00
  3.39804233E-16  0.00000000E+00 -2.01399332E-01  0.00000000E+00  0.00000000E+00
  0.00000000E+00  0.00000000E+00  0.00000000E+00  0.00000000E+00  0.00000000E+00
  0.00000000E+00  0.00000000E+00  0.00000000E+00  0.00000000E+00  0.00000000E+00
  0.00000000E+00  0.00000000E+00  0.00000000E+00  0.00000000E+00  0.00000000E+00
  0.00000000E+00  0.00000000E+00  0.00000000E+00  0.00000000E+00  0.00000000E+00
  1.94622698E-16  0.00000000E+00  0.00000000E+00  0.00000000E+00  0.00000000E+00
 -3.19106300E-16  0.00000000E+00  0.00000000E+00  0.00000000E+00  0.00000000E+00
  7.09948494E-16  0.00000000E+00  0.00000000E+00  0.00000000E+00  0.00000000E+00
  1.54435548E-16  0.00000000E+00  0.00000000E+00  0.00000000E+00  0.00000000E+00
  0.00000000E+00  0.00000000E+00  0.00000000E+00  0.00000000E+00  0.00000000E+00
  0.00000000E+00  0.00000000E+00  0.00000000E+00  0.00000000E+00  0.00000000E+00
  0.00000000E+00  0.00000000E+00  0.00000000E+00  0.00000000E+00  0.00000000E+00
  0.00000000E+00  0.00000000E+00  0.00000000E+00  0.00000000E+00  0.00000000E+00
  0.00000000E+00 -5.83364962E-03  0.00000000E+00  0.00000000E+00  0.00000000E+00
 -6.09308771E-16  0.00000000E+00  0.00000000E+00  0.00000000E+00  0.00000000E+00
 -2.01399332E-01  0.00000000E+00  0.00000000E+00  0.00000000E+00  0.00000000E+00
  0.00000000E+00  0.00000000E+00  0.00000000E+00  0.00000000E+00  0.00000000E+00
  0.00000000E+00  0.00000000E+00  0.00000000E+00  0.00000000E+00  0.00000000E+00
  0.00000000E+00  0.00000000E+00  0.00000000E+00  0.00000000E+00  0.00000000E+00
  0.00000000E+00  0.00000000E+00  0.00000000E+00  0.00000000E+00  1.94622698E-16
  0.00000000E+00  0.00000000E+00  0.00000000E+00  0.00000000E+00 -3.19106300E-16
  0.00000000E+00  0.00000000E+00  0.00000000E+00  0.00000000E+00  7.09948494E-16
  0.00000000E+00  0.00000000E+00  0.00000000E+00  0.00000000E+00  1.54435548E-16
  0.00000000E+00  0.00000000E+00  0.00000000E+00  0.00000000E+00  0.00000000E+00
  0.00000000E+00  0.00000000E+00  0.00000000E+00  0.00000000E+00  0.00000000E+00
  0.00000000E+00  0.00000000E+00  0.00000000E+00  0.00000000E+00  0.00000000E+00
  0.00000000E+00  0.00000000E+00  0.00000000E+00  0.00000000E+00  0.00000000E+00
  0.00000000E+00  0.00000000E+00  0.00000000E+00  0.00000000E+00  0.00000000E+00
 -5.83364962E-03  0.00000000E+00  0.00000000E+00  0.00000000E+00  7.65227286E-16
  0.00000000E+00  0.00000000E+00  0.00000000E+00  0.00000000E+00 -2.01399332E-01
 -8.79607975E-18  3.60972433E-18  3.30134804E-17 -1.99627903E-17 -5.08055130E-17
  1.36904338E-17  0.00000000E+00  0.00000000E+00  0.00000000E+00  0.00000000E+00
  0.00000000E+00  0.00000000E+00  0.00000000E+00  0.00000000E+00  0.00000000E+00
  0.00000000E+00  0.00000000E+00  0.00000000E+00  0.00000000E+00  0.00000000E+00
  0.00000000E+00 -6.79267061E-18  0.00000000E+00  0.00000000E+00  1.37165223E-16
  0.00000000E+00  9.92955186E-18  0.00000000E+00  0.00000000E+00  6.21587838E-16
  0.00000000E+00  3.59853304E-17  0.00000000E+00  0.00000000E+00  2.76069542E-16
  0.00000000E+00 -1.73901304E-17  0.00000000E+00  0.00000000E+00  6.74044252E-16
  0.00000000E+00  0.00000000E+00  0.00000000E+00  0.00000000E+00  0.00000000E+00
  0.00000000E+00  0.00000000E+00  0.00000000E+00  0.00000000E+00  0.00000000E+00
  0.00000000E+00  0.00000000E+00  0.00000000E+00  0.00000000E+00  0.00000000E+00
  0.00000000E+00  0.00000000E+00  0.00000000E+00  0.00000000E+00  0.00000000E+00
  0.00000000E+00  0.00000000E+00 -1.43578538E-16  0.00000000E+00  0.00000000E+00
 -5.83364962E-03  0.00000000E+00  0.00000000E+00  0.00000000E+00 -2.07650483E-16
  0.00000000E+00 -8.24937475E-17  0.00000000E+00  0.00000000E+00 -2.01399332E-01
  0.00000000E+00  0.00000000E+00  0.00000000E+00  0.00000000E+00  0.00000000E+00
  0.00000000E+00  0.00000000E+00  0.00000000E+00  0.00000000E+00  0.00000000E+00
  0.00000000E+00  0.00000000E+00  0.00000000E+00  0.00000000E+00  0.00000000E+00
  0.00000000E+00  0.00000000E+00  0.00000000E+00  0.00000000E+00  0.00000000E+00
  0.00000000E+00  0.00000000E+00  0.00000000E+00  0.00000000E+00  0.00000000E+00
 -1.58954151E-16  0.00000000E+00  0.00000000E+00  0.00000000E+00  0.00000000E+00
 -1.28082789E-15  0.00000000E+00  0.00000000E+00  0.00000000E+00  0.00000000E+00
 -1.15692125E-16  0.00000000E+00  0.00000000E+00  0.00000000E+00  0.00000000E+00
 -3.02343410E-17  0.00000000E+00  0.00000000E+00  0.00000000E+00  0.00000000E+00
  0.00000000E+00  0.00000000E+00  0.00000000E+00  0.00000000E+00  0.00000000E+00
  0.00000000E+00  0.00000000E+00  0.00000000E+00  0.00000000E+00  0.00000000E+00
  0.00000000E+00  0.00000000E+00  0.00000000E+00  0.00000000E+00  0.00000000E+00
  0.00000000E+00  0.00000000E+00  0.00000000E+00  0.00000000E+00  0.00000000E+00
  0.00000000E+00 -5.83364962E-03  0.00000000E+00  0.00000000E+00  0.00000000E+00
 -1.77891529E-17  0.00000000E+00  0.00000000E+00  0.00000000E+00  0.00000000E+00
 -2.01399332E-01  0.00000000E+00  0.00000000E+00  0.00000000E+00  0.00000000E+00
  0.00000000E+00  0.00000000E+00  0.00000000E+00  0.00000000E+00  0.00000000E+00
  0.00000000E+00  0.00000000E+00  0.00000000E+00  0.00000000E+00  0.00000000E+00
  0.00000000E+00  0.00000000E+00  0.00000000E+00  0.00000000E+00  0.00000000E+00
  0.00000000E+00  0.00000000E+00  0.00000000E+00  6.26148970E-17  0.00000000E+00
  0.00000000E+00  0.00000000E+00  0.00000000E+00  8.64747913E-16  0.00000000E+00
  0.00000000E+00  0.00000000E+00  0.00000000E+00  4.57053646E-16  0.00000000E+00
  0.00000000E+00  0.00000000E+00  0.00000000E+00  6.54539663E-17  0.00000000E+00
  0.00000000E+00  0.00000000E+00  0.00000000E+00  0.00000000E+00  0.00000000E+00
  0.00000000E+00  0.00000000E+00  0.00000000E+00  0.00000000E+00  0.00000000E+00
  0.00000000E+00  0.00000000E+00  0.00000000E+00  0.00000000E+00  0.00000000E+00
  0.00000000E+00  0.00000000E+00  0.00000000E+00  0.00000000E+00  0.00000000E+00
  0.00000000E+00  0.00000000E+00  0.00000000E+00  0.00000000E+00 -4.44548335E-16
  0.00000000E+00  0.00000000E+00  0.00000000E+00 -5.83364962E-03  0.00000000E+00
  0.00000000E+00  0.00000000E+00  0.00000000E+00  2.54086212E-16  0.00000000E+00
  0.00000000E+00  0.00000000E+00 -2.01399332E-01  0.00000000E+00  0.00000000E+00
  0.00000000E+00  0.00000000E+00  0.00000000E+00  0.00000000E+00  0.00000000E+00
  0.00000000E+00  0.00000000E+00  0.00000000E+00  0.00000000E+00  0.00000000E+00
  0.00000000E+00  0.00000000E+00  0.00000000E+00  0.00000000E+00  0.00000000E+00
  0.00000000E+00  0.00000000E+00  0.00000000E+00  0.00000000E+00  0.00000000E+00
  0.00000000E+00 -1.64610667E-17  0.00000000E+00  0.00000000E+00  0.00000000E+00
  0.00000000E+00 -7.32512937E-16  0.00000000E+00  0.00000000E+00  0.00000000E+00
  0.00000000E+00 -2.95427178E-16  0.00000000E+00  0.00000000E+00  0.00000000E+00
  0.00000000E+00 -1.22252572E-16  0.00000000E+00  0.00000000E+00  0.00000000E+00
  0.00000000E+00  0.00000000E+00  0.00000000E+00  0.00000000E+00  0.00000000E+00
  0.00000000E+00  0.00000000E+00  0.00000000E+00  0.00000000E+00  0.00000000E+00
  0.00000000E+00  0.00000000E+00  0.00000000E+00  0.00000000E+00  0.00000000E+00
  0.00000000E+00  0.00000000E+00  0.00000000E+00  0.00000000E+00  0.00000000E+00
  0.00000000E+00  0.00000000E+00  4.69916364E-16  0.00000000E+00  0.00000000E+00
  0.00000000E+00 -5.83364962E-03  0.00000000E+00  0.00000000E+00  0.00000000E+00
  0.00000000E+00 -5.07263088E-16  0.00000000E+00  0.00000000E+00  0.00000000E+00
 -2.01399332E-01 -3.47110628E-18  2.42505348E-17 -4.64862079E-16 -2.12367686E-16
 -1.89275644E-16  6.97451694E-16  0.00000000E+00  0.00000000E+00  0.00000000E+00
  0.00000000E+00  0.00000000E+00  0.00000000E+00  0.00000000E+00  0.00000000E+00
  0.00000000E+00  0.00000000E+00  0.00000000E+00  0.00000000E+00  0.00000000E+00
  0.00000000E+00  0.00000000E+00  1.96830865E-16  0.00000000E+00  0.00000000E+00
  3.76174010E-17  0.00000000E+00  7.81904556E-16  0.00000000E+00  0.00000000E+00
 -4.97219171E-17  0.00000000E+00 -1.50413485E-16  0.00000000E+00  0.00000000E+00
 -2.93629718E-16  0.00000000E+00  4.90707243E-16  0.00000000E+00  0.00000000E+00
  4.27252511E-17  0.00000000E+00  0.00000000E+00  0.00000000E+00  0.00000000E+00
  0.00000000E+00  0.00000000E+00  0.00000000E+00  0.00000000E+00  0.00000000E+00
  0.00000000E+00  0.00000000E+00  0.00000000E+00  0.00000000E+00  0.00000000E+00
  0.00000000E+00  0.00000000E+00  0.00000000E+00  0.00000000E+00  0.00000000E+00
  0.00000000E+00  0.00000000E+00  0.00000000E+00  4.11114897E-16  0.00000000E+00
  0.00000000E+00 -3.59070578E-17  0.00000000E+00  0.00000000E+00  0.00000000E+00
 -5.83364962E-03  0.00000000E+00  6.91657133E-17  0.00000000E+00  0.00000000E+00
  3.80017853E-16  0.00000000E+00  0.00000000E+00  0.00000000E+00 -2.01399332E-01
  0.00000000E+00  0.00000000E+00  0.00000000E+00  0.00000000E+00  0.00000000E+00
  0.00000000E+00  0.00000000E+00  0.00000000E+00  0.00000000E+00  0.00000000E+00
  0.00000000E+00  0.00000000E+00  0.00000000E+00  0.00000000E+00  0.00000000E+00
  0.00000000E+00  0.00000000E+00  0.00000000E+00  0.00000000E+00  0.00000000E+00
  0.00000000E+00  0.00000000E+00  0.00000000E+00  0.00000000E+00  0.00000000E+00
  3.45071858E-17  0.00000000E+00  0.00000000E+00  0.00000000E+00  0.00000000E+00
 -1.17182947E-16  0.00000000E+00  0.00000000E+00  0.00000000E+00  0.00000000E+00
  7.49619830E-17  0.00000000E+00  0.00000000E+00  0.00000000E+00  0.00000000E+00
  9.16217021E-17  0.00000000E+00  0.00000000E+00  0.00000000E+00  0.00000000E+00
  0.00000000E+00  0.00000000E+00  0.00000000E+00  0.00000000E+00  0.00000000E+00
  0.00000000E+00  0.00000000E+00  0.00000000E+00  0.00000000E+00  0.00000000E+00
  0.00000000E+00  0.00000000E+00  0.00000000E+00  0.00000000E+00  0.00000000E+00
  0.00000000E+00  0.00000000E+00  0.00000000E+00  0.00000000E+00  0.00000000E+00
  0.00000000E+00  6.09113965E-17  0.00000000E+00  0.00000000E+00  0.00000000E+00
 -5.83364962E-03  0.00000000E+00  0.00000000E+00  0.00000000E+00  0.00000000E+00
  4.06421805E-17  0.00000000E+00  0.00000000E+00  0.00000000E+00 -2.01399332E-01
Multipole Matrix (1,0,0)                   R   N=        3240
 -5.55111512E-17  5.49787208E-17 -5.55111512E-17 -2.63614097E-17  3.03963409E-17
 -5.55111512E-17 -1.49709253E-17  1.76300245E-17 -4.74789162E-17 -5.55111512E-17
 -7.72410145E-18  9.18391659E-18 -3.08056505E-17 -4.69764093E-17 -5.55111512E-17
 -3.77734223E-18  4.50894669E-18 -1.67269219E-17 -2.98414019E-17 -4.65839011E-17
 -5.55111512E-17  1.64199192E-01 -1.99147924E-01  3.56163850E-01  2.56343822E-01
  1.47353649E-01  7.53216724E-02 -5.55111512E-17  0.00000000E+00  0.00000000E+00
  0.00000000E+00  0.00000000E+00  0.00000000E+00  0.00000000E+00  0.00000000E+00
 -5.55111512E-17  0.00000000E+00  0.00000000E+00  0.00000000E+00  0.00000000E+00
  0.00000000E+00  0.00000000E+00  0.00000000E+00  0.00000000E+00 -5.55111512E-17
  8.02705295E-02 -1.06892042E-01  5.81179742E-01  6.75341911E-01  5.11734701E-01
  2.97142221E-01 -3.62653774E-17  0.00000000E+00  0.00000000E+00 -5.55111512E-17
  0.00000000E+00  0.00000000E+00  0.00000000E+00  0.00000000E+00  0.00000000E+00
  0.00000000E+00  0.00000000E+00 -3.62653774E-17  0.00000000E+00  0.00000000E+00
 -5.55111512E-17  0.00000000E+00  0.00000000E+00  0.00000000E+00  0.00000000E+00
  0.00000000E+00  0.00000000E+00  0.00000000E+00  0.00000000E+00 -3.62653774E-17
  0.00000000E+00  0.00000000E+00 -5.55111512E-17  3.06629451E-02 -4.19719926E-02
  4.48047850E-01  9.27669544E-01  1.13902030E+00  8.77094338E-01 -1.52609353E-17
  0.00000000E+00  0.00000000E+00 -4.02877694E-17  0.00000000E+00  0.00000000E+00
 -5.55111512E-17  0.00000000E+00  0.00000000E+00  0.00000000E+00  0.00000000E+00
  0.00000000E+00  0.00000000E+00  0.00000000E+00 -1.52609353E-17  0.00000000E+00
  0.00000000E+00 -4.02877694E-17  0.00000000E+00  0.00000000E+00 -5.55111512E-17
  0.00000000E+00  0.00000000E+00  0.00000000E+00  0.00000000E+00  0.00000000E+00
  0.00000000E+00  0.00000000E+00  0.00000000E+00 -1.52609353E-17  0.00000000E+00
  0.00000000E+00 -4.02877694E-17  0.00000000E+00  0.00000000E+00 -5.55111512E-17
  9.41147234E-03 -1.30216037E-02  1.99293636E-01  6.63276055E-01  1.49555534E+00
  1.93467524E+00 -4.87136789E-18  0.00000000E+00  0.00000000E+00 -1.72282863E-17
  0.00000000E+00  0.00000000E+00 -3.98142327E-17  0.00000000E+00  0.00000000E+00
 -5.55111512E-17  0.00000000E+00  0.00000000E+00  0.00000000E+00  0.00000000E+00
  0.00000000E+00  0.00000000E+00  0.00000000E+00 -4.87136789E-18  0.00000000E+00
  0.00000000E+00 -1.72282863E-17  0.00000000E+00  0.00000000E+00 -3.98142327E-17
  0.00000000E+00  0.00000000E+00 -5.55111512E-17  0.00000000E+00  0.00000000E+00
  0.00000000E+00  0.00000000E+00  0.00000000E+00  0.00000000E+00  0.00000000E+00
  0.00000000E+00 -4.87136789E-18  0.00000000E+00  0.00000000E+00 -1.72282863E-17
  0.00000000E+00  0.00000000E+00 -3.98142327E-17  0.00000000E+00  0.00000000E+00
 -5.55111512E-17  2.38346857E-03 -3.31100984E-03  5.92944418E-02  2.57903375E-01
  9.54660943E-01  2.40732066E+00 -1.25224885E-18  0.00000000E+00  0.00000000E+00
 -5.02984455E-18  0.00000000E+00  0.00000000E+00 -1.55127517E-17  0.00000000E+00
  0.00000000E+00 -3.77203369E-17  0.00000000E+00  0.00000000E+00 -5.55111512E-17
  0.00000000E+00  0.00000000E+00  0.00000000E+00  0.00000000E+00  0.00000000E+00
  0.00000000E+00  0.00000000E+00 -1.25224885E-18  0.00000000E+00  0.00000000E+00
 -5.02984455E-18  0.00000000E+00  0.00000000E+00 -1.55127517E-17  0.00000000E+00
  0.00000000E+00 -3.77203369E-17  0.00000000E+00  0.00000000E+00 -5.55111512E-17
  0.00000000E+00  0.00000000E+00  0.00000000E+00  0.00000000E+00  0.00000000E+00
  0.00000000E+00  0.00000000E+00  0.00000000E+00 -1.25224885E-18  0.00000000E+00
  0.00000000E+00 -5.02984455E-18  0.00000000E+00  0.00000000E+00 -1.55127517E-17
  0.00000000E+00  0.00000000E+00 -3.77203369E-17  0.00000000E+00  0.00000000E+00
 -5.55111512E-17  0.00000000E+00  0.00000000E+00  0.00000000E+00  0.00000000E+00
  0.00000000E+00  0.00000000E+00 -1.62718546E-01  0.00000000E+00  0.00000000E+00
 -2.40280327E-01  0.00000000E+00  0.00000000E+00 -1.42085343E-01  0.00000000E+00
  0.00000000E+00 -5.25317893E-02  0.00000000E+00  0.00000000E+00 -1.43063008E-02
  0.00000000E+00  0.00000000E+00 -5.55111512E-17  0.00000000E+00  0.00000000E+00
  0.00000000E+00  0.00000000E+00  0.00000000E+00  0.00000000E+00  0.00000000E+00
  0.00000000E+00  2.81836790E-01  0.00000000E+00  0.00000000E+00  4.16177735E-01
  0.00000000E+00  0.00000000E+00  2.46099033E-01  0.00000000E+00  0.00000000E+00
  9.09877281E-02  0.00000000E+00  0.00000000E+00  2.47792399E-02  0.00000000E+00
 -5.55111512E-17  0.00000000E+00  0.00000000E+00  0.00000000E+00  0.00000000E+00
  0.00000000E+00  0.00000000E+00  0.00000000E+00  0.00000000E+00  0.00000000E+00
  0.00000000E+00  0.00000000E+00  0.00000000E+00  0.00000000E+00  0.00000000E+00
  0.00000000E+00  0.00000000E+00  0.00000000E+00  0.00000000E+00  0.00000000E+00
  0.00000000E+00  0.00000000E+00  0.00000000E+00  0.00000000E+00 -5.55111512E-17
  6.37918775E-34 -6.53929895E-34 -1.52087533E-33 -1.29376630E-33 -1.32305511E-33
 -3.14426822E-34  2.81836790E-01  0.00000000E+00  0.00000000E+00  4.16177735E-01
  0.00000000E+00  0.00000000E+00  2.46099033E-01  0.00000000E+00  0.00000000E+00
  9.09877281E-02  0.00000000E+00  0.00000000E+00  2.47792399E-02  0.00000000E+00
  0.00000000E+00  2.75227399E-34  0.00000000E+00  0.00000000E+00 -5.55111512E-17
  0.00000000E+00  0.00000000E+00  0.00000000E+00  0.00000000E+00  0.00000000E+00
  0.00000000E+00  0.00000000E+00  2.81836790E-01  0.00000000E+00  0.00000000E+00
  4.16177735E-01  0.00000000E+00  0.00000000E+00  2.46099033E-01  0.00000000E+00
  0.00000000E+00  9.09877281E-02  0.00000000E+00  0.00000000E+00  2.47792399E-02
  0.00000000E+00  0.00000000E+00  0.00000000E+00  0.00000000E+00  0.00000000E+00
 -5.55111512E-17  0.00000000E+00  0.00000000E+00  0.00000000E+00  0.00000000E+00
  0.00000000E+00  0.00000000E+00 -8.16174185E-02  0.00000000E+00  0.00000000E+00
 -3.13087382E-01  0.00000000E+00  0.00000000E+00 -4.06307604E-01  0.00000000E+00
  0.00000000E+00 -2.38299500E-01  0.00000000E+00  0.00000000E+00 -8.00771342E-02
  0.00000000E+00  0.00000000E+00 -3.50894840E-17  0.00000000E+00  0.00000000E+00
 -5.15995069E-34  0.00000000E+00 -5.55111512E-17  0.00000000E+00  0.00000000E+00
  0.00000000E+00  0.00000000E+00  0.00000000E+00  0.00000000E+00  0.00000000E+00
  0.00000000E+00  1.41365516E-01  0.00000000E+00  0.00000000E+00  5.42283253E-01
  0.00000000E+00  0.00000000E+00  7.03745414E-01  0.00000000E+00  0.00000000E+00
  4.12746842E-01  0.00000000E+00  0.00000000E+00  1.38697665E-01  0.00000000E+00
 -3.50894840E-17  0.00000000E+00  0.00000000E+00  0.00000000E+00  0.00000000E+00
 -5.55111512E-17  0.00000000E+00  0.00000000E+00  0.00000000E+00  0.00000000E+00
  0.00000000E+00  0.00000000E+00  0.00000000E+00  0.00000000E+00  0.00000000E+00
  0.00000000E+00  0.00000000E+00  0.00000000E+00  0.00000000E+00  0.00000000E+00
  0.00000000E+00  0.00000000E+00  0.00000000E+00  0.00000000E+00  0.00000000E+00
  0.00000000E+00  0.00000000E+00  0.00000000E+00  0.00000000E+00 -3.50894840E-17
  0.00000000E+00  0.00000000E+00  0.00000000E+00  0.00000000E+00 -5.55111512E-17
  6.71556179E-35 -5.18175958E-35  3.00516579E-34  2.25786018E-33  1.36324224E-33
  8.04997257E-35  1.41365516E-01  0.00000000E+00  0.00000000E+00  5.42283253E-01
  0.00000000E+00  0.00000000E+00  7.03745414E-01  0.00000000E+00  0.00000000E+00
  4.12746842E-01  0.00000000E+00  0.00000000E+00  1.38697665E-01  0.00000000E+00
  0.00000000E+00  5.15995069E-34  0.00000000E+00  0.00000000E+00 -3.50894840E-17
  0.00000000E+00 -5.50454798E-34  0.00000000E+00  0.00000000E+00 -5.55111512E-17
  0.00000000E+00  0.00000000E+00  0.00000000E+00  0.00000000E+00  0.00000000E+00
  0.00000000E+00  0.00000000E+00  1.41365516E-01  0.00000000E+00  0.00000000E+00
  5.42283253E-01  0.00000000E+00  0.00000000E+00  7.03745414E-01  0.00000000E+00
  0.00000000E+00  4.12746842E-01  0.00000000E+00  0.00000000E+00  1.38697665E-01
  0.00000000E+00  0.00000000E+00  0.00000000E+00  0.00000000E+00  0.00000000E+00
 -3.50894840E-17  0.00000000E+00  0.00000000E+00  0.00000000E+00  0.00000000E+00
 -5.55111512E-17  0.00000000E+00  0.00000000E+00  0.00000000E+00  0.00000000E+00
  0.00000000E+00  0.00000000E+00 -2.19502701E-02  0.00000000E+00  0.00000000E+00
 -1.64731821E-01  0.00000000E+00  0.00000000E+00 -5.23969185E-01  0.00000000E+00
  0.00000000E+00 -6.84523273E-01  0.00000000E+00  0.00000000E+00 -3.72755629E-01
  0.00000000E+00  0.00000000E+00 -1.07350463E-17  0.00000000E+00  0.00000000E+00
 -4.84623746E-34  0.00000000E+00 -3.50994930E-17  0.00000000E+00  0.00000000E+00
 -9.91002566E-34  0.00000000E+00 -5.55111512E-17  0.00000000E+00  0.00000000E+00
  0.00000000E+00  0.00000000E+00  0.00000000E+00  0.00000000E+00  0.00000000E+00
  0.00000000E+00  3.80189830E-02  0.00000000E+00  0.00000000E+00  2.85323883E-01
  0.00000000E+00  0.00000000E+00  9.07541250E-01  0.00000000E+00  0.00000000E+00
  1.18562909E+00  0.00000000E+00  0.00000000E+00  6.45631689E-01  0.00000000E+00
 -1.07350463E-17  0.00000000E+00  0.00000000E+00  0.00000000E+00  0.00000000E+00
 -3.50994930E-17  0.00000000E+00  0.00000000E+00  0.00000000E+00  0.00000000E+00
 -5.55111512E-17  0.00000000E+00  0.00000000E+00  0.00000000E+00  0.00000000E+00
  0.00000000E+00  0.00000000E+00  0.00000000E+00  0.00000000E+00  0.00000000E+00
  0.00000000E+00  0.00000000E+00  0.00000000E+00  0.00000000E+00  0.00000000E+00
  0.00000000E+00  0.00000000E+00  0.00000000E+00  0.00000000E+00  0.00000000E+00
  0.00000000E+00  0.00000000E+00  0.00000000E+00  0.00000000E+00 -1.07350463E-17
  0.00000000E+00  0.00000000E+00  0.00000000E+00  0.00000000E+00 -3.50994930E-17
  0.00000000E+00  0.00000000E+00  0.00000000E+00  0.00000000E+00 -5.55111512E-17
 -4.88744819E-36 -1.66050836E-35 -2.72372084E-34 -6.07237145E-34  9.29797766E-34
  2.50707669E-33  3.80189830E-02  0.00000000E+00  0.00000000E+00  2.85323883E-01
  0.00000000E+00  0.00000000E+00  9.07541250E-01  0.00000000E+00  0.00000000E+00
  1.18562909E+00  0.00000000E+00  0.00000000E+00  6.45631689E-01  0.00000000E+00
  0.00000000E+00 -1.06982792E-34  0.00000000E+00  0.00000000E+00 -1.07350463E-17
  0.00000000E+00 -5.49741390E-34  0.00000000E+00  0.00000000E+00 -3.50994930E-17
  0.00000000E+00  2.75227399E-34  0.00000000E+00  0.00000000E+00 -5.55111512E-17
  0.00000000E+00  0.00000000E+00  0.00000000E+00  0.00000000E+00  0.00000000E+00
  0.00000000E+00  0.00000000E+00  3.80189830E-02  0.00000000E+00  0.00000000E+00
  2.85323883E-01  0.00000000E+00  0.00000000E+00  9.07541250E-01  0.00000000E+00
  0.00000000E+00  1.18562909E+00  0.00000000E+00  0.00000000E+00  6.45631689E-01
  0.00000000E+00  0.00000000E+00  0.00000000E+00  0.00000000E+00  0.00000000E+00
 -1.07350463E-17  0.00000000E+00  0.00000000E+00  0.00000000E+00  0.00000000E+00
 -3.50994930E-17  0.00000000E+00  0.00000000E+00  0.00000000E+00  0.00000000E+00
 -5.55111512E-17  0.00000000E+00  0.00000000E+00  0.00000000E+00  0.00000000E+00
  0.00000000E+00  0.00000000E+00 -4.00480734E-03  0.00000000E+00  0.00000000E+00
 -4.23290007E-02  0.00000000E+00  0.00000000E+00 -2.61225373E-01  0.00000000E+00
  0.00000000E+00 -8.80482994E-01  0.00000000E+00  0.00000000E+00 -1.16943360E+00
  0.00000000E+00  0.00000000E+00 -2.07454243E-18  0.00000000E+00  0.00000000E+00
  2.71263875E-36  0.00000000E+00 -1.01012083E-17  0.00000000E+00  0.00000000E+00
  6.36654197E-35  0.00000000E+00 -3.37844538E-17  0.00000000E+00  0.00000000E+00
 -7.77646267E-34  0.00000000E+00 -5.55111512E-17  0.00000000E+00  0.00000000E+00
  0.00000000E+00  0.00000000E+00  0.00000000E+00  0.00000000E+00  0.00000000E+00
  0.00000000E+00  6.93652979E-03  0.00000000E+00  0.00000000E+00  7.33159799E-02
  0.00000000E+00  0.00000000E+00  4.52455618E-01  0.00000000E+00  0.00000000E+00
  1.52504128E+00  0.00000000E+00  0.00000000E+00  2.02551841E+00  0.00000000E+00
 -2.07454243E-18  0.00000000E+00  0.00000000E+00  0.00000000E+00  0.00000000E+00
 -1.01012083E-17  0.00000000E+00  0.00000000E+00  0.00000000E+00  0.00000000E+00
 -3.37844538E-17  0.00000000E+00  0.00000000E+00  0.00000000E+00  0.00000000E+00
 -5.55111512E-17  0.00000000E+00  0.00000000E+00  0.00000000E+00  0.00000000E+00
  0.00000000E+00  0.00000000E+00  0.00000000E+00  0.00000000E+00  0.00000000E+00
  0.00000000E+00  0.00000000E+00  0.00000000E+00  0.00000000E+00  0.00000000E+00
  0.00000000E+00  0.00000000E+00  0.00000000E+00  0.00000000E+00  0.00000000E+00
  0.00000000E+00  0.00000000E+00  0.00000000E+00  0.00000000E+00 -2.07454243E-18
  0.00000000E+00  0.00000000E+00  0.00000000E+00  0.00000000E+00 -1.01012083E-17
  0.00000000E+00  0.00000000E+00  0.00000000E+00  0.00000000E+00 -3.37844538E-17
  0.00000000E+00  0.00000000E+00  0.00000000E+00  0.00000000E+00 -5.55111512E-17
  2.82100590E-36  9.07399565E-36  1.05447838E-34  5.76075950E-34 -1.50300217E-34
  3.04730441E-33  6.93652979E-03  0.00000000E+00  0.00000000E+00  7.33159799E-02
  0.00000000E+00  0.00000000E+00  4.52455618E-01  0.00000000E+00  0.00000000E+00
  1.52504128E+00  0.00000000E+00  0.00000000E+00  2.02551841E+00  0.00000000E+00
  0.00000000E+00 -2.71263875E-36  0.00000000E+00  0.00000000E+00 -2.07454243E-18
  0.00000000E+00 -6.36654197E-35  0.00000000E+00  0.00000000E+00 -1.01012083E-17
  0.00000000E+00 -7.63097689E-34  0.00000000E+00  0.00000000E+00 -3.37844538E-17
  0.00000000E+00 -1.37613700E-34  0.00000000E+00  0.00000000E+00 -5.55111512E-17
  0.00000000E+00  0.00000000E+00  0.00000000E+00  0.00000000E+00  0.00000000E+00
  0.00000000E+00  0.00000000E+00  6.93652979E-03  0.00000000E+00  0.00000000E+00
  7.33159799E-02  0.00000000E+00  0.00000000E+00  4.52455618E-01  0.00000000E+00
  0.00000000E+00  1.52504128E+00  0.00000000E+00  0.00000000E+00  2.02551841E+00
  0.00000000E+00  0.00000000E+00  0.00000000E+00  0.00000000E+00  0.00000000E+00
 -2.07454243E-18  0.00000000E+00  0.00000000E+00  0.00000000E+00  0.00000000E+00
 -1.01012083E-17  0.00000000E+00  0.00000000E+00  0.00000000E+00  0.00000000E+00
 -3.37844538E-17  0.00000000E+00  0.00000000E+00  0.00000000E+00  0.00000000E+00
 -5.55111512E-17  0.00000000E+00  0.00000000E+00  0.00000000E+00  0.00000000E+00
  0.00000000E+00  0.00000000E+00  0.00000000E+00  0.00000000E+00  6.16297582E-33
  0.00000000E+00  0.00000000E+00  6.16297582E-33  0.00000000E+00  0.00000000E+00
  6.16297582E-33  0.00000000E+00  0.00000000E+00  0.00000000E+00  0.00000000E+00
  0.00000000E+00  7.70371978E-34  0.00000000E+00 -2.73967052E-01  0.00000000E+00
  0.00000000E+00  0.00000000E+00  0.00000000E+00 -3.43630587E-01  0.00000000E+00
  0.00000000E+00  0.00000000E+00  0.00000000E+00 -1.53428410E-01  0.00000000E+00
  0.00000000E+00  0.00000000E+00  0.00000000E+00 -3.51052276E-02  0.00000000E+00
  0.00000000E+00  0.00000000E+00 -5.55111512E-17 -1.89704575E-18 -9.76371519E-18
  1.60352132E-16 -5.32046567E-17  3.47702369E-17  6.78784475E-18  6.25962998E-34
  0.00000000E+00  0.00000000E+00 -4.93101000E-33  0.00000000E+00  0.00000000E+00
 -3.48508805E-33  0.00000000E+00  0.00000000E+00 -1.46691250E-33  0.00000000E+00
  0.00000000E+00 -6.21998840E-34  0.00000000E+00  0.00000000E+00  3.87447921E-01
  0.00000000E+00  0.00000000E+00 -1.11846581E-01  0.00000000E+00  4.85967037E-01
  0.00000000E+00  0.00000000E+00 -1.40286600E-01  0.00000000E+00  2.16980539E-01
  0.00000000E+00  0.00000000E+00 -6.26368863E-02  0.00000000E+00  4.96462889E-02
  0.00000000E+00  0.00000000E+00 -1.43316491E-02  0.00000000E+00  0.00000000E+00
 -5.55111512E-17  0.00000000E+00  0.00000000E+00  0.00000000E+00  0.00000000E+00
  0.00000000E+00  0.00000000E+00  0.00000000E+00  6.25962998E-34  0.00000000E+00
  0.00000000E+00 -4.93101000E-33  0.00000000E+00  0.00000000E+00  2.67788777E-33
  0.00000000E+00  0.00000000E+00 -1.46691250E-33  0.00000000E+00  0.00000000E+00
 -6.21998840E-34  0.00000000E+00  0.00000000E+00  0.00000000E+00  0.00000000E+00
  0.00000000E+00 -1.11846581E-01  0.00000000E+00  0.00000000E+00  0.00000000E+00
  0.00000000E+00 -1.40286600E-01  0.00000000E+00  0.00000000E+00  0.00000000E+00
  0.00000000E+00 -6.26368863E-02  0.00000000E+00  0.00000000E+00  0.00000000E+00
  0.00000000E+00 -1.43316491E-02  0.00000000E+00  0.00000000E+00 -5.55111512E-17
  0.00000000E+00  0.00000000E+00  0.00000000E+00  0.00000000E+00  0.00000000E+00
  0.00000000E+00  0.00000000E+00  0.00000000E+00 -8.62147231E-34  0.00000000E+00
  0.00000000E+00 -8.32442651E-34  0.00000000E+00  0.00000000E+00  1.04344829E-33
  0.00000000E+00  0.00000000E+00  6.41728364E-34  0.00000000E+00  0.00000000E+00
  5.64929086E-35  0.00000000E+00  3.53689943E-01  0.00000000E+00  0.00000000E+00
  0.00000000E+00  0.00000000E+00  4.43625181E-01  0.00000000E+00  0.00000000E+00
  0.00000000E+00  0.00000000E+00  1.98075226E-01  0.00000000E+00  0.00000000E+00
  0.00000000E+00  0.00000000E+00  4.53206539E-02  0.00000000E+00  0.00000000E+00
  0.00000000E+00 -3.89413124E-34  0.00000000E+00  0.00000000E+00 -5.55111512E-17
  0.00000000E+00  0.00000000E+00  0.00000000E+00  0.00000000E+00  0.00000000E+00
  0.00000000E+00  0.00000000E+00  0.00000000E+00  0.00000000E+00  0.00000000E+00
  0.00000000E+00  0.00000000E+00  0.00000000E+00  0.00000000E+00  0.00000000E+00
  0.00000000E+00  0.00000000E+00  0.00000000E+00  0.00000000E+00  0.00000000E+00
  0.00000000E+00  0.00000000E+00  0.00000000E+00  3.53689943E-01  0.00000000E+00
  0.00000000E+00  0.00000000E+00  0.00000000E+00  4.43625181E-01  0.00000000E+00
  0.00000000E+00  0.00000000E+00  0.00000000E+00  1.98075226E-01  0.00000000E+00
  0.00000000E+00  0.00000000E+00  0.00000000E+00  4.53206539E-02  0.00000000E+00
  0.00000000E+00  0.00000000E+00  0.00000000E+00  0.00000000E+00  0.00000000E+00
 -5.55111512E-17  4.40820757E-18  6.43426421E-18  3.85277317E-17  1.18869787E-16
  7.67416747E-18  3.83830456E-17 -5.33954552E-33  0.00000000E+00  0.00000000E+00
 -3.59700825E-33  0.00000000E+00  0.00000000E+00 -3.74155202E-33  0.00000000E+00
  0.00000000E+00 -8.07538447E-34  0.00000000E+00  0.00000000E+00 -1.34329524E-34
  0.00000000E+00  0.00000000E+00 -7.53929636E-17  0.00000000E+00  0.00000000E+00
  4.33179944E-01  0.00000000E+00 -4.96749954E-17  0.00000000E+00  0.00000000E+00
  5.43327665E-01  0.00000000E+00  2.17119193E-17  0.00000000E+00  0.00000000E+00
  2.42591617E-01  0.00000000E+00  2.89037763E-18  0.00000000E+00  0.00000000E+00
  5.55062384E-02  0.00000000E+00  0.00000000E+00 -7.33422548E-33  0.00000000E+00
  0.00000000E+00  0.00000000E+00 -5.55111512E-17  0.00000000E+00  0.00000000E+00
  0.00000000E+00  0.00000000E+00  0.00000000E+00  0.00000000E+00  0.00000000E+00
  5.28988444E-33  0.00000000E+00  0.00000000E+00  6.18564029E-33  0.00000000E+00
  0.00000000E+00  3.99763858E-33  0.00000000E+00  0.00000000E+00  1.41285169E-33
  0.00000000E+00  0.00000000E+00  1.55568956E-34  0.00000000E+00  0.00000000E+00
  0.00000000E+00  0.00000000E+00  0.00000000E+00  4.33179944E-01  0.00000000E+00
  0.00000000E+00  0.00000000E+00  0.00000000E+00  5.43327665E-01  0.00000000E+00
  0.00000000E+00  0.00000000E+00  0.00000000E+00  2.42591617E-01  0.00000000E+00
  0.00000000E+00  0.00000000E+00  0.00000000E+00  5.55062384E-02  0.00000000E+00
  0.00000000E+00  1.99703632E-33  0.00000000E+00  0.00000000E+00  0.00000000E+00
 -5.55111512E-17  0.00000000E+00  0.00000000E+00  0.00000000E+00  0.00000000E+00
  0.00000000E+00  0.00000000E+00  0.00000000E+00  0.00000000E+00  7.70371978E-34
  0.00000000E+00  0.00000000E+00  0.00000000E+00  0.00000000E+00  0.00000000E+00
  6.16297582E-33  0.00000000E+00  0.00000000E+00  6.16297582E-33  0.00000000E+00
  0.00000000E+00  1.54074396E-33  0.00000000E+00 -1.11355492E-01  0.00000000E+00
  0.00000000E+00  0.00000000E+00  0.00000000E+00 -4.58425741E-01  0.00000000E+00
  0.00000000E+00  0.00000000E+00  0.00000000E+00 -5.93038133E-01  0.00000000E+00
  0.00000000E+00  0.00000000E+00  0.00000000E+00 -2.57381853E-01  0.00000000E+00
  0.00000000E+00  0.00000000E+00 -2.98808721E-17  0.00000000E+00  0.00000000E+00
  1.08115577E-33  0.00000000E+00  0.00000000E+00  0.00000000E+00 -5.55111512E-17
  1.00597503E-18 -4.97146953E-19  4.57585249E-17 -1.39434198E-17  7.10203868E-17
 -8.98542751E-19 -7.32666208E-34  0.00000000E+00  0.00000000E+00 -1.73284303E-33
  0.00000000E+00  0.00000000E+00 -9.40027525E-34  0.00000000E+00  0.00000000E+00
 -2.25239720E-33  0.00000000E+00  0.00000000E+00 -1.46892881E-33  0.00000000E+00
  0.00000000E+00  1.57480446E-01  0.00000000E+00  0.00000000E+00 -4.54606891E-02
  0.00000000E+00  6.48311900E-01  0.00000000E+00  0.00000000E+00 -1.87151525E-01
  0.00000000E+00  8.38682571E-01  0.00000000E+00  0.00000000E+00 -2.42106804E-01
  0.00000000E+00  3.63992907E-01  0.00000000E+00  0.00000000E+00 -1.05075701E-01
  0.00000000E+00  0.00000000E+00 -2.98808721E-17  0.00000000E+00  0.00000000E+00
  0.00000000E+00 -8.37987676E-34  0.00000000E+00  0.00000000E+00 -5.55111512E-17
  0.00000000E+00  0.00000000E+00  0.00000000E+00  0.00000000E+00  0.00000000E+00
  0.00000000E+00  0.00000000E+00 -7.32666208E-34  0.00000000E+00  0.00000000E+00
 -1.73284303E-33  0.00000000E+00  0.00000000E+00 -9.40027525E-34  0.00000000E+00
  0.00000000E+00 -2.25239720E-33  0.00000000E+00  0.00000000E+00 -1.46892881E-33
  0.00000000E+00  0.00000000E+00  0.00000000E+00  0.00000000E+00  0.00000000E+00
 -4.54606891E-02  0.00000000E+00  0.00000000E+00  0.00000000E+00  0.00000000E+00
 -1.87151525E-01  0.00000000E+00  0.00000000E+00  0.00000000E+00  0.00000000E+00
 -2.42106804E-01  0.00000000E+00  0.00000000E+00  0.00000000E+00  0.00000000E+00
 -1.05075701E-01  0.00000000E+00  0.00000000E+00 -2.98808721E-17  0.00000000E+00
  0.00000000E+00  0.00000000E+00  2.97089866E-33  0.00000000E+00  0.00000000E+00
 -5.55111512E-17  0.00000000E+00  0.00000000E+00  0.00000000E+00  0.00000000E+00
  0.00000000E+00  0.00000000E+00  0.00000000E+00  0.00000000E+00 -1.71451169E-34
  0.00000000E+00  0.00000000E+00  1.18000704E-33  0.00000000E+00  0.00000000E+00
 -1.59941866E-34  0.00000000E+00  0.00000000E+00 -5.14912495E-34  0.00000000E+00
  0.00000000E+00 -5.22072776E-34  0.00000000E+00  1.43759321E-01  0.00000000E+00
  0.00000000E+00  0.00000000E+00  0.00000000E+00  5.91825087E-01  0.00000000E+00
  0.00000000E+00  0.00000000E+00  0.00000000E+00  7.65608937E-01  0.00000000E+00
  0.00000000E+00  0.00000000E+00  0.00000000E+00  3.32278543E-01  0.00000000E+00
  0.00000000E+00  0.00000000E+00 -3.52536016E-34  0.00000000E+00  0.00000000E+00
 -2.98808721E-17  0.00000000E+00  0.00000000E+00  0.00000000E+00 -1.21509532E-33
  0.00000000E+00  0.00000000E+00 -5.55111512E-17  0.00000000E+00  0.00000000E+00
  0.00000000E+00  0.00000000E+00  0.00000000E+00  0.00000000E+00  0.00000000E+00
  0.00000000E+00  0.00000000E+00  0.00000000E+00  0.00000000E+00  0.00000000E+00
  0.00000000E+00  0.00000000E+00  0.00000000E+00  0.00000000E+00  0.00000000E+00
  0.00000000E+00  0.00000000E+00  0.00000000E+00  0.00000000E+00  0.00000000E+00
  0.00000000E+00  1.43759321E-01  0.00000000E+00  0.00000000E+00  0.00000000E+00
  0.00000000E+00  5.91825087E-01  0.00000000E+00  0.00000000E+00  0.00000000E+00
  0.00000000E+00  7.65608937E-01  0.00000000E+00  0.00000000E+00  0.00000000E+00
  0.00000000E+00  3.32278543E-01  0.00000000E+00  0.00000000E+00  0.00000000E+00
  0.00000000E+00  0.00000000E+00  0.00000000E+00 -2.98808721E-17  0.00000000E+00
  0.00000000E+00  0.00000000E+00  0.00000000E+00  0.00000000E+00  0.00000000E+00
 -5.55111512E-17  7.11133684E-19 -6.95205260E-19  3.39952467E-17  7.90228115E-17
 -1.42482669E-17  3.89551585E-17  9.16887770E-35  0.00000000E+00  0.00000000E+00
 -2.98653570E-33  0.00000000E+00  0.00000000E+00 -3.42311733E-33  0.00000000E+00
  0.00000000E+00 -6.64988722E-33  0.00000000E+00  0.00000000E+00 -1.18376279E-33
  0.00000000E+00  0.00000000E+00 -4.10467428E-17  0.00000000E+00  0.00000000E+00
  1.76068492E-01  0.00000000E+00 -9.77301164E-17  0.00000000E+00  0.00000000E+00
  7.24834740E-01  0.00000000E+00  5.07775161E-17  0.00000000E+00  0.00000000E+00
  9.37675620E-01  0.00000000E+00 -3.94483275E-17  0.00000000E+00  0.00000000E+00
  4.06956441E-01  0.00000000E+00  0.00000000E+00 -1.78550684E-33  0.00000000E+00
  0.00000000E+00  0.00000000E+00 -2.98808721E-17  0.00000000E+00  0.00000000E+00
 -1.17124966E-33  0.00000000E+00  0.00000000E+00  0.00000000E+00 -5.55111512E-17
  0.00000000E+00  0.00000000E+00  0.00000000E+00  0.00000000E+00  0.00000000E+00
  0.00000000E+00  0.00000000E+00 -8.67974746E-35  0.00000000E+00  0.00000000E+00
  2.74970662E-33  0.00000000E+00  0.00000000E+00  4.72865517E-33  0.00000000E+00
  0.00000000E+00  3.35758861E-33  0.00000000E+00  0.00000000E+00  8.93806875E-34
  0.00000000E+00  0.00000000E+00  0.00000000E+00  0.00000000E+00  0.00000000E+00
  1.76068492E-01  0.00000000E+00  0.00000000E+00  0.00000000E+00  0.00000000E+00
  7.24834740E-01  0.00000000E+00  0.00000000E+00  0.00000000E+00  0.00000000E+00
  9.37675620E-01  0.00000000E+00  0.00000000E+00  0.00000000E+00  0.00000000E+00
  4.06956441E-01  0.00000000E+00  0.00000000E+00 -7.15995126E-34  0.00000000E+00
  0.00000000E+00  0.00000000E+00 -2.98808721E-17  0.00000000E+00  0.00000000E+00
 -6.49097340E-34  0.00000000E+00  0.00000000E+00  0.00000000E+00 -5.55111512E-17
  0.00000000E+00  0.00000000E+00  0.00000000E+00  0.00000000E+00  0.00000000E+00
  0.00000000E+00  0.00000000E+00  0.00000000E+00  0.00000000E+00  0.00000000E+00
  0.00000000E+00  0.00000000E+00  0.00000000E+00  0.00000000E+00  0.00000000E+00
  0.00000000E+00  0.00000000E+00  0.00000000E+00  0.00000000E+00  0.00000000E+00
  0.00000000E+00  0.00000000E+00 -2.41275267E-02  0.00000000E+00  0.00000000E+00
  0.00000000E+00  0.00000000E+00 -2.11750379E-01  0.00000000E+00  0.00000000E+00
  0.00000000E+00  0.00000000E+00 -7.93402878E-01  0.00000000E+00  0.00000000E+00
  0.00000000E+00  0.00000000E+00 -9.06713840E-01  0.00000000E+00  0.00000000E+00
  0.00000000E+00 -7.52946788E-18  0.00000000E+00  0.00000000E+00 -4.43055662E-34
  0.00000000E+00  0.00000000E+00  0.00000000E+00 -3.39168892E-17  0.00000000E+00
  0.00000000E+00  2.87671872E-34  0.00000000E+00  0.00000000E+00  0.00000000E+00
 -5.55111512E-17  7.20487903E-20 -3.07592797E-19 -5.70114785E-18  8.03157286E-17
  1.20806268E-16 -1.21317401E-16 -1.01146201E-34  0.00000000E+00  0.00000000E+00
 -1.06413805E-33  0.00000000E+00  0.00000000E+00 -4.96895735E-34  0.00000000E+00
  0.00000000E+00  9.59114360E-33  0.00000000E+00  0.00000000E+00 -2.87323204E-33
  0.00000000E+00  0.00000000E+00  3.41214756E-02  0.00000000E+00  0.00000000E+00
 -9.85002155E-03  0.00000000E+00  2.99460257E-01  0.00000000E+00  0.00000000E+00
 -8.64467301E-02  0.00000000E+00  1.12204111E+00  0.00000000E+00  0.00000000E+00
 -3.23905369E-01  0.00000000E+00  1.28228701E+00  0.00000000E+00  0.00000000E+00
 -3.70164375E-01  0.00000000E+00  0.00000000E+00 -7.52946788E-18  0.00000000E+00
  0.00000000E+00  0.00000000E+00 -3.31535901E-34  0.00000000E+00  0.00000000E+00
 -3.39168892E-17  0.00000000E+00  0.00000000E+00  0.00000000E+00 -4.74654583E-33
  0.00000000E+00  0.00000000E+00 -5.55111512E-17  0.00000000E+00  0.00000000E+00
  0.00000000E+00  0.00000000E+00  0.00000000E+00  0.00000000E+00  0.00000000E+00
 -1.01146201E-34  0.00000000E+00  0.00000000E+00 -1.06413805E-33  0.00000000E+00
  0.00000000E+00 -4.96895735E-34  0.00000000E+00  0.00000000E+00  3.42816778E-33
  0.00000000E+00  0.00000000E+00  2.08255871E-34  0.00000000E+00  0.00000000E+00
  0.00000000E+00  0.00000000E+00  0.00000000E+00 -9.85002155E-03  0.00000000E+00
  0.00000000E+00  0.00000000E+00  0.00000000E+00 -8.64467301E-02  0.00000000E+00
  0.00000000E+00  0.00000000E+00  0.00000000E+00 -3.23905369E-01  0.00000000E+00
  0.00000000E+00  0.00000000E+00  0.00000000E+00 -3.70164375E-01  0.00000000E+00
  0.00000000E+00 -7.52946788E-18  0.00000000E+00  0.00000000E+00  0.00000000E+00
  3.00646900E-34  0.00000000E+00  0.00000000E+00 -3.39168892E-17  0.00000000E+00
  0.00000000E+00  0.00000000E+00  3.99046718E-33  0.00000000E+00  0.00000000E+00
 -5.55111512E-17  0.00000000E+00  0.00000000E+00  0.00000000E+00  0.00000000E+00
  0.00000000E+00  0.00000000E+00  0.00000000E+00  0.00000000E+00  2.70192282E-35
  0.00000000E+00  0.00000000E+00  2.62776934E-34  0.00000000E+00  0.00000000E+00
 -3.07641490E-34  0.00000000E+00  0.00000000E+00 -9.37187622E-34  0.00000000E+00
  0.00000000E+00  6.96304787E-34  0.00000000E+00  3.11485031E-02  0.00000000E+00
  0.00000000E+00  0.00000000E+00  0.00000000E+00  2.73368563E-01  0.00000000E+00
  0.00000000E+00  0.00000000E+00  0.00000000E+00  1.02427871E+00  0.00000000E+00
  0.00000000E+00  0.00000000E+00  0.00000000E+00  1.17056253E+00  0.00000000E+00
  0.00000000E+00  0.00000000E+00 -6.49581343E-34  0.00000000E+00  0.00000000E+00
 -7.52946788E-18  0.00000000E+00  0.00000000E+00  0.00000000E+00  6.03295612E-33
  0.00000000E+00  0.00000000E+00 -3.39168892E-17  0.00000000E+00  0.00000000E+00
  0.00000000E+00  1.45355149E-33  0.00000000E+00  0.00000000E+00 -5.55111512E-17
  0.00000000E+00  0.00000000E+00  0.00000000E+00  0.00000000E+00  0.00000000E+00
  0.00000000E+00  0.00000000E+00  0.00000000E+00  0.00000000E+00  0.00000000E+00
  0.00000000E+00  0.00000000E+00  0.00000000E+00  0.00000000E+00  0.00000000E+00
  0.00000000E+00  0.00000000E+00  0.00000000E+00  0.00000000E+00  0.00000000E+00
  0.00000000E+00  0.00000000E+00  0.00000000E+00  3.11485031E-02  0.00000000E+00
  0.00000000E+00  0.00000000E+00  0.00000000E+00  2.73368563E-01  0.00000000E+00
  0.00000000E+00  0.00000000E+00  0.00000000E+00  1.02427871E+00  0.00000000E+00
  0.00000000E+00  0.00000000E+00  0.00000000E+00  1.17056253E+00  0.00000000E+00
  0.00000000E+00  0.00000000E+00  0.00000000E+00  0.00000000E+00  0.00000000E+00
 -7.52946788E-18  0.00000000E+00  0.00000000E+00  0.00000000E+00  0.00000000E+00
  0.00000000E+00  0.00000000E+00 -3.39168892E-17  0.00000000E+00  0.00000000E+00
  0.00000000E+00  0.00000000E+00  0.00000000E+00  0.00000000E+00 -5.55111512E-17
  1.32850799E-19 -3.56467384E-19  2.18089950E-18  4.99245587E-17  2.35524625E-16
  3.45760933E-16 -3.58140908E-35  0.00000000E+00  0.00000000E+00 -8.26813221E-34
  0.00000000E+00  0.00000000E+00 -2.07310400E-33  0.00000000E+00  0.00000000E+00
 -3.07499441E-33  0.00000000E+00  0.00000000E+00 -1.93641277E-33  0.00000000E+00
  0.00000000E+00 -6.35012530E-18  0.00000000E+00  0.00000000E+00  3.81489694E-02
  0.00000000E+00 -4.64527000E-17  0.00000000E+00  0.00000000E+00  3.34806746E-01
  0.00000000E+00 -2.59538620E-16  0.00000000E+00  0.00000000E+00  1.25448010E+00
  0.00000000E+00 -2.91969675E-16  0.00000000E+00  0.00000000E+00  1.43364046E+00
  0.00000000E+00  0.00000000E+00 -3.87092968E-34  0.00000000E+00  0.00000000E+00
  0.00000000E+00 -7.52946788E-18  0.00000000E+00  0.00000000E+00 -4.16807294E-33
  0.00000000E+00  0.00000000E+00  0.00000000E+00 -3.39168892E-17  0.00000000E+00
  0.00000000E+00  6.49879673E-34  0.00000000E+00  0.00000000E+00  0.00000000E+00
 -5.55111512E-17  0.00000000E+00  0.00000000E+00  0.00000000E+00  0.00000000E+00
  0.00000000E+00  0.00000000E+00  0.00000000E+00 -4.62343517E-35  0.00000000E+00
  0.00000000E+00  4.75307883E-34  0.00000000E+00  0.00000000E+00  3.64283196E-33
  0.00000000E+00  0.00000000E+00  1.41017306E-33  0.00000000E+00  0.00000000E+00
  4.13935512E-33  0.00000000E+00  0.00000000E+00  0.00000000E+00  0.00000000E+00
  0.00000000E+00  3.81489694E-02  0.00000000E+00  0.00000000E+00  0.00000000E+00
  0.00000000E+00  3.34806746E-01  0.00000000E+00  0.00000000E+00  0.00000000E+00
  0.00000000E+00  1.25448010E+00  0.00000000E+00  0.00000000E+00  0.00000000E+00
  0.00000000E+00  1.43364046E+00  0.00000000E+00  0.00000000E+00  5.85137680E-34
  0.00000000E+00  0.00000000E+00  0.00000000E+00 -7.52946788E-18  0.00000000E+00
  0.00000000E+00  3.72907431E-33  0.00000000E+00  0.00000000E+00  0.00000000E+00
 -3.39168892E-17  0.00000000E+00  0.00000000E+00 -2.31667712E-33  0.00000000E+00
  0.00000000E+00  0.00000000E+00 -5.55111512E-17  7.70371978E-34  0.00000000E+00
  0.00000000E+00  6.16297582E-33  3.08148791E-33  3.08148791E-33  0.00000000E+00
  0.00000000E+00  0.00000000E+00 -2.77555756E-17  0.00000000E+00  0.00000000E+00
 -2.77555756E-17  0.00000000E+00  0.00000000E+00 -1.38777878E-17  0.00000000E+00
  0.00000000E+00  0.00000000E+00  0.00000000E+00  0.00000000E+00  0.00000000E+00
  0.00000000E+00  0.00000000E+00 -8.24298828E-34  0.00000000E+00  1.23259516E-32
  0.00000000E+00  0.00000000E+00  1.33854653E-33  0.00000000E+00 -3.08148791E-33
  0.00000000E+00  0.00000000E+00  1.43475429E-33  0.00000000E+00 -2.31111593E-33
  0.00000000E+00  0.00000000E+00  3.28206600E-36  0.00000000E+00  0.00000000E+00
 -3.59213912E-01  0.00000000E+00  0.00000000E+00  0.00000000E+00 -8.92224932E-17
  0.00000000E+00  0.00000000E+00 -4.62404882E-01  0.00000000E+00  0.00000000E+00
  0.00000000E+00  2.42548664E-17  0.00000000E+00  0.00000000E+00 -1.83805448E-01
  0.00000000E+00  0.00000000E+00  0.00000000E+00 -2.22435813E-17  0.00000000E+00
 -5.55111512E-17  0.00000000E+00  0.00000000E+00  0.00000000E+00  0.00000000E+00
  0.00000000E+00  0.00000000E+00  0.00000000E+00  0.00000000E+00 -9.94296065E-18
  0.00000000E+00  0.00000000E+00 -1.05784430E-16  0.00000000E+00  0.00000000E+00
 -1.08732955E-16  0.00000000E+00  0.00000000E+00  4.67388107E-17  0.00000000E+00
  0.00000000E+00 -3.16647524E-17  0.00000000E+00  4.91933820E-33  0.00000000E+00
  0.00000000E+00  0.00000000E+00  0.00000000E+00  3.76812998E-33  0.00000000E+00
  0.00000000E+00  0.00000000E+00  0.00000000E+00  1.02808401E-32  0.00000000E+00
  0.00000000E+00  0.00000000E+00  0.00000000E+00  2.62206109E-33  0.00000000E+00
  0.00000000E+00  0.00000000E+00  4.63743167E-01  0.00000000E+00  0.00000000E+00
 -1.79606956E-01  0.00000000E+00  0.00000000E+00  0.00000000E+00  5.96962136E-01
  0.00000000E+00  0.00000000E+00 -2.31202441E-01  0.00000000E+00  0.00000000E+00
  0.00000000E+00  2.37291813E-01  0.00000000E+00  0.00000000E+00 -9.19027238E-02
  0.00000000E+00  0.00000000E+00  0.00000000E+00  0.00000000E+00 -5.55111512E-17
  0.00000000E+00  0.00000000E+00  0.00000000E+00  0.00000000E+00  0.00000000E+00
  0.00000000E+00  0.00000000E+00  0.00000000E+00  0.00000000E+00  0.00000000E+00
  0.00000000E+00  0.00000000E+00  0.00000000E+00  0.00000000E+00  0.00000000E+00
  0.00000000E+00  0.00000000E+00  0.00000000E+00  0.00000000E+00  0.00000000E+00
  0.00000000E+00  0.00000000E+00  0.00000000E+00  4.91933820E-33  0.00000000E+00
  0.00000000E+00  0.00000000E+00  0.00000000E+00  3.76812998E-33  0.00000000E+00
  0.00000000E+00  0.00000000E+00  0.00000000E+00  1.02808401E-32  0.00000000E+00
  0.00000000E+00  0.00000000E+00  0.00000000E+00  2.62206109E-33  0.00000000E+00
  0.00000000E+00  0.00000000E+00  0.00000000E+00  0.00000000E+00  0.00000000E+00
 -1.79606956E-01  0.00000000E+00  0.00000000E+00  0.00000000E+00  0.00000000E+00
  0.00000000E+00  0.00000000E+00 -2.31202441E-01  0.00000000E+00  0.00000000E+00
  0.00000000E+00  0.00000000E+00  0.00000000E+00  0.00000000E+00 -9.19027238E-02
  0.00000000E+00  0.00000000E+00  0.00000000E+00  0.00000000E+00 -5.55111512E-17
 -7.57113649E-35 -4.76019922E-35 -1.44227466E-33  2.22069232E-33 -2.56780348E-34
 -1.16859922E-34 -7.20399830E-18  0.00000000E+00  0.00000000E+00 -5.95431588E-18
  0.00000000E+00  0.00000000E+00 -1.99755565E-17  0.00000000E+00  0.00000000E+00
 -2.14438388E-17  0.00000000E+00  0.00000000E+00 -1.08866634E-17  0.00000000E+00
  0.00000000E+00  2.85148996E-34  0.00000000E+00  0.00000000E+00 -9.26994009E-33
  0.00000000E+00  4.77788466E-34  0.00000000E+00  0.00000000E+00  5.98679051E-33
  0.00000000E+00 -1.24368413E-33  0.00000000E+00  0.00000000E+00 -4.10237164E-34
  0.00000000E+00  1.33894435E-35  0.00000000E+00  0.00000000E+00  6.23570714E-35
  0.00000000E+00  0.00000000E+00  4.01613363E-01  0.00000000E+00  0.00000000E+00
  0.00000000E+00 -1.03696124E-01  0.00000000E+00  0.00000000E+00  5.16984375E-01
  0.00000000E+00  0.00000000E+00  0.00000000E+00 -1.33484792E-01  0.00000000E+00
  0.00000000E+00  2.05500738E-01  0.00000000E+00  0.00000000E+00  0.00000000E+00
 -5.30600623E-02  0.00000000E+00 -1.08068684E-33  0.00000000E+00  0.00000000E+00
 -5.55111512E-17  0.00000000E+00  0.00000000E+00  0.00000000E+00  0.00000000E+00
  0.00000000E+00  0.00000000E+00  0.00000000E+00 -2.07767151E-17  0.00000000E+00
  0.00000000E+00 -4.84246215E-18  0.00000000E+00  0.00000000E+00 -1.29689183E-17
  0.00000000E+00  0.00000000E+00 -5.35793795E-17  0.00000000E+00  0.00000000E+00
 -1.33633918E-19  0.00000000E+00  0.00000000E+00  0.00000000E+00  0.00000000E+00
  0.00000000E+00 -1.58848729E-33  0.00000000E+00  0.00000000E+00  0.00000000E+00
  0.00000000E+00  8.02187132E-33  0.00000000E+00  0.00000000E+00  0.00000000E+00
  0.00000000E+00  2.64038513E-33  0.00000000E+00  0.00000000E+00  0.00000000E+00
  0.00000000E+00 -1.24385191E-33  0.00000000E+00  0.00000000E+00  4.01613363E-01
  0.00000000E+00  0.00000000E+00  0.00000000E+00 -1.03696124E-01  0.00000000E+00
  0.00000000E+00  5.16984375E-01  0.00000000E+00  0.00000000E+00  0.00000000E+00
 -1.33484792E-01  0.00000000E+00  0.00000000E+00  2.05500738E-01  0.00000000E+00
  0.00000000E+00  0.00000000E+00 -5.30600623E-02  0.00000000E+00  0.00000000E+00
  0.00000000E+00  0.00000000E+00 -5.55111512E-17  0.00000000E+00  0.00000000E+00
  0.00000000E+00  0.00000000E+00  0.00000000E+00  0.00000000E+00  0.00000000E+00
  0.00000000E+00  2.41678868E-18  0.00000000E+00  0.00000000E+00 -1.56044039E-17
  0.00000000E+00  0.00000000E+00 -2.64987511E-17  0.00000000E+00  0.00000000E+00
  4.49193142E-18  0.00000000E+00  0.00000000E+00 -2.36844117E-18  0.00000000E+00
  1.07660129E-33  0.00000000E+00  0.00000000E+00  0.00000000E+00  0.00000000E+00
 -3.62200974E-33  0.00000000E+00  0.00000000E+00  0.00000000E+00  0.00000000E+00
  3.14638648E-33  0.00000000E+00  0.00000000E+00  0.00000000E+00  0.00000000E+00
 -3.36620420E-34  0.00000000E+00  0.00000000E+00  0.00000000E+00 -8.07588141E-17
  0.00000000E+00  0.00000000E+00  4.75195340E-01  0.00000000E+00  0.00000000E+00
  0.00000000E+00  3.48864165E-17  0.00000000E+00  0.00000000E+00  6.11704162E-01
  0.00000000E+00  0.00000000E+00  0.00000000E+00 -4.04661676E-17  0.00000000E+00
  0.00000000E+00  2.43151752E-01  0.00000000E+00  0.00000000E+00  0.00000000E+00
  0.00000000E+00  7.91528354E-34  0.00000000E+00  0.00000000E+00  0.00000000E+00
 -5.55111512E-17  0.00000000E+00  0.00000000E+00  0.00000000E+00  0.00000000E+00
  0.00000000E+00  0.00000000E+00  0.00000000E+00  0.00000000E+00  0.00000000E+00
  0.00000000E+00  0.00000000E+00  0.00000000E+00  0.00000000E+00  0.00000000E+00
  0.00000000E+00  0.00000000E+00  0.00000000E+00  0.00000000E+00  0.00000000E+00
  0.00000000E+00  0.00000000E+00  0.00000000E+00  0.00000000E+00 -5.27150714E-34
  0.00000000E+00  0.00000000E+00  0.00000000E+00  0.00000000E+00  6.87252764E-33
  0.00000000E+00  0.00000000E+00  0.00000000E+00  0.00000000E+00 -2.53630599E-33
  0.00000000E+00  0.00000000E+00  0.00000000E+00  0.00000000E+00 -2.05910359E-34
  0.00000000E+00  0.00000000E+00  0.00000000E+00  0.00000000E+00  0.00000000E+00
  0.00000000E+00  4.75195340E-01  0.00000000E+00  0.00000000E+00  0.00000000E+00
  0.00000000E+00  0.00000000E+00  0.00000000E+00  6.11704162E-01  0.00000000E+00
  0.00000000E+00  0.00000000E+00  0.00000000E+00  0.00000000E+00  0.00000000E+00
  2.43151752E-01  0.00000000E+00  0.00000000E+00  0.00000000E+00  0.00000000E+00
 -4.53959271E-34  0.00000000E+00  0.00000000E+00  0.00000000E+00 -5.55111512E-17
  1.27362986E-34  5.36318340E-35 -4.69807426E-33  1.11645477E-32  1.85184376E-33
 -3.11243276E-33 -2.23414201E-17  0.00000000E+00  0.00000000E+00 -2.74238828E-17
  0.00000000E+00  0.00000000E+00  7.50552070E-18  0.00000000E+00  0.00000000E+00
  4.41040910E-18  0.00000000E+00  0.00000000E+00 -1.28576626E-18  0.00000000E+00
  0.00000000E+00 -7.46143737E-33  0.00000000E+00  0.00000000E+00  3.15834406E-34
  0.00000000E+00  3.06896638E-33  0.00000000E+00  0.00000000E+00  4.26656029E-33
  0.00000000E+00 -6.70080390E-33  0.00000000E+00  0.00000000E+00  1.34125244E-33
  0.00000000E+00  1.23824414E-33  0.00000000E+00  0.00000000E+00 -3.72026115E-34
  0.00000000E+00  0.00000000E+00  2.72462974E-17  0.00000000E+00  0.00000000E+00
  0.00000000E+00  5.48708315E-01  0.00000000E+00  0.00000000E+00  3.34621699E-17
  0.00000000E+00  0.00000000E+00  0.00000000E+00  7.06335125E-01  0.00000000E+00
  0.00000000E+00 -3.08488426E-17  0.00000000E+00  0.00000000E+00  0.00000000E+00
  2.80767459E-01  0.00000000E+00  2.56162571E-34  0.00000000E+00  0.00000000E+00
  2.19723883E-33  0.00000000E+00  0.00000000E+00  0.00000000E+00 -5.55111512E-17
  0.00000000E+00  0.00000000E+00  0.00000000E+00  0.00000000E+00  0.00000000E+00
  0.00000000E+00  0.00000000E+00 -5.22956023E-18  0.00000000E+00  0.00000000E+00
 -3.15777538E-17  0.00000000E+00  0.00000000E+00 -2.88405320E-17  0.00000000E+00
  0.00000000E+00  1.61768807E-18  0.00000000E+00  0.00000000E+00  5.83921927E-18
  0.00000000E+00  0.00000000E+00  0.00000000E+00  0.00000000E+00  0.00000000E+00
  8.98577838E-34  0.00000000E+00  0.00000000E+00  0.00000000E+00  0.00000000E+00
  2.73961905E-33  0.00000000E+00  0.00000000E+00  0.00000000E+00  0.00000000E+00
  2.09217859E-33  0.00000000E+00  0.00000000E+00  0.00000000E+00  0.00000000E+00
  1.66134025E-34  0.00000000E+00  0.00000000E+00 -6.14261923E-17  0.00000000E+00
  0.00000000E+00  0.00000000E+00  5.48708315E-01  0.00000000E+00  0.00000000E+00
 -4.10048044E-17  0.00000000E+00  0.00000000E+00  0.00000000E+00  7.06335125E-01
  0.00000000E+00  0.00000000E+00 -4.96631115E-18  0.00000000E+00  0.00000000E+00
  0.00000000E+00  2.80767459E-01  0.00000000E+00  0.00000000E+00  0.00000000E+00
  0.00000000E+00  1.26968185E-33  0.00000000E+00  0.00000000E+00  0.00000000E+00
 -5.55111512E-17  7.22223729E-35  0.00000000E+00  4.62223187E-33  3.08148791E-33
  6.16297582E-33  3.08148791E-33 -3.46944695E-18  0.00000000E+00  0.00000000E+00
  0.00000000E+00  0.00000000E+00  0.00000000E+00 -2.77555756E-16  0.00000000E+00
  0.00000000E+00 -1.66533454E-16  0.00000000E+00  0.00000000E+00  2.77555756E-17
  0.00000000E+00  0.00000000E+00  0.00000000E+00  0.00000000E+00  0.00000000E+00
  6.05187831E-34  0.00000000E+00 -3.08148791E-33  0.00000000E+00  0.00000000E+00
  1.51235936E-33  0.00000000E+00  6.16297582E-33  0.00000000E+00  0.00000000E+00
 -4.90280154E-34  0.00000000E+00 -3.08148791E-33  0.00000000E+00  0.00000000E+00
 -1.05977881E-34  0.00000000E+00  0.00000000E+00 -1.50656800E-01  0.00000000E+00
  0.00000000E+00  0.00000000E+00  4.90286706E-17  0.00000000E+00  0.00000000E+00
 -6.56500779E-01  0.00000000E+00  0.00000000E+00  0.00000000E+00 -3.24562323E-17
  0.00000000E+00  0.00000000E+00 -6.83651309E-01  0.00000000E+00  0.00000000E+00
  0.00000000E+00  6.61978411E-17  0.00000000E+00 -3.35491513E-17  0.00000000E+00
  0.00000000E+00  5.02497030E-33  0.00000000E+00  0.00000000E+00  0.00000000E+00
 -1.71022541E-33  0.00000000E+00 -5.55111512E-17  0.00000000E+00  0.00000000E+00
  0.00000000E+00  0.00000000E+00  0.00000000E+00  0.00000000E+00  0.00000000E+00
  0.00000000E+00 -1.51542121E-18  0.00000000E+00  0.00000000E+00 -6.02718109E-17
  0.00000000E+00  0.00000000E+00 -1.26481486E-16  0.00000000E+00  0.00000000E+00
 -1.01488539E-16  0.00000000E+00  0.00000000E+00 -4.57034905E-17  0.00000000E+00
 -2.16225184E-34  0.00000000E+00  0.00000000E+00  0.00000000E+00  0.00000000E+00
  1.53596246E-32  0.00000000E+00  0.00000000E+00  0.00000000E+00  0.00000000E+00
  1.76981989E-33  0.00000000E+00  0.00000000E+00  0.00000000E+00  0.00000000E+00
  2.99344543E-33  0.00000000E+00  0.00000000E+00  0.00000000E+00  1.94497092E-01
  0.00000000E+00  0.00000000E+00 -7.53283998E-02  0.00000000E+00  0.00000000E+00
  0.00000000E+00  8.47538861E-01  0.00000000E+00  0.00000000E+00 -3.28250389E-01
  0.00000000E+00  0.00000000E+00  0.00000000E+00  8.82590045E-01  0.00000000E+00
  0.00000000E+00 -3.41825654E-01  0.00000000E+00  0.00000000E+00  0.00000000E+00
  0.00000000E+00 -3.35491513E-17  0.00000000E+00  0.00000000E+00  0.00000000E+00
 -3.00290657E-33  0.00000000E+00  0.00000000E+00  0.00000000E+00  0.00000000E+00
 -5.55111512E-17  0.00000000E+00  0.00000000E+00  0.00000000E+00  0.00000000E+00
  0.00000000E+00  0.00000000E+00  0.00000000E+00  0.00000000E+00  0.00000000E+00
  0.00000000E+00  0.00000000E+00  0.00000000E+00  0.00000000E+00  0.00000000E+00
  0.00000000E+00  0.00000000E+00  0.00000000E+00  0.00000000E+00  0.00000000E+00
  0.00000000E+00  0.00000000E+00  0.00000000E+00  0.00000000E+00 -2.16225184E-34
  0.00000000E+00  0.00000000E+00  0.00000000E+00  0.00000000E+00  1.53596246E-32
  0.00000000E+00  0.00000000E+00  0.00000000E+00  0.00000000E+00  1.76981989E-33
  0.00000000E+00  0.00000000E+00  0.00000000E+00  0.00000000E+00 -8.80424852E-35
  0.00000000E+00  0.00000000E+00  0.00000000E+00  0.00000000E+00  0.00000000E+00
  0.00000000E+00 -7.53283998E-02  0.00000000E+00  0.00000000E+00  0.00000000E+00
  0.00000000E+00  0.00000000E+00  0.00000000E+00 -3.28250389E-01  0.00000000E+00
  0.00000000E+00  0.00000000E+00  0.00000000E+00  0.00000000E+00  0.00000000E+00
 -3.41825654E-01  0.00000000E+00  0.00000000E+00  0.00000000E+00  0.00000000E+00
 -3.35491513E-17  0.00000000E+00  0.00000000E+00  0.00000000E+00  5.06709592E-34
  0.00000000E+00  0.00000000E+00  0.00000000E+00  0.00000000E+00 -5.55111512E-17
 -9.69129136E-36 -1.58168304E-35 -7.43954440E-35  2.69628530E-34  1.17665989E-33
  3.50076123E-34 -1.34561994E-18  0.00000000E+00  0.00000000E+00 -2.27547332E-17
  0.00000000E+00  0.00000000E+00  8.75492733E-17  0.00000000E+00  0.00000000E+00
  1.15409828E-16  0.00000000E+00  0.00000000E+00 -7.01208417E-18  0.00000000E+00
  0.00000000E+00 -1.49578777E-34  0.00000000E+00  0.00000000E+00 -3.31293448E-34
  0.00000000E+00 -8.66387548E-34  0.00000000E+00  0.00000000E+00 -8.97636483E-34
  0.00000000E+00  4.21636238E-34  0.00000000E+00  0.00000000E+00  5.47096389E-33
  0.00000000E+00 -1.86581536E-34  0.00000000E+00  0.00000000E+00 -1.87035525E-35
  0.00000000E+00  0.00000000E+00  1.68439423E-01  0.00000000E+00  0.00000000E+00
  0.00000000E+00 -4.34908719E-02  0.00000000E+00  0.00000000E+00  7.33990184E-01
  0.00000000E+00  0.00000000E+00  0.00000000E+00 -1.89515451E-01  0.00000000E+00
  0.00000000E+00  7.64345400E-01  0.00000000E+00  0.00000000E+00  0.00000000E+00
 -1.97353134E-01  0.00000000E+00 -9.39580292E-35  0.00000000E+00  0.00000000E+00
 -3.35491513E-17  0.00000000E+00  0.00000000E+00  0.00000000E+00  2.55087784E-33
  0.00000000E+00 -1.02515999E-33  0.00000000E+00  0.00000000E+00 -5.55111512E-17
  0.00000000E+00  0.00000000E+00  0.00000000E+00  0.00000000E+00  0.00000000E+00
  0.00000000E+00  0.00000000E+00 -2.08930447E-21  0.00000000E+00  0.00000000E+00
  2.60676668E-18  0.00000000E+00  0.00000000E+00  4.67700287E-17  0.00000000E+00
  0.00000000E+00 -1.94609249E-16  0.00000000E+00  0.00000000E+00  5.54330416E-18
  0.00000000E+00  0.00000000E+00  0.00000000E+00  0.00000000E+00  0.00000000E+00
 -1.08857371E-33  0.00000000E+00  0.00000000E+00  0.00000000E+00  0.00000000E+00
  7.69913280E-33  0.00000000E+00  0.00000000E+00  0.00000000E+00  0.00000000E+00
 -1.30892744E-33  0.00000000E+00  0.00000000E+00  0.00000000E+00  0.00000000E+00
 -4.20809871E-34  0.00000000E+00  0.00000000E+00  1.68439423E-01  0.00000000E+00
  0.00000000E+00  0.00000000E+00 -4.34908719E-02  0.00000000E+00  0.00000000E+00
  7.33990184E-01  0.00000000E+00  0.00000000E+00  0.00000000E+00 -1.89515451E-01
  0.00000000E+00  0.00000000E+00  7.64345400E-01  0.00000000E+00  0.00000000E+00
  0.00000000E+00 -1.97353134E-01  0.00000000E+00  0.00000000E+00  0.00000000E+00
  0.00000000E+00 -3.35491513E-17  0.00000000E+00  0.00000000E+00  0.00000000E+00
  9.89258560E-34  0.00000000E+00  0.00000000E+00  0.00000000E+00  0.00000000E+00
 -5.55111512E-17  0.00000000E+00  0.00000000E+00  0.00000000E+00  0.00000000E+00
  0.00000000E+00  0.00000000E+00  0.00000000E+00  0.00000000E+00 -5.67760231E-19
  0.00000000E+00  0.00000000E+00 -4.07088514E-18  0.00000000E+00  0.00000000E+00
 -2.88285246E-17  0.00000000E+00  0.00000000E+00  6.99991417E-17  0.00000000E+00
  0.00000000E+00  2.99359278E-17  0.00000000E+00  1.78723168E-33  0.00000000E+00
  0.00000000E+00  0.00000000E+00  0.00000000E+00 -6.69364765E-33  0.00000000E+00
  0.00000000E+00  0.00000000E+00  0.00000000E+00  4.60757848E-33  0.00000000E+00
  0.00000000E+00  0.00000000E+00  0.00000000E+00 -7.55050442E-34  0.00000000E+00
  0.00000000E+00  0.00000000E+00  4.65975416E-17  0.00000000E+00  0.00000000E+00
  1.99300212E-01  0.00000000E+00  0.00000000E+00  0.00000000E+00 -2.47933277E-16
  0.00000000E+00  0.00000000E+00  8.68468898E-01  0.00000000E+00  0.00000000E+00
  0.00000000E+00 -2.24303734E-16  0.00000000E+00  0.00000000E+00  9.04385674E-01
  0.00000000E+00  0.00000000E+00  0.00000000E+00  0.00000000E+00 -1.22997871E-33
  0.00000000E+00  0.00000000E+00  0.00000000E+00 -3.35491513E-17  0.00000000E+00
  0.00000000E+00  0.00000000E+00  0.00000000E+00 -1.17213469E-32  0.00000000E+00
  0.00000000E+00  0.00000000E+00 -5.55111512E-17  0.00000000E+00  0.00000000E+00
  0.00000000E+00  0.00000000E+00  0.00000000E+00  0.00000000E+00  0.00000000E+00
  0.00000000E+00  0.00000000E+00  0.00000000E+00  0.00000000E+00  0.00000000E+00
  0.00000000E+00  0.00000000E+00  0.00000000E+00  0.00000000E+00  0.00000000E+00
  0.00000000E+00  0.00000000E+00  0.00000000E+00  0.00000000E+00  0.00000000E+00
  0.00000000E+00 -1.42338544E-33  0.00000000E+00  0.00000000E+00  0.00000000E+00
  0.00000000E+00  7.13445897E-33  0.00000000E+00  0.00000000E+00  0.00000000E+00
  0.00000000E+00 -6.47460079E-33  0.00000000E+00  0.00000000E+00  0.00000000E+00
  0.00000000E+00 -5.40235166E-34  0.00000000E+00  0.00000000E+00  0.00000000E+00
  0.00000000E+00  0.00000000E+00  0.00000000E+00  1.99300212E-01  0.00000000E+00
  0.00000000E+00  0.00000000E+00  0.00000000E+00  0.00000000E+00  0.00000000E+00
  8.68468898E-01  0.00000000E+00  0.00000000E+00  0.00000000E+00  0.00000000E+00
  0.00000000E+00  0.00000000E+00  9.04385674E-01  0.00000000E+00  0.00000000E+00
  0.00000000E+00  0.00000000E+00  2.06474517E-33  0.00000000E+00  0.00000000E+00
  0.00000000E+00 -3.35491513E-17  0.00000000E+00  0.00000000E+00  0.00000000E+00
  0.00000000E+00  1.15160589E-32  0.00000000E+00  0.00000000E+00  0.00000000E+00
 -5.55111512E-17 -3.40453769E-35  3.63977733E-35  1.81897056E-33  3.27004790E-33
 -4.68544487E-33 -2.72653987E-33  2.08590419E-18  0.00000000E+00  0.00000000E+00
  4.33194435E-17  0.00000000E+00  0.00000000E+00 -2.00796227E-16  0.00000000E+00
  0.00000000E+00 -1.09236658E-16  0.00000000E+00  0.00000000E+00  7.20435998E-18
  0.00000000E+00  0.00000000E+00 -4.89907415E-34  0.00000000E+00  0.00000000E+00
  3.34180275E-34  0.00000000E+00 -2.05832989E-33  0.00000000E+00  0.00000000E+00
  2.18357722E-33  0.00000000E+00  1.12138329E-33  0.00000000E+00  0.00000000E+00
 -2.73521776E-33  0.00000000E+00 -6.03406903E-34  0.00000000E+00  0.00000000E+00
 -1.81202112E-34  0.00000000E+00  0.00000000E+00 -8.35895938E-17  0.00000000E+00
  0.00000000E+00  0.00000000E+00  2.30132063E-01  0.00000000E+00  0.00000000E+00
 -4.23310801E-17  0.00000000E+00  0.00000000E+00  0.00000000E+00  1.00282150E+00
  0.00000000E+00  0.00000000E+00  1.21574070E-16  0.00000000E+00  0.00000000E+00
  0.00000000E+00  1.04429462E+00  0.00000000E+00 -1.65355653E-33  0.00000000E+00
  0.00000000E+00 -7.32561956E-34  0.00000000E+00  0.00000000E+00  0.00000000E+00
 -3.35491513E-17  0.00000000E+00 -4.53441862E-33  0.00000000E+00  0.00000000E+00
  2.22956373E-33  0.00000000E+00  0.00000000E+00  0.00000000E+00 -5.55111512E-17
  0.00000000E+00  0.00000000E+00  0.00000000E+00  0.00000000E+00  0.00000000E+00
  0.00000000E+00  0.00000000E+00  1.21007659E-18  0.00000000E+00  0.00000000E+00
 -1.75308229E-17  0.00000000E+00  0.00000000E+00 -3.43028000E-17  0.00000000E+00
  0.00000000E+00  1.65413303E-17  0.00000000E+00  0.00000000E+00 -3.43355723E-18
  0.00000000E+00  0.00000000E+00  0.00000000E+00  0.00000000E+00  0.00000000E+00
  8.65362757E-35  0.00000000E+00  0.00000000E+00  0.00000000E+00  0.00000000E+00
 -2.28199064E-33  0.00000000E+00  0.00000000E+00  0.00000000E+00  0.00000000E+00
  1.89625697E-33  0.00000000E+00  0.00000000E+00  0.00000000E+00  0.00000000E+00
 -1.50838778E-33  0.00000000E+00  0.00000000E+00  5.45479051E-18  0.00000000E+00
  0.00000000E+00  0.00000000E+00  2.30132063E-01  0.00000000E+00  0.00000000E+00
 -1.70692448E-17  0.00000000E+00  0.00000000E+00  0.00000000E+00  1.00282150E+00
  0.00000000E+00  0.00000000E+00  1.03301303E-17  0.00000000E+00  0.00000000E+00
  0.00000000E+00  1.04429462E+00  0.00000000E+00  0.00000000E+00  0.00000000E+00
  0.00000000E+00 -3.08554082E-33  0.00000000E+00  0.00000000E+00  0.00000000E+00
 -3.35491513E-17  0.00000000E+00  0.00000000E+00  0.00000000E+00  0.00000000E+00
  7.92526553E-34  0.00000000E+00  0.00000000E+00  0.00000000E+00 -5.55111512E-17
Multipole Matrix (0,1,0)                   R   N=        3240
  0.00000000E+00  0.00000000E+00  0.00000000E+00  0.00000000E+00  0.00000000E+00
  0.00000000E+00  0.00000000E+00  0.00000000E+00  0.00000000E+00  0.00000000E+00
  0.00000000E+00  0.00000000E+00  0.00000000E+00  0.00000000E+00  0.00000000E+00
  0.00000000E+00  0.00000000E+00  0.00000000E+00  0.00000000E+00  0.00000000E+00
  0.00000000E+00  0.00000000E+00  0.00000000E+00  0.00000000E+00  0.00000000E+00
  0.00000000E+00  0.00000000E+00  0.00000000E+00  1.64199192E-01 -1.99147924E-01
  3.56163850E-01  2.56343822E-01  1.47353649E-01  7.53216724E-02  0.00000000E+00
  0.00000000E+00  0.00000000E+00  0.00000000E+00  0.00000000E+00  0.00000000E+00
  0.00000000E+00  0.00000000E+00  0.00000000E+00  0.00000000E+00  0.00000000E+00
  0.00000000E+00  0.00000000E+00  0.00000000E+00  0.00000000E+00  0.00000000E+00
  0.00000000E+00  0.00000000E+00  0.00000000E+00  0.00000000E+00  0.00000000E+00
  8.02705295E-02 -1.06892042E-01  5.81179742E-01  6.75341911E-01  5.11734701E-01
  2.97142221E-01  0.00000000E+00  0.00000000E+00  0.00000000E+00  0.00000000E+00
  0.00000000E+00  0.00000000E+00  0.00000000E+00  0.00000000E+00  0.00000000E+00
  0.00000000E+00  0.00000000E+00  0.00000000E+00  0.00000000E+00  0.00000000E+00
  0.00000000E+00  0.00000000E+00  0.00000000E+00  0.00000000E+00  0.00000000E+00
  0.00000000E+00  0.00000000E+00  0.00000000E+00  0.00000000E+00  0.00000000E+00
  0.00000000E+00  0.00000000E+00  0.00000000E+00  0.00000000E+00  0.00000000E+00
  0.00000000E+00  3.06629451E-02 -4.19719926E-02  4.48047850E-01  9.27669544E-01
  1.13902030E+00  8.77094338E-01  0.00000000E+00  0.00000000E+00  0.00000000E+00
  0.00000000E+00  0.00000000E+00  0.00000000E+00  0.00000000E+00  0.00000000E+00
  0.00000000E+00  0.00000000E+00  0.00000000E+00  0.00000000E+00  0.00000000E+00
  0.00000000E+00  0.00000000E+00  0.00000000E+00  0.00000000E+00  0.00000000E+00
  0.00000000E+00  0.00000000E+00  0.00000000E+00  0.00000000E+00  0.00000000E+00
  0.00000000E+00  0.00000000E+00  0.00000000E+00  0.00000000E+00  0.00000000E+00
  0.00000000E+00  0.00000000E+00  0.00000000E+00  0.00000000E+00  0.00000000E+00
  0.00000000E+00  0.00000000E+00  0.00000000E+00  0.00000000E+00  0.00000000E+00
  0.00000000E+00  9.41147234E-03 -1.30216037E-02  1.99293636E-01  6.63276055E-01
  1.49555534E+00  1.93467524E+00  0.00000000E+00  0.00000000E+00  0.00000000E+00
  0.00000000E+00  0.00000000E+00  0.00000000E+00  0.00000000E+00  0.00000000E+00
  0.00000000E+00  0.00000000E+00  0.00000000E+00  0.00000000E+00  0.00000000E+00
  0.00000000E+00  0.00000000E+00  0.00000000E+00  0.00000000E+00  0.00000000E+00
  0.00000000E+00  0.00000000E+00  0.00000000E+00  0.00000000E+00  0.00000000E+00
  0.00000000E+00  0.00000000E+00  0.00000000E+00  0.00000000E+00  0.00000000E+00
  0.00000000E+00  0.00000000E+00  0.00000000E+00  0.00000000E+00  0.00000000E+00
  0.00000000E+00  0.00000000E+00  0.00000000E+00  0.00000000E+00  0.00000000E+00
  0.00000000E+00  0.00000000E+00  0.00000000E+00  0.00000000E+00  0.00000000E+00
  0.00000000E+00  0.00000000E+00  0.00000000E+00  0.00000000E+00  0.00000000E+00
  2.38346857E-03 -3.31100984E-03  5.92944418E-02  2.57903375E-01  9.54660943E-01
  2.40732066E+00  0.00000000E+00  0.00000000E+00  0.00000000E+00  0.00000000E+00
  0.00000000E+00  0.00000000E+00  0.00000000E+00  0.00000000E+00  0.00000000E+00
  0.00000000E+00  0.00000000E+00  0.00000000E+00  0.00000000E+00  0.00000000E+00
  0.00000000E+00  0.00000000E+00  0.00000000E+00  0.00000000E+00  0.00000000E+00
  0.00000000E+00  0.00000000E+00  0.00000000E+00  0.00000000E+00  0.00000000E+00
  0.00000000E+00  0.00000000E+00  0.00000000E+00  0.00000000E+00  0.00000000E+00
  0.00000000E+00  0.00000000E+00  0.00000000E+00  0.00000000E+00  0.00000000E+00
  0.00000000E+00  0.00000000E+00  0.00000000E+00  0.00000000E+00  0.00000000E+00
  0.00000000E+00  0.00000000E+00  0.00000000E+00 -1.62718546E-01  0.00000000E+00
  0.00000000E+00 -2.40280327E-01  0.00000000E+00  0.00000000E+00 -1.42085343E-01
  0.00000000E+00  0.00000000E+00 -5.25317893E-02  0.00000000E+00  0.00000000E+00
 -1.43063008E-02  0.00000000E+00  0.00000000E+00  0.00000000E+00  0.00000000E+00
  0.00000000E+00  0.00000000E+00  0.00000000E+00  0.00000000E+00  0.00000000E+00
  0.00000000E+00  0.00000000E+00  0.00000000E+00  0.00000000E+00  0.00000000E+00
  0.00000000E+00  0.00000000E+00  0.00000000E+00  0.00000000E+00  0.00000000E+00
  0.00000000E+00  0.00000000E+00  0.00000000E+00  0.00000000E+00  0.00000000E+00
  0.00000000E+00  0.00000000E+00  0.00000000E+00  0.00000000E+00  0.00000000E+00
  0.00000000E+00  0.00000000E+00  0.00000000E+00  0.00000000E+00  2.81836790E-01
  0.00000000E+00  0.00000000E+00  4.16177735E-01  0.00000000E+00  0.00000000E+00
  2.46099033E-01  0.00000000E+00  0.00000000E+00  9.09877281E-02  0.00000000E+00
  0.00000000E+00  2.47792399E-02  0.00000000E+00  0.00000000E+00  0.00000000E+00
  0.00000000E+00  0.00000000E+00  0.00000000E+00  0.00000000E+00  0.00000000E+00
  0.00000000E+00  0.00000000E+00 -2.81836790E-01  0.00000000E+00  0.00000000E+00
 -4.16177735E-01  0.00000000E+00  0.00000000E+00 -2.46099033E-01  0.00000000E+00
  0.00000000E+00 -9.09877281E-02  0.00000000E+00  0.00000000E+00 -2.47792399E-02
  0.00000000E+00  0.00000000E+00  0.00000000E+00  0.00000000E+00  0.00000000E+00
  0.00000000E+00  0.00000000E+00  0.00000000E+00  0.00000000E+00  0.00000000E+00
  0.00000000E+00  2.81836790E-01  0.00000000E+00  0.00000000E+00  4.16177735E-01
  0.00000000E+00  0.00000000E+00  2.46099033E-01  0.00000000E+00  0.00000000E+00
  9.09877281E-02  0.00000000E+00  0.00000000E+00  2.47792399E-02  0.00000000E+00
  0.00000000E+00  0.00000000E+00  0.00000000E+00  0.00000000E+00  0.00000000E+00
  0.00000000E+00  0.00000000E+00  0.00000000E+00  0.00000000E+00  0.00000000E+00
  0.00000000E+00  0.00000000E+00  0.00000000E+00 -8.16174185E-02  0.00000000E+00
  0.00000000E+00 -3.13087382E-01  0.00000000E+00  0.00000000E+00 -4.06307604E-01
  0.00000000E+00  0.00000000E+00 -2.38299500E-01  0.00000000E+00  0.00000000E+00
 -8.00771342E-02  0.00000000E+00  0.00000000E+00  0.00000000E+00  0.00000000E+00
  0.00000000E+00  0.00000000E+00  0.00000000E+00  0.00000000E+00  0.00000000E+00
  0.00000000E+00  0.00000000E+00  0.00000000E+00  0.00000000E+00  0.00000000E+00
  0.00000000E+00  0.00000000E+00  0.00000000E+00  0.00000000E+00  0.00000000E+00
  0.00000000E+00  0.00000000E+00  0.00000000E+00  0.00000000E+00  0.00000000E+00
  0.00000000E+00  0.00000000E+00  0.00000000E+00  0.00000000E+00  0.00000000E+00
  0.00000000E+00  0.00000000E+00  0.00000000E+00  0.00000000E+00  0.00000000E+00
  0.00000000E+00  0.00000000E+00  0.00000000E+00  0.00000000E+00  0.00000000E+00
  0.00000000E+00  0.00000000E+00  0.00000000E+00  0.00000000E+00  1.41365516E-01
  0.00000000E+00  0.00000000E+00  5.42283253E-01  0.00000000E+00  0.00000000E+00
  7.03745414E-01  0.00000000E+00  0.00000000E+00  4.12746842E-01  0.00000000E+00
  0.00000000E+00  1.38697665E-01  0.00000000E+00  0.00000000E+00  0.00000000E+00
  0.00000000E+00  0.00000000E+00  0.00000000E+00  0.00000000E+00  0.00000000E+00
  0.00000000E+00  0.00000000E+00  0.00000000E+00  0.00000000E+00  0.00000000E+00
  0.00000000E+00  0.00000000E+00 -1.41365516E-01  0.00000000E+00  0.00000000E+00
 -5.42283253E-01  0.00000000E+00  0.00000000E+00 -7.03745414E-01  0.00000000E+00
  0.00000000E+00 -4.12746842E-01  0.00000000E+00  0.00000000E+00 -1.38697665E-01
  0.00000000E+00  0.00000000E+00  0.00000000E+00  0.00000000E+00  0.00000000E+00
  0.00000000E+00  0.00000000E+00  0.00000000E+00  0.00000000E+00  0.00000000E+00
  0.00000000E+00  0.00000000E+00  0.00000000E+00  0.00000000E+00  0.00000000E+00
  0.00000000E+00  1.41365516E-01  0.00000000E+00  0.00000000E+00  5.42283253E-01
  0.00000000E+00  0.00000000E+00  7.03745414E-01  0.00000000E+00  0.00000000E+00
  4.12746842E-01  0.00000000E+00  0.00000000E+00  1.38697665E-01  0.00000000E+00
  0.00000000E+00  0.00000000E+00  0.00000000E+00  0.00000000E+00  0.00000000E+00
  0.00000000E+00  0.00000000E+00  0.00000000E+00  0.00000000E+00  0.00000000E+00
  0.00000000E+00  0.00000000E+00  0.00000000E+00  0.00000000E+00  0.00000000E+00
  0.00000000E+00  0.00000000E+00  0.00000000E+00 -2.19502701E-02  0.00000000E+00
  0.00000000E+00 -1.64731821E-01  0.00000000E+00  0.00000000E+00 -5.23969185E-01
  0.00000000E+00  0.00000000E+00 -6.84523273E-01  0.00000000E+00  0.00000000E+00
 -3.72755629E-01  0.00000000E+00  0.00000000E+00  0.00000000E+00  0.00000000E+00
  0.00000000E+00  0.00000000E+00  0.00000000E+00  0.00000000E+00  0.00000000E+00
  0.00000000E+00  0.00000000E+00  0.00000000E+00  0.00000000E+00  0.00000000E+00
  0.00000000E+00  0.00000000E+00  0.00000000E+00  0.00000000E+00  0.00000000E+00
  0.00000000E+00  0.00000000E+00  0.00000000E+00  0.00000000E+00  0.00000000E+00
  0.00000000E+00  0.00000000E+00  0.00000000E+00  0.00000000E+00  0.00000000E+00
  0.00000000E+00  0.00000000E+00  0.00000000E+00  0.00000000E+00  0.00000000E+00
  0.00000000E+00  0.00000000E+00  0.00000000E+00  0.00000000E+00  0.00000000E+00
  0.00000000E+00  0.00000000E+00  0.00000000E+00  0.00000000E+00  0.00000000E+00
  0.00000000E+00  0.00000000E+00  0.00000000E+00  0.00000000E+00  0.00000000E+00
  0.00000000E+00  0.00000000E+00  0.00000000E+00  0.00000000E+00  3.80189830E-02
  0.00000000E+00  0.00000000E+00  2.85323883E-01  0.00000000E+00  0.00000000E+00
  9.07541250E-01  0.00000000E+00  0.00000000E+00  1.18562909E+00  0.00000000E+00
  0.00000000E+00  6.45631689E-01  0.00000000E+00  0.00000000E+00  0.00000000E+00
  0.00000000E+00  0.00000000E+00  0.00000000E+00  0.00000000E+00  0.00000000E+00
  0.00000000E+00  0.00000000E+00  0.00000000E+00  0.00000000E+00  0.00000000E+00
  0.00000000E+00  0.00000000E+00  0.00000000E+00  0.00000000E+00  0.00000000E+00
  0.00000000E+00  0.00000000E+00 -3.80189830E-02  0.00000000E+00  0.00000000E+00
 -2.85323883E-01  0.00000000E+00  0.00000000E+00 -9.07541250E-01  0.00000000E+00
  0.00000000E+00 -1.18562909E+00  0.00000000E+00  0.00000000E+00 -6.45631689E-01
  0.00000000E+00  0.00000000E+00  0.00000000E+00  0.00000000E+00  0.00000000E+00
  0.00000000E+00  0.00000000E+00  0.00000000E+00  0.00000000E+00  0.00000000E+00
  0.00000000E+00  0.00000000E+00  0.00000000E+00  0.00000000E+00  0.00000000E+00
  0.00000000E+00  0.00000000E+00  0.00000000E+00  0.00000000E+00  0.00000000E+00
  0.00000000E+00  3.80189830E-02  0.00000000E+00  0.00000000E+00  2.85323883E-01
  0.00000000E+00  0.00000000E+00  9.07541250E-01  0.00000000E+00  0.00000000E+00
  1.18562909E+00  0.00000000E+00  0.00000000E+00  6.45631689E-01  0.00000000E+00
  0.00000000E+00  0.00000000E+00  0.00000000E+00  0.00000000E+00  0.00000000E+00
  0.00000000E+00  0.00000000E+00  0.00000000E+00  0.00000000E+00  0.00000000E+00
  0.00000000E+00  0.00000000E+00  0.00000000E+00  0.00000000E+00  0.00000000E+00
  0.00000000E+00  0.00000000E+00  0.00000000E+00  0.00000000E+00  0.00000000E+00
  0.00000000E+00  0.00000000E+00  0.00000000E+00 -4.00480734E-03  0.00000000E+00
  0.00000000E+00 -4.23290007E-02  0.00000000E+00  0.00000000E+00 -2.61225373E-01
  0.00000000E+00  0.00000000E+00 -8.80482994E-01  0.00000000E+00  0.00000000E+00
 -1.16943360E+00  0.00000000E+00  0.00000000E+00  0.00000000E+00  0.00000000E+00
  0.00000000E+00  0.00000000E+00  0.00000000E+00  0.00000000E+00  0.00000000E+00
  0.00000000E+00  0.00000000E+00  0.00000000E+00  0.00000000E+00  0.00000000E+00
  0.00000000E+00  0.00000000E+00  0.00000000E+00  0.00000000E+00  0.00000000E+00
  0.00000000E+00  0.00000000E+00  0.00000000E+00  0.00000000E+00  0.00000000E+00
  0.00000000E+00  0.00000000E+00  0.00000000E+00  0.00000000E+00  0.00000000E+00
  0.00000000E+00  0.00000000E+00  0.00000000E+00  0.00000000E+00  0.00000000E+00
  0.00000000E+00  0.00000000E+00  0.00000000E+00  0.00000000E+00  0.00000000E+00
  0.00000000E+00  0.00000000E+00  0.00000000E+00  0.00000000E+00  0.00000000E+00
  0.00000000E+00  0.00000000E+00  0.00000000E+00  0.00000000E+00  0.00000000E+00
  0.00000000E+00  0.00000000E+00  0.00000000E+00  0.00000000E+00  0.00000000E+00
  0.00000000E+00  0.00000000E+00  0.00000000E+00  0.00000000E+00  0.00000000E+00
  0.00000000E+00  0.00000000E+00  0.00000000E+00  0.00000000E+00  6.93652979E-03
  0.00000000E+00  0.00000000E+00  7.33159799E-02  0.00000000E+00  0.00000000E+00
  4.52455618E-01  0.00000000E+00  0.00000000E+00  1.52504128E+00  0.00000000E+00
  0.00000000E+00  2.02551841E+00  0.00000000E+00  0.00000000E+00  0.00000000E+00
  0.00000000E+00  0.00000000E+00  0.00000000E+00  0.00000000E+00  0.00000000E+00
  0.00000000E+00  0.00000000E+00  0.00000000E+00  0.00000000E+00  0.00000000E+00
  0.00000000E+00  0.00000000E+00  0.00000000E+00  0.00000000E+00  0.00000000E+00
  0.00000000E+00  0.00000000E+00  0.00000000E+00  0.00000000E+00  0.00000000E+00
  0.00000000E+00  0.00000000E+00 -6.93652979E-03  0.00000000E+00  0.00000000E+00
 -7.33159799E-02  0.00000000E+00  0.00000000E+00 -4.52455618E-01  0.00000000E+00
  0.00000000E+00 -1.52504128E+00  0.00000000E+00  0.00000000E+00 -2.02551841E+00
  0.00000000E+00  0.00000000E+00  0.00000000E+00  0.00000000E+00  0.00000000E+00
  0.00000000E+00  0.00000000E+00  0.00000000E+00  0.00000000E+00  0.00000000E+00
  0.00000000E+00  0.00000000E+00  0.00000000E+00  0.00000000E+00  0.00000000E+00
  0.00000000E+00  0.00000000E+00  0.00000000E+00  0.00000000E+00  0.00000000E+00
  0.00000000E+00  0.00000000E+00  0.00000000E+00  0.00000000E+00  0.00000000E+00
  0.00000000E+00  6.93652979E-03  0.00000000E+00  0.00000000E+00  7.33159799E-02
  0.00000000E+00  0.00000000E+00  4.52455618E-01  0.00000000E+00  0.00000000E+00
  1.52504128E+00  0.00000000E+00  0.00000000E+00  2.02551841E+00  0.00000000E+00
  0.00000000E+00  0.00000000E+00  0.00000000E+00  0.00000000E+00  0.00000000E+00
  0.00000000E+00  0.00000000E+00  0.00000000E+00  0.00000000E+00  0.00000000E+00
  0.00000000E+00  0.00000000E+00  0.00000000E+00  0.00000000E+00  0.00000000E+00
  0.00000000E+00  0.00000000E+00  0.00000000E+00  0.00000000E+00  0.00000000E+00
  0.00000000E+00  0.00000000E+00  0.00000000E+00  0.00000000E+00  0.00000000E+00
  0.00000000E+00  0.00000000E+00  0.00000000E+00  0.00000000E+00  0.00000000E+00
  0.00000000E+00  0.00000000E+00  0.00000000E+00  0.00000000E+00  0.00000000E+00
  0.00000000E+00  0.00000000E+00  0.00000000E+00  0.00000000E+00  0.00000000E+00
  0.00000000E+00  0.00000000E+00  0.00000000E+00  0.00000000E+00 -2.73967052E-01
  0.00000000E+00  0.00000000E+00  0.00000000E+00  0.00000000E+00 -3.43630587E-01
  0.00000000E+00  0.00000000E+00  0.00000000E+00  0.00000000E+00 -1.53428410E-01
  0.00000000E+00  0.00000000E+00  0.00000000E+00  0.00000000E+00 -3.51052276E-02
  0.00000000E+00  0.00000000E+00  0.00000000E+00  0.00000000E+00  0.00000000E+00
  0.00000000E+00  0.00000000E+00  0.00000000E+00  0.00000000E+00  0.00000000E+00
  0.00000000E+00  0.00000000E+00  0.00000000E+00  0.00000000E+00  0.00000000E+00
  0.00000000E+00  0.00000000E+00  0.00000000E+00  0.00000000E+00  0.00000000E+00
  0.00000000E+00  0.00000000E+00  0.00000000E+00  0.00000000E+00  0.00000000E+00
  0.00000000E+00  0.00000000E+00  0.00000000E+00 -1.11846581E-01  0.00000000E+00
  0.00000000E+00  0.00000000E+00  0.00000000E+00 -1.40286600E-01  0.00000000E+00
  0.00000000E+00  0.00000000E+00  0.00000000E+00 -6.26368863E-02  0.00000000E+00
  0.00000000E+00  0.00000000E+00  0.00000000E+00 -1.43316491E-02  0.00000000E+00
  0.00000000E+00 -1.89704575E-18 -9.76371519E-18  1.60352132E-16 -5.32046567E-17
  3.47702369E-17  6.78784475E-18  0.00000000E+00  0.00000000E+00  0.00000000E+00
  0.00000000E+00  0.00000000E+00  0.00000000E+00  0.00000000E+00  0.00000000E+00
  0.00000000E+00  0.00000000E+00  0.00000000E+00  0.00000000E+00  0.00000000E+00
  0.00000000E+00  0.00000000E+00  3.87447921E-01  0.00000000E+00  0.00000000E+00
  1.11846581E-01  0.00000000E+00  4.85967037E-01  0.00000000E+00  0.00000000E+00
  1.40286600E-01  0.00000000E+00  2.16980539E-01  0.00000000E+00  0.00000000E+00
  6.26368863E-02  0.00000000E+00  4.96462889E-02  0.00000000E+00  0.00000000E+00
  1.43316491E-02  0.00000000E+00  0.00000000E+00  0.00000000E+00  0.00000000E+00
  0.00000000E+00  0.00000000E+00  0.00000000E+00  0.00000000E+00  0.00000000E+00
  0.00000000E+00  0.00000000E+00  0.00000000E+00  0.00000000E+00  0.00000000E+00
  0.00000000E+00  0.00000000E+00  0.00000000E+00  0.00000000E+00  0.00000000E+00
  0.00000000E+00  0.00000000E+00  0.00000000E+00  0.00000000E+00  0.00000000E+00
  0.00000000E+00  0.00000000E+00  0.00000000E+00 -3.53689943E-01  0.00000000E+00
  0.00000000E+00  0.00000000E+00  0.00000000E+00 -4.43625181E-01  0.00000000E+00
  0.00000000E+00  0.00000000E+00  0.00000000E+00 -1.98075226E-01  0.00000000E+00
  0.00000000E+00  0.00000000E+00  0.00000000E+00 -4.53206539E-02  0.00000000E+00
  0.00000000E+00  0.00000000E+00  0.00000000E+00  0.00000000E+00  0.00000000E+00
  0.00000000E+00  0.00000000E+00  0.00000000E+00  0.00000000E+00  0.00000000E+00
  0.00000000E+00  0.00000000E+00  0.00000000E+00  0.00000000E+00  0.00000000E+00
  0.00000000E+00  0.00000000E+00  0.00000000E+00  0.00000000E+00  0.00000000E+00
  0.00000000E+00  0.00000000E+00  0.00000000E+00  0.00000000E+00  0.00000000E+00
  0.00000000E+00  0.00000000E+00  3.53689943E-01  0.00000000E+00  0.00000000E+00
  0.00000000E+00  0.00000000E+00  4.43625181E-01  0.00000000E+00  0.00000000E+00
  0.00000000E+00  0.00000000E+00  1.98075226E-01  0.00000000E+00  0.00000000E+00
  0.00000000E+00  0.00000000E+00  4.53206539E-02  0.00000000E+00  0.00000000E+00
  0.00000000E+00  0.00000000E+00  0.00000000E+00  0.00000000E+00  0.00000000E+00
  0.00000000E+00  0.00000000E+00  0.00000000E+00  0.00000000E+00  0.00000000E+00
  0.00000000E+00  0.00000000E+00  0.00000000E+00  0.00000000E+00  0.00000000E+00
  0.00000000E+00  0.00000000E+00  0.00000000E+00  0.00000000E+00  0.00000000E+00
  0.00000000E+00  0.00000000E+00  0.00000000E+00  0.00000000E+00  0.00000000E+00
  0.00000000E+00  0.00000000E+00  0.00000000E+00  0.00000000E+00  0.00000000E+00
  0.00000000E+00 -4.33179944E-01  0.00000000E+00  0.00000000E+00  0.00000000E+00
  0.00000000E+00 -5.43327665E-01  0.00000000E+00  0.00000000E+00  0.00000000E+00
  0.00000000E+00 -2.42591617E-01  0.00000000E+00  0.00000000E+00  0.00000000E+00
  0.00000000E+00 -5.55062384E-02  0.00000000E+00  0.00000000E+00  0.00000000E+00
  0.00000000E+00  0.00000000E+00  0.00000000E+00 -9.38506264E-18 -6.35841466E-18
 -6.44354197E-17 -8.96312179E-17 -2.71865480E-17 -3.41976074E-17  0.00000000E+00
  0.00000000E+00  0.00000000E+00  0.00000000E+00  0.00000000E+00  0.00000000E+00
  0.00000000E+00  0.00000000E+00  0.00000000E+00  0.00000000E+00  0.00000000E+00
  0.00000000E+00  0.00000000E+00  0.00000000E+00  0.00000000E+00  5.56978511E-17
  0.00000000E+00  0.00000000E+00  4.33179944E-01  0.00000000E+00  6.62840354E-17
  0.00000000E+00  0.00000000E+00  5.43327665E-01  0.00000000E+00 -3.05480336E-17
  0.00000000E+00  0.00000000E+00  2.42591617E-01  0.00000000E+00 -1.73321070E-19
  0.00000000E+00  0.00000000E+00  5.55062384E-02  0.00000000E+00  0.00000000E+00
  0.00000000E+00  0.00000000E+00  0.00000000E+00  0.00000000E+00  0.00000000E+00
  0.00000000E+00  0.00000000E+00  0.00000000E+00  0.00000000E+00  0.00000000E+00
  0.00000000E+00  0.00000000E+00  0.00000000E+00  0.00000000E+00  0.00000000E+00
  0.00000000E+00  0.00000000E+00  0.00000000E+00  0.00000000E+00  0.00000000E+00
  0.00000000E+00  0.00000000E+00  0.00000000E+00  0.00000000E+00  0.00000000E+00
  0.00000000E+00  0.00000000E+00  0.00000000E+00  0.00000000E+00 -1.11355492E-01
  0.00000000E+00  0.00000000E+00  0.00000000E+00  0.00000000E+00 -4.58425741E-01
  0.00000000E+00  0.00000000E+00  0.00000000E+00  0.00000000E+00 -5.93038133E-01
  0.00000000E+00  0.00000000E+00  0.00000000E+00  0.00000000E+00 -2.57381853E-01
  0.00000000E+00  0.00000000E+00  0.00000000E+00  0.00000000E+00  0.00000000E+00
  0.00000000E+00  0.00000000E+00  0.00000000E+00  0.00000000E+00  0.00000000E+00
  0.00000000E+00  0.00000000E+00  0.00000000E+00  0.00000000E+00  0.00000000E+00
  0.00000000E+00  0.00000000E+00  0.00000000E+00  0.00000000E+00  0.00000000E+00
  0.00000000E+00  0.00000000E+00  0.00000000E+00  0.00000000E+00  0.00000000E+00
  0.00000000E+00  0.00000000E+00  0.00000000E+00  0.00000000E+00  0.00000000E+00
  0.00000000E+00  0.00000000E+00  0.00000000E+00  0.00000000E+00  0.00000000E+00
 -4.54606891E-02  0.00000000E+00  0.00000000E+00  0.00000000E+00  0.00000000E+00
 -1.87151525E-01  0.00000000E+00  0.00000000E+00  0.00000000E+00  0.00000000E+00
 -2.42106804E-01  0.00000000E+00  0.00000000E+00  0.00000000E+00  0.00000000E+00
 -1.05075701E-01  0.00000000E+00  0.00000000E+00  0.00000000E+00  0.00000000E+00
  0.00000000E+00  0.00000000E+00  0.00000000E+00  0.00000000E+00  0.00000000E+00
 -7.28748449E-19 -2.23187043E-18  4.57585249E-17 -1.39434198E-17  7.10203868E-17
 -8.98542751E-19  0.00000000E+00  0.00000000E+00  0.00000000E+00  0.00000000E+00
  0.00000000E+00  0.00000000E+00  0.00000000E+00  0.00000000E+00  0.00000000E+00
  0.00000000E+00  0.00000000E+00  0.00000000E+00  0.00000000E+00  0.00000000E+00
  0.00000000E+00  1.57480446E-01  0.00000000E+00  0.00000000E+00  4.54606891E-02
  0.00000000E+00  6.48311900E-01  0.00000000E+00  0.00000000E+00  1.87151525E-01
  0.00000000E+00  8.38682571E-01  0.00000000E+00  0.00000000E+00  2.42106804E-01
  0.00000000E+00  3.63992907E-01  0.00000000E+00  0.00000000E+00  1.05075701E-01
  0.00000000E+00  0.00000000E+00  0.00000000E+00  0.00000000E+00  0.00000000E+00
  0.00000000E+00  0.00000000E+00  0.00000000E+00  0.00000000E+00  0.00000000E+00
  0.00000000E+00  0.00000000E+00  0.00000000E+00  0.00000000E+00  0.00000000E+00
  0.00000000E+00  0.00000000E+00  0.00000000E+00  0.00000000E+00  0.00000000E+00
  0.00000000E+00  0.00000000E+00  0.00000000E+00  0.00000000E+00  0.00000000E+00
  0.00000000E+00  0.00000000E+00  0.00000000E+00  0.00000000E+00  0.00000000E+00
  0.00000000E+00  0.00000000E+00  0.00000000E+00  0.00000000E+00 -1.43759321E-01
  0.00000000E+00  0.00000000E+00  0.00000000E+00  0.00000000E+00 -5.91825087E-01
  0.00000000E+00  0.00000000E+00  0.00000000E+00  0.00000000E+00 -7.65608937E-01
  0.00000000E+00  0.00000000E+00  0.00000000E+00  0.00000000E+00 -3.32278543E-01
  0.00000000E+00  0.00000000E+00  0.00000000E+00  0.00000000E+00  0.00000000E+00
  0.00000000E+00  0.00000000E+00  0.00000000E+00  0.00000000E+00  0.00000000E+00
  0.00000000E+00  0.00000000E+00  0.00000000E+00  0.00000000E+00  0.00000000E+00
  0.00000000E+00  0.00000000E+00  0.00000000E+00  0.00000000E+00  0.00000000E+00
  0.00000000E+00  0.00000000E+00  0.00000000E+00  0.00000000E+00  0.00000000E+00
  0.00000000E+00  0.00000000E+00  0.00000000E+00  0.00000000E+00  0.00000000E+00
  0.00000000E+00  0.00000000E+00  0.00000000E+00  0.00000000E+00  0.00000000E+00
  1.43759321E-01  0.00000000E+00  0.00000000E+00  0.00000000E+00  0.00000000E+00
  5.91825087E-01  0.00000000E+00  0.00000000E+00  0.00000000E+00  0.00000000E+00
  7.65608937E-01  0.00000000E+00  0.00000000E+00  0.00000000E+00  0.00000000E+00
  3.32278543E-01  0.00000000E+00  0.00000000E+00  0.00000000E+00  0.00000000E+00
  0.00000000E+00  0.00000000E+00  0.00000000E+00  0.00000000E+00  0.00000000E+00
  0.00000000E+00  0.00000000E+00  0.00000000E+00  0.00000000E+00  0.00000000E+00
  0.00000000E+00  0.00000000E+00  0.00000000E+00  0.00000000E+00  0.00000000E+00
  0.00000000E+00  0.00000000E+00  0.00000000E+00  0.00000000E+00  0.00000000E+00
  0.00000000E+00  0.00000000E+00  0.00000000E+00  0.00000000E+00  0.00000000E+00
  0.00000000E+00  0.00000000E+00  0.00000000E+00  0.00000000E+00  0.00000000E+00
  0.00000000E+00  0.00000000E+00  0.00000000E+00  0.00000000E+00  0.00000000E+00
  0.00000000E+00 -1.76068492E-01  0.00000000E+00  0.00000000E+00  0.00000000E+00
  0.00000000E+00 -7.24834740E-01  0.00000000E+00  0.00000000E+00  0.00000000E+00
  0.00000000E+00 -9.37675620E-01  0.00000000E+00  0.00000000E+00  0.00000000E+00
  0.00000000E+00 -4.06956441E-01  0.00000000E+00  0.00000000E+00  0.00000000E+00
  0.00000000E+00  0.00000000E+00  0.00000000E+00  0.00000000E+00  0.00000000E+00
  0.00000000E+00  0.00000000E+00  0.00000000E+00  0.00000000E+00  0.00000000E+00
 -4.56097093E-19 -7.41699922E-19 -6.45183027E-17 -1.50717195E-16  3.72837753E-19
 -8.63060631E-18  0.00000000E+00  0.00000000E+00  0.00000000E+00  0.00000000E+00
  0.00000000E+00  0.00000000E+00  0.00000000E+00  0.00000000E+00  0.00000000E+00
  0.00000000E+00  0.00000000E+00  0.00000000E+00  0.00000000E+00  0.00000000E+00
  0.00000000E+00  4.12048793E-17  0.00000000E+00  0.00000000E+00  1.76068492E-01
  0.00000000E+00  1.34018616E-16  0.00000000E+00  0.00000000E+00  7.24834740E-01
  0.00000000E+00  3.04594875E-18  0.00000000E+00  0.00000000E+00  9.37675620E-01
  0.00000000E+00  3.26626357E-17  0.00000000E+00  0.00000000E+00  4.06956441E-01
  0.00000000E+00  0.00000000E+00  0.00000000E+00  0.00000000E+00  0.00000000E+00
  0.00000000E+00  0.00000000E+00  0.00000000E+00  0.00000000E+00  0.00000000E+00
  0.00000000E+00  0.00000000E+00  0.00000000E+00  0.00000000E+00  0.00000000E+00
  0.00000000E+00  0.00000000E+00  0.00000000E+00  0.00000000E+00  0.00000000E+00
  0.00000000E+00  0.00000000E+00  0.00000000E+00  0.00000000E+00  0.00000000E+00
  0.00000000E+00  0.00000000E+00  0.00000000E+00  0.00000000E+00  0.00000000E+00
  0.00000000E+00  0.00000000E+00  0.00000000E+00  0.00000000E+00  0.00000000E+00
  0.00000000E+00  0.00000000E+00  0.00000000E+00 -2.41275267E-02  0.00000000E+00
  0.00000000E+00  0.00000000E+00  0.00000000E+00 -2.11750379E-01  0.00000000E+00
  0.00000000E+00  0.00000000E+00  0.00000000E+00 -7.93402878E-01  0.00000000E+00
  0.00000000E+00  0.00000000E+00  0.00000000E+00 -9.06713840E-01  0.00000000E+00
  0.00000000E+00  0.00000000E+00  0.00000000E+00  0.00000000E+00  0.00000000E+00
  0.00000000E+00  0.00000000E+00  0.00000000E+00  0.00000000E+00  0.00000000E+00
  0.00000000E+00  0.00000000E+00  0.00000000E+00  0.00000000E+00  0.00000000E+00
  0.00000000E+00  0.00000000E+00  0.00000000E+00  0.00000000E+00  0.00000000E+00
  0.00000000E+00  0.00000000E+00  0.00000000E+00  0.00000000E+00  0.00000000E+00
  0.00000000E+00  0.00000000E+00  0.00000000E+00  0.00000000E+00  0.00000000E+00
  0.00000000E+00  0.00000000E+00  0.00000000E+00  0.00000000E+00  0.00000000E+00
  0.00000000E+00  0.00000000E+00  0.00000000E+00  0.00000000E+00  0.00000000E+00
  0.00000000E+00 -9.85002155E-03  0.00000000E+00  0.00000000E+00  0.00000000E+00
  0.00000000E+00 -8.64467301E-02  0.00000000E+00  0.00000000E+00  0.00000000E+00
  0.00000000E+00 -3.23905369E-01  0.00000000E+00  0.00000000E+00  0.00000000E+00
  0.00000000E+00 -3.70164375E-01  0.00000000E+00  0.00000000E+00  0.00000000E+00
  0.00000000E+00  0.00000000E+00  0.00000000E+00  0.00000000E+00  0.00000000E+00
  0.00000000E+00  0.00000000E+00  0.00000000E+00  0.00000000E+00  0.00000000E+00
  0.00000000E+00  0.00000000E+00  0.00000000E+00  7.20487903E-20  1.26088072E-19
 -5.70114785E-18  8.03157286E-17  1.20806268E-16 -1.21317401E-16  0.00000000E+00
  0.00000000E+00  0.00000000E+00  0.00000000E+00  0.00000000E+00  0.00000000E+00
  0.00000000E+00  0.00000000E+00  0.00000000E+00  0.00000000E+00  0.00000000E+00
  0.00000000E+00  0.00000000E+00  0.00000000E+00  0.00000000E+00  3.41214756E-02
  0.00000000E+00  0.00000000E+00  9.85002155E-03  0.00000000E+00  2.99460257E-01
  0.00000000E+00  0.00000000E+00  8.64467301E-02  0.00000000E+00  1.12204111E+00
  0.00000000E+00  0.00000000E+00  3.23905369E-01  0.00000000E+00  1.28228701E+00
  0.00000000E+00  0.00000000E+00  3.70164375E-01  0.00000000E+00  0.00000000E+00
  0.00000000E+00  0.00000000E+00  0.00000000E+00  0.00000000E+00  0.00000000E+00
  0.00000000E+00  0.00000000E+00  0.00000000E+00  0.00000000E+00  0.00000000E+00
  0.00000000E+00  0.00000000E+00  0.00000000E+00  0.00000000E+00  0.00000000E+00
  0.00000000E+00  0.00000000E+00  0.00000000E+00  0.00000000E+00  0.00000000E+00
  0.00000000E+00  0.00000000E+00  0.00000000E+00  0.00000000E+00  0.00000000E+00
  0.00000000E+00  0.00000000E+00  0.00000000E+00  0.00000000E+00  0.00000000E+00
  0.00000000E+00  0.00000000E+00  0.00000000E+00  0.00000000E+00  0.00000000E+00
  0.00000000E+00  0.00000000E+00  0.00000000E+00  0.00000000E+00 -3.11485031E-02
  0.00000000E+00  0.00000000E+00  0.00000000E+00  0.00000000E+00 -2.73368563E-01
  0.00000000E+00  0.00000000E+00  0.00000000E+00  0.00000000E+00 -1.02427871E+00
  0.00000000E+00  0.00000000E+00  0.00000000E+00  0.00000000E+00 -1.17056253E+00
  0.00000000E+00  0.00000000E+00  0.00000000E+00  0.00000000E+00  0.00000000E+00
  0.00000000E+00  0.00000000E+00  0.00000000E+00  0.00000000E+00  0.00000000E+00
  0.00000000E+00  0.00000000E+00  0.00000000E+00  0.00000000E+00  0.00000000E+00
  0.00000000E+00  0.00000000E+00  0.00000000E+00  0.00000000E+00  0.00000000E+00
  0.00000000E+00  0.00000000E+00  0.00000000E+00  0.00000000E+00  0.00000000E+00
  0.00000000E+00  0.00000000E+00  0.00000000E+00  0.00000000E+00  0.00000000E+00
  0.00000000E+00  0.00000000E+00  0.00000000E+00  0.00000000E+00  0.00000000E+00
  0.00000000E+00  0.00000000E+00  0.00000000E+00  0.00000000E+00  0.00000000E+00
  0.00000000E+00  0.00000000E+00  3.11485031E-02  0.00000000E+00  0.00000000E+00
  0.00000000E+00  0.00000000E+00  2.73368563E-01  0.00000000E+00  0.00000000E+00
  0.00000000E+00  0.00000000E+00  1.02427871E+00  0.00000000E+00  0.00000000E+00
  0.00000000E+00  0.00000000E+00  1.17056253E+00  0.00000000E+00  0.00000000E+00
  0.00000000E+00  0.00000000E+00  0.00000000E+00  0.00000000E+00  0.00000000E+00
  0.00000000E+00  0.00000000E+00  0.00000000E+00  0.00000000E+00  0.00000000E+00
  0.00000000E+00  0.00000000E+00  0.00000000E+00  0.00000000E+00  0.00000000E+00
  0.00000000E+00  0.00000000E+00  0.00000000E+00  0.00000000E+00  0.00000000E+00
  0.00000000E+00  0.00000000E+00  0.00000000E+00  0.00000000E+00  0.00000000E+00
  0.00000000E+00  0.00000000E+00  0.00000000E+00  0.00000000E+00  0.00000000E+00
  0.00000000E+00  0.00000000E+00  0.00000000E+00  0.00000000E+00  0.00000000E+00
  0.00000000E+00  0.00000000E+00  0.00000000E+00  0.00000000E+00  0.00000000E+00
  0.00000000E+00  0.00000000E+00  0.00000000E+00  0.00000000E+00  0.00000000E+00
 -3.81489694E-02  0.00000000E+00  0.00000000E+00  0.00000000E+00  0.00000000E+00
 -3.34806746E-01  0.00000000E+00  0.00000000E+00  0.00000000E+00  0.00000000E+00
 -1.25448010E+00  0.00000000E+00  0.00000000E+00  0.00000000E+00  0.00000000E+00
 -1.43364046E+00  0.00000000E+00  0.00000000E+00  0.00000000E+00  0.00000000E+00
  0.00000000E+00  0.00000000E+00  0.00000000E+00  0.00000000E+00  0.00000000E+00
  0.00000000E+00  0.00000000E+00  0.00000000E+00  0.00000000E+00  0.00000000E+00
  0.00000000E+00  0.00000000E+00  0.00000000E+00  0.00000000E+00  0.00000000E+00
  0.00000000E+00 -2.21774850E-19  3.46745110E-19  2.05599090E-18 -6.86568539E-17
 -1.41792973E-16 -3.62541956E-16  0.00000000E+00  0.00000000E+00  0.00000000E+00
  0.00000000E+00  0.00000000E+00  0.00000000E+00  0.00000000E+00  0.00000000E+00
  0.00000000E+00  0.00000000E+00  0.00000000E+00  0.00000000E+00  0.00000000E+00
  0.00000000E+00  0.00000000E+00  7.32401483E-18  0.00000000E+00  0.00000000E+00
  3.81489694E-02  0.00000000E+00  4.21177893E-17  0.00000000E+00  0.00000000E+00
  3.34806746E-01  0.00000000E+00  2.39785481E-16  0.00000000E+00  0.00000000E+00
  1.25448010E+00  0.00000000E+00  3.06348188E-16  0.00000000E+00  0.00000000E+00
  1.43364046E+00  0.00000000E+00  0.00000000E+00  0.00000000E+00  0.00000000E+00
  0.00000000E+00  0.00000000E+00  0.00000000E+00  0.00000000E+00  0.00000000E+00
  0.00000000E+00  0.00000000E+00  0.00000000E+00  0.00000000E+00  0.00000000E+00
  0.00000000E+00  0.00000000E+00  0.00000000E+00  0.00000000E+00  0.00000000E+00
  0.00000000E+00  0.00000000E+00  0.00000000E+00  0.00000000E+00  0.00000000E+00
  0.00000000E+00  0.00000000E+00  0.00000000E+00  0.00000000E+00  0.00000000E+00
  1.38777878E-17  0.00000000E+00  0.00000000E+00 -5.55111512E-17  0.00000000E+00
  0.00000000E+00 -2.77555756E-17  0.00000000E+00  0.00000000E+00  0.00000000E+00
  0.00000000E+00  0.00000000E+00 -6.93889390E-18  0.00000000E+00  0.00000000E+00
  0.00000000E+00  0.00000000E+00  0.00000000E+00  0.00000000E+00  0.00000000E+00
  0.00000000E+00  0.00000000E+00  0.00000000E+00  0.00000000E+00  0.00000000E+00
  0.00000000E+00  0.00000000E+00  0.00000000E+00  0.00000000E+00  0.00000000E+00
  0.00000000E+00  0.00000000E+00  0.00000000E+00  0.00000000E+00  0.00000000E+00
  0.00000000E+00 -3.59213912E-01  0.00000000E+00  0.00000000E+00  0.00000000E+00
  3.76915001E-17  0.00000000E+00  0.00000000E+00 -4.62404882E-01  0.00000000E+00
  0.00000000E+00  0.00000000E+00 -1.84695364E-17  0.00000000E+00  0.00000000E+00
 -1.83805448E-01  0.00000000E+00  0.00000000E+00  0.00000000E+00  1.50060859E-17
  0.00000000E+00  0.00000000E+00  0.00000000E+00  0.00000000E+00  0.00000000E+00
  0.00000000E+00  0.00000000E+00  0.00000000E+00  0.00000000E+00  0.00000000E+00
  0.00000000E+00  0.00000000E+00  0.00000000E+00  0.00000000E+00  0.00000000E+00
  0.00000000E+00  0.00000000E+00  0.00000000E+00  0.00000000E+00  0.00000000E+00
  0.00000000E+00  0.00000000E+00  0.00000000E+00  0.00000000E+00  0.00000000E+00
  0.00000000E+00  0.00000000E+00  0.00000000E+00  0.00000000E+00  0.00000000E+00
  0.00000000E+00  0.00000000E+00  0.00000000E+00  0.00000000E+00  0.00000000E+00
  0.00000000E+00  0.00000000E+00  0.00000000E+00  0.00000000E+00  0.00000000E+00
  0.00000000E+00  0.00000000E+00  0.00000000E+00  0.00000000E+00  0.00000000E+00
  0.00000000E+00 -1.79606956E-01  0.00000000E+00  0.00000000E+00  0.00000000E+00
  0.00000000E+00  0.00000000E+00  0.00000000E+00 -2.31202441E-01  0.00000000E+00
  0.00000000E+00  0.00000000E+00  0.00000000E+00  0.00000000E+00  0.00000000E+00
 -9.19027238E-02  0.00000000E+00  0.00000000E+00  0.00000000E+00  0.00000000E+00
  0.00000000E+00  0.00000000E+00  0.00000000E+00  0.00000000E+00  0.00000000E+00
  0.00000000E+00  0.00000000E+00  0.00000000E+00 -9.94296065E-18  0.00000000E+00
  0.00000000E+00 -1.05784430E-16  0.00000000E+00  0.00000000E+00 -1.08732955E-16
  0.00000000E+00  0.00000000E+00  4.67388107E-17  0.00000000E+00  0.00000000E+00
 -4.55425402E-17  0.00000000E+00  0.00000000E+00  0.00000000E+00  0.00000000E+00
  0.00000000E+00  0.00000000E+00  0.00000000E+00  0.00000000E+00  0.00000000E+00
  0.00000000E+00  0.00000000E+00  0.00000000E+00  0.00000000E+00  0.00000000E+00
  0.00000000E+00  0.00000000E+00  0.00000000E+00  0.00000000E+00  0.00000000E+00
  0.00000000E+00  4.63743167E-01  0.00000000E+00  0.00000000E+00  1.79606956E-01
  0.00000000E+00  0.00000000E+00  0.00000000E+00  5.96962136E-01  0.00000000E+00
  0.00000000E+00  2.31202441E-01  0.00000000E+00  0.00000000E+00  0.00000000E+00
  2.37291813E-01  0.00000000E+00  0.00000000E+00  9.19027238E-02  0.00000000E+00
  0.00000000E+00  0.00000000E+00  0.00000000E+00  0.00000000E+00  0.00000000E+00
  0.00000000E+00  0.00000000E+00  0.00000000E+00  0.00000000E+00  0.00000000E+00
  0.00000000E+00  0.00000000E+00  1.29574393E-17  0.00000000E+00  0.00000000E+00
 -4.51183818E-17  0.00000000E+00  0.00000000E+00  2.43403403E-17  0.00000000E+00
  0.00000000E+00 -7.82008244E-18  0.00000000E+00  0.00000000E+00  2.27261258E-17
  0.00000000E+00  0.00000000E+00  0.00000000E+00  0.00000000E+00  0.00000000E+00
  0.00000000E+00  0.00000000E+00  0.00000000E+00  0.00000000E+00  0.00000000E+00
  0.00000000E+00  0.00000000E+00  0.00000000E+00  0.00000000E+00  0.00000000E+00
  0.00000000E+00  0.00000000E+00  0.00000000E+00  0.00000000E+00  0.00000000E+00
  0.00000000E+00  0.00000000E+00  0.00000000E+00 -4.01613363E-01  0.00000000E+00
  0.00000000E+00  0.00000000E+00 -1.03696124E-01  0.00000000E+00  0.00000000E+00
 -5.16984375E-01  0.00000000E+00  0.00000000E+00  0.00000000E+00 -1.33484792E-01
  0.00000000E+00  0.00000000E+00 -2.05500738E-01  0.00000000E+00  0.00000000E+00
  0.00000000E+00 -5.30600623E-02  0.00000000E+00  0.00000000E+00  0.00000000E+00
  0.00000000E+00  0.00000000E+00  0.00000000E+00  0.00000000E+00  0.00000000E+00
  0.00000000E+00  0.00000000E+00 -2.07767151E-17  0.00000000E+00  0.00000000E+00
 -4.84246215E-18  0.00000000E+00  0.00000000E+00 -1.29689183E-17  0.00000000E+00
  0.00000000E+00 -5.35793795E-17  0.00000000E+00  0.00000000E+00 -1.33633918E-19
  0.00000000E+00  0.00000000E+00  0.00000000E+00  0.00000000E+00  0.00000000E+00
  0.00000000E+00  0.00000000E+00  0.00000000E+00  0.00000000E+00  0.00000000E+00
  0.00000000E+00  0.00000000E+00  0.00000000E+00  0.00000000E+00  0.00000000E+00
  0.00000000E+00  0.00000000E+00  0.00000000E+00  0.00000000E+00  0.00000000E+00
  0.00000000E+00  0.00000000E+00  0.00000000E+00  4.01613363E-01  0.00000000E+00
  0.00000000E+00  0.00000000E+00  1.03696124E-01  0.00000000E+00  0.00000000E+00
  5.16984375E-01  0.00000000E+00  0.00000000E+00  0.00000000E+00  1.33484792E-01
  0.00000000E+00  0.00000000E+00  2.05500738E-01  0.00000000E+00  0.00000000E+00
  0.00000000E+00  5.30600623E-02  0.00000000E+00  0.00000000E+00  0.00000000E+00
  0.00000000E+00  0.00000000E+00  0.00000000E+00  0.00000000E+00  0.00000000E+00
  0.00000000E+00  0.00000000E+00  0.00000000E+00  0.00000000E+00  0.00000000E+00
  0.00000000E+00  0.00000000E+00  0.00000000E+00  0.00000000E+00  0.00000000E+00
  0.00000000E+00  0.00000000E+00  0.00000000E+00  0.00000000E+00  0.00000000E+00
  0.00000000E+00  0.00000000E+00  0.00000000E+00  0.00000000E+00  0.00000000E+00
  0.00000000E+00  0.00000000E+00  0.00000000E+00  0.00000000E+00  0.00000000E+00
  0.00000000E+00  0.00000000E+00  0.00000000E+00  0.00000000E+00  0.00000000E+00
  0.00000000E+00  0.00000000E+00  0.00000000E+00  0.00000000E+00  0.00000000E+00
  0.00000000E+00  0.00000000E+00  0.00000000E+00  0.00000000E+00  0.00000000E+00
  0.00000000E+00  0.00000000E+00  0.00000000E+00 -4.75195340E-01  0.00000000E+00
  0.00000000E+00  0.00000000E+00  0.00000000E+00  0.00000000E+00  0.00000000E+00
 -6.11704162E-01  0.00000000E+00  0.00000000E+00  0.00000000E+00  0.00000000E+00
  0.00000000E+00  0.00000000E+00 -2.43151752E-01  0.00000000E+00  0.00000000E+00
  0.00000000E+00  0.00000000E+00  0.00000000E+00  0.00000000E+00  0.00000000E+00
  0.00000000E+00  0.00000000E+00  0.00000000E+00  0.00000000E+00  0.00000000E+00
  0.00000000E+00  0.00000000E+00  0.00000000E+00  0.00000000E+00  3.09257213E-18
  0.00000000E+00  0.00000000E+00 -1.73962840E-17  0.00000000E+00  0.00000000E+00
  3.72346489E-18  0.00000000E+00  0.00000000E+00 -1.58347023E-18  0.00000000E+00
  0.00000000E+00  7.12851332E-19  0.00000000E+00  0.00000000E+00  0.00000000E+00
  0.00000000E+00  0.00000000E+00  0.00000000E+00  0.00000000E+00  0.00000000E+00
  0.00000000E+00  0.00000000E+00  0.00000000E+00  0.00000000E+00  0.00000000E+00
  0.00000000E+00  0.00000000E+00  0.00000000E+00  0.00000000E+00  0.00000000E+00
  0.00000000E+00  0.00000000E+00 -4.78118076E-17  0.00000000E+00  0.00000000E+00
  4.75195340E-01  0.00000000E+00  0.00000000E+00  0.00000000E+00 -7.75466571E-17
  0.00000000E+00  0.00000000E+00  6.11704162E-01  0.00000000E+00  0.00000000E+00
  0.00000000E+00  5.86111424E-17  0.00000000E+00  0.00000000E+00  2.43151752E-01
  0.00000000E+00  0.00000000E+00  0.00000000E+00  0.00000000E+00  0.00000000E+00
  0.00000000E+00  0.00000000E+00  0.00000000E+00  0.00000000E+00  0.00000000E+00
  0.00000000E+00  0.00000000E+00  0.00000000E+00  0.00000000E+00  0.00000000E+00
  0.00000000E+00  0.00000000E+00 -2.63417043E-17  0.00000000E+00  0.00000000E+00
  2.82309089E-18  0.00000000E+00  0.00000000E+00 -4.68807339E-18  0.00000000E+00
  0.00000000E+00 -1.95813179E-17  0.00000000E+00  0.00000000E+00  1.09184034E-17
  0.00000000E+00  0.00000000E+00  0.00000000E+00  0.00000000E+00  0.00000000E+00
  0.00000000E+00  0.00000000E+00  0.00000000E+00  0.00000000E+00  0.00000000E+00
  0.00000000E+00  0.00000000E+00  0.00000000E+00  0.00000000E+00  0.00000000E+00
  0.00000000E+00  0.00000000E+00  0.00000000E+00  0.00000000E+00  0.00000000E+00
  0.00000000E+00  0.00000000E+00  0.00000000E+00  1.27871802E-17  0.00000000E+00
  0.00000000E+00  0.00000000E+00 -5.48708315E-01  0.00000000E+00  0.00000000E+00
  3.27303102E-17  0.00000000E+00  0.00000000E+00  0.00000000E+00 -7.06335125E-01
  0.00000000E+00  0.00000000E+00  3.49134353E-17  0.00000000E+00  0.00000000E+00
  0.00000000E+00 -2.80767459E-01  0.00000000E+00  0.00000000E+00  0.00000000E+00
  0.00000000E+00  0.00000000E+00  0.00000000E+00  0.00000000E+00  0.00000000E+00
  0.00000000E+00  0.00000000E+00  0.00000000E+00  0.00000000E+00  0.00000000E+00
  0.00000000E+00 -5.22956023E-18  0.00000000E+00  0.00000000E+00 -3.15777538E-17
  0.00000000E+00  0.00000000E+00 -2.88405320E-17  0.00000000E+00  0.00000000E+00
  1.61768807E-18  0.00000000E+00  0.00000000E+00  5.83921927E-18  0.00000000E+00
  0.00000000E+00  0.00000000E+00  0.00000000E+00  0.00000000E+00  0.00000000E+00
  0.00000000E+00  0.00000000E+00  0.00000000E+00  0.00000000E+00  0.00000000E+00
  0.00000000E+00  0.00000000E+00  0.00000000E+00  0.00000000E+00  0.00000000E+00
  0.00000000E+00  0.00000000E+00  0.00000000E+00  0.00000000E+00  0.00000000E+00
  0.00000000E+00  0.00000000E+00  6.37161578E-19  0.00000000E+00  0.00000000E+00
  0.00000000E+00  5.48708315E-01  0.00000000E+00  0.00000000E+00  7.65697006E-17
  0.00000000E+00  0.00000000E+00  0.00000000E+00  7.06335125E-01  0.00000000E+00
  0.00000000E+00  5.63537536E-18  0.00000000E+00  0.00000000E+00  0.00000000E+00
  2.80767459E-01  0.00000000E+00  0.00000000E+00  0.00000000E+00  0.00000000E+00
  0.00000000E+00  0.00000000E+00  0.00000000E+00  0.00000000E+00  0.00000000E+00
  0.00000000E+00  0.00000000E+00  0.00000000E+00  0.00000000E+00  0.00000000E+00
  0.00000000E+00  0.00000000E+00  0.00000000E+00 -3.46944695E-18  0.00000000E+00
  0.00000000E+00  1.38777878E-17  0.00000000E+00  0.00000000E+00 -2.77555756E-16
  0.00000000E+00  0.00000000E+00 -1.66533454E-16  0.00000000E+00  0.00000000E+00
 -2.77555756E-17  0.00000000E+00  0.00000000E+00  0.00000000E+00  0.00000000E+00
  0.00000000E+00  0.00000000E+00  0.00000000E+00  0.00000000E+00  0.00000000E+00
  0.00000000E+00  0.00000000E+00  0.00000000E+00  0.00000000E+00  0.00000000E+00
  0.00000000E+00  0.00000000E+00  0.00000000E+00  0.00000000E+00  0.00000000E+00
  0.00000000E+00  0.00000000E+00  0.00000000E+00  0.00000000E+00 -1.50656800E-01
  0.00000000E+00  0.00000000E+00  0.00000000E+00 -4.90682052E-17  0.00000000E+00
  0.00000000E+00 -6.56500779E-01  0.00000000E+00  0.00000000E+00  0.00000000E+00
  2.01896481E-17  0.00000000E+00  0.00000000E+00 -6.83651309E-01  0.00000000E+00
  0.00000000E+00  0.00000000E+00 -9.02777326E-17  0.00000000E+00  0.00000000E+00
  0.00000000E+00  0.00000000E+00  0.00000000E+00  0.00000000E+00  0.00000000E+00
  0.00000000E+00  0.00000000E+00  0.00000000E+00  0.00000000E+00  0.00000000E+00
  0.00000000E+00  0.00000000E+00  0.00000000E+00  0.00000000E+00  0.00000000E+00
  0.00000000E+00  0.00000000E+00  0.00000000E+00  0.00000000E+00  0.00000000E+00
  0.00000000E+00  0.00000000E+00  0.00000000E+00  0.00000000E+00  0.00000000E+00
  0.00000000E+00  0.00000000E+00  0.00000000E+00  0.00000000E+00  0.00000000E+00
  0.00000000E+00  0.00000000E+00  0.00000000E+00  0.00000000E+00  0.00000000E+00
  0.00000000E+00  0.00000000E+00  0.00000000E+00  0.00000000E+00  0.00000000E+00
  0.00000000E+00  0.00000000E+00  0.00000000E+00  0.00000000E+00  0.00000000E+00
  0.00000000E+00  0.00000000E+00  0.00000000E+00  0.00000000E+00  0.00000000E+00
  0.00000000E+00  0.00000000E+00  0.00000000E+00 -7.53283998E-02  0.00000000E+00
  0.00000000E+00  0.00000000E+00  0.00000000E+00  0.00000000E+00  0.00000000E+00
 -3.28250389E-01  0.00000000E+00  0.00000000E+00  0.00000000E+00  0.00000000E+00
  0.00000000E+00  0.00000000E+00 -3.41825654E-01  0.00000000E+00  0.00000000E+00
  0.00000000E+00  0.00000000E+00  0.00000000E+00  0.00000000E+00  0.00000000E+00
  0.00000000E+00  0.00000000E+00  0.00000000E+00  0.00000000E+00  0.00000000E+00
  0.00000000E+00  0.00000000E+00  0.00000000E+00  0.00000000E+00  0.00000000E+00
  0.00000000E+00  0.00000000E+00  0.00000000E+00  0.00000000E+00 -1.51542121E-18
  0.00000000E+00  0.00000000E+00 -6.02718109E-17  0.00000000E+00  0.00000000E+00
 -1.26481486E-16  0.00000000E+00  0.00000000E+00 -1.01488539E-16  0.00000000E+00
  0.00000000E+00 -4.57034905E-17  0.00000000E+00  0.00000000E+00  0.00000000E+00
  0.00000000E+00  0.00000000E+00  0.00000000E+00  0.00000000E+00  0.00000000E+00
  0.00000000E+00  0.00000000E+00  0.00000000E+00  0.00000000E+00  0.00000000E+00
  0.00000000E+00  0.00000000E+00  0.00000000E+00  0.00000000E+00  0.00000000E+00
  0.00000000E+00  0.00000000E+00  1.94497092E-01  0.00000000E+00  0.00000000E+00
  7.53283998E-02  0.00000000E+00  0.00000000E+00  0.00000000E+00  8.47538861E-01
  0.00000000E+00  0.00000000E+00  3.28250389E-01  0.00000000E+00  0.00000000E+00
  0.00000000E+00  8.82590045E-01  0.00000000E+00  0.00000000E+00  3.41825654E-01
  0.00000000E+00  0.00000000E+00  0.00000000E+00  0.00000000E+00  0.00000000E+00
  0.00000000E+00  0.00000000E+00  0.00000000E+00  0.00000000E+00  0.00000000E+00
  0.00000000E+00  0.00000000E+00  0.00000000E+00  0.00000000E+00  0.00000000E+00
  0.00000000E+00  0.00000000E+00  0.00000000E+00  0.00000000E+00  0.00000000E+00
  0.00000000E+00  0.00000000E+00 -5.67412853E-19  0.00000000E+00  0.00000000E+00
  2.96305273E-17  0.00000000E+00  0.00000000E+00 -7.14193704E-17  0.00000000E+00
  0.00000000E+00 -2.04880898E-16  0.00000000E+00  0.00000000E+00  3.39747573E-17
  0.00000000E+00  0.00000000E+00  0.00000000E+00  0.00000000E+00  0.00000000E+00
  0.00000000E+00  0.00000000E+00  0.00000000E+00  0.00000000E+00  0.00000000E+00
  0.00000000E+00  0.00000000E+00  0.00000000E+00  0.00000000E+00  0.00000000E+00
  0.00000000E+00  0.00000000E+00  0.00000000E+00  0.00000000E+00  0.00000000E+00
  0.00000000E+00  0.00000000E+00  0.00000000E+00 -1.68439423E-01  0.00000000E+00
  0.00000000E+00  0.00000000E+00 -4.34908719E-02  0.00000000E+00  0.00000000E+00
 -7.33990184E-01  0.00000000E+00  0.00000000E+00  0.00000000E+00 -1.89515451E-01
  0.00000000E+00  0.00000000E+00 -7.64345400E-01  0.00000000E+00  0.00000000E+00
  0.00000000E+00 -1.97353134E-01  0.00000000E+00  0.00000000E+00  0.00000000E+00
  0.00000000E+00  0.00000000E+00  0.00000000E+00  0.00000000E+00  0.00000000E+00
  0.00000000E+00  0.00000000E+00  0.00000000E+00  0.00000000E+00  0.00000000E+00
  0.00000000E+00  0.00000000E+00  0.00000000E+00  0.00000000E+00  0.00000000E+00
  0.00000000E+00 -2.08930447E-21  0.00000000E+00  0.00000000E+00  2.60676668E-18
  0.00000000E+00  0.00000000E+00  4.67700287E-17  0.00000000E+00  0.00000000E+00
 -1.94609249E-16  0.00000000E+00  0.00000000E+00  5.54330416E-18  0.00000000E+00
  0.00000000E+00  0.00000000E+00  0.00000000E+00  0.00000000E+00  0.00000000E+00
  0.00000000E+00  0.00000000E+00  0.00000000E+00  0.00000000E+00  0.00000000E+00
  0.00000000E+00  0.00000000E+00  0.00000000E+00  0.00000000E+00  0.00000000E+00
  0.00000000E+00  0.00000000E+00  0.00000000E+00  0.00000000E+00  0.00000000E+00
  0.00000000E+00  0.00000000E+00  1.68439423E-01  0.00000000E+00  0.00000000E+00
  0.00000000E+00  4.34908719E-02  0.00000000E+00  0.00000000E+00  7.33990184E-01
  0.00000000E+00  0.00000000E+00  0.00000000E+00  1.89515451E-01  0.00000000E+00
  0.00000000E+00  7.64345400E-01  0.00000000E+00  0.00000000E+00  0.00000000E+00
  1.97353134E-01  0.00000000E+00  0.00000000E+00  0.00000000E+00  0.00000000E+00
  0.00000000E+00  0.00000000E+00  0.00000000E+00  0.00000000E+00  0.00000000E+00
  0.00000000E+00  0.00000000E+00  0.00000000E+00  0.00000000E+00  0.00000000E+00
  0.00000000E+00  0.00000000E+00  0.00000000E+00  0.00000000E+00  0.00000000E+00
  0.00000000E+00  0.00000000E+00  0.00000000E+00  0.00000000E+00  0.00000000E+00
  0.00000000E+00  0.00000000E+00  0.00000000E+00  0.00000000E+00  0.00000000E+00
  0.00000000E+00  0.00000000E+00  0.00000000E+00  0.00000000E+00  0.00000000E+00
  0.00000000E+00  0.00000000E+00  0.00000000E+00  0.00000000E+00  0.00000000E+00
  0.00000000E+00  0.00000000E+00  0.00000000E+00  0.00000000E+00  0.00000000E+00
  0.00000000E+00  0.00000000E+00  0.00000000E+00  0.00000000E+00  0.00000000E+00
  0.00000000E+00  0.00000000E+00  0.00000000E+00  0.00000000E+00  0.00000000E+00
  0.00000000E+00  0.00000000E+00  0.00000000E+00  0.00000000E+00  0.00000000E+00
  0.00000000E+00 -1.99300212E-01  0.00000000E+00  0.00000000E+00  0.00000000E+00
  0.00000000E+00  0.00000000E+00  0.00000000E+00 -8.68468898E-01  0.00000000E+00
  0.00000000E+00  0.00000000E+00  0.00000000E+00  0.00000000E+00  0.00000000E+00
 -9.04385674E-01  0.00000000E+00  0.00000000E+00  0.00000000E+00  0.00000000E+00
  0.00000000E+00  0.00000000E+00  0.00000000E+00  0.00000000E+00  0.00000000E+00
  0.00000000E+00  0.00000000E+00  0.00000000E+00  0.00000000E+00  0.00000000E+00
  0.00000000E+00  0.00000000E+00  0.00000000E+00  0.00000000E+00  0.00000000E+00
  0.00000000E+00  0.00000000E+00  0.00000000E+00  0.00000000E+00  0.00000000E+00
  0.00000000E+00  8.07602250E-19  0.00000000E+00  0.00000000E+00 -5.15183935E-18
  0.00000000E+00  0.00000000E+00  5.54015949E-17  0.00000000E+00  0.00000000E+00
 -1.51919323E-16  0.00000000E+00  0.00000000E+00 -3.40302994E-17  0.00000000E+00
  0.00000000E+00  0.00000000E+00  0.00000000E+00  0.00000000E+00  0.00000000E+00
  0.00000000E+00  0.00000000E+00  0.00000000E+00  0.00000000E+00  0.00000000E+00
  0.00000000E+00  0.00000000E+00  0.00000000E+00  0.00000000E+00  0.00000000E+00
  0.00000000E+00  0.00000000E+00  0.00000000E+00  0.00000000E+00 -6.90882537E-17
  0.00000000E+00  0.00000000E+00  1.99300212E-01  0.00000000E+00  0.00000000E+00
  0.00000000E+00  3.07489640E-17  0.00000000E+00  0.00000000E+00  8.68468898E-01
  0.00000000E+00  0.00000000E+00  0.00000000E+00  6.41028712E-17  0.00000000E+00
  0.00000000E+00  9.04385674E-01  0.00000000E+00  0.00000000E+00  0.00000000E+00
  0.00000000E+00  0.00000000E+00  0.00000000E+00  0.00000000E+00  0.00000000E+00
  0.00000000E+00  0.00000000E+00  0.00000000E+00  0.00000000E+00  0.00000000E+00
  0.00000000E+00  0.00000000E+00  0.00000000E+00  0.00000000E+00  0.00000000E+00
  0.00000000E+00  0.00000000E+00  0.00000000E+00  0.00000000E+00  0.00000000E+00
  0.00000000E+00  0.00000000E+00  0.00000000E+00 -1.07212072E-18  0.00000000E+00
  0.00000000E+00  5.97442130E-17  0.00000000E+00  0.00000000E+00 -2.11200290E-16
  0.00000000E+00  0.00000000E+00 -3.20262275E-18  0.00000000E+00  0.00000000E+00
  3.60217999E-17  0.00000000E+00  0.00000000E+00  0.00000000E+00  0.00000000E+00
  0.00000000E+00  0.00000000E+00  0.00000000E+00  0.00000000E+00  0.00000000E+00
  0.00000000E+00  0.00000000E+00  0.00000000E+00  0.00000000E+00  0.00000000E+00
  0.00000000E+00  0.00000000E+00  0.00000000E+00  0.00000000E+00  0.00000000E+00
  0.00000000E+00  0.00000000E+00  0.00000000E+00  0.00000000E+00 -7.87306320E-17
  0.00000000E+00  0.00000000E+00  0.00000000E+00 -2.30132063E-01  0.00000000E+00
  0.00000000E+00 -4.62865740E-17  0.00000000E+00  0.00000000E+00  0.00000000E+00
 -1.00282150E+00  0.00000000E+00  0.00000000E+00 -9.75675748E-17  0.00000000E+00
  0.00000000E+00  0.00000000E+00 -1.04429462E+00  0.00000000E+00  0.00000000E+00
  0.00000000E+00  0.00000000E+00  0.00000000E+00  0.00000000E+00  0.00000000E+00
  0.00000000E+00  0.00000000E+00  0.00000000E+00  0.00000000E+00  0.00000000E+00
  0.00000000E+00  0.00000000E+00  0.00000000E+00  0.00000000E+00  0.00000000E+00
  0.00000000E+00  0.00000000E+00  0.00000000E+00  0.00000000E+00  0.00000000E+00
  0.00000000E+00  1.21007659E-18  0.00000000E+00  0.00000000E+00 -1.75308229E-17
  0.00000000E+00  0.00000000E+00 -3.43028000E-17  0.00000000E+00  0.00000000E+00
  1.65413303E-17  0.00000000E+00  0.00000000E+00 -3.43355723E-18  0.00000000E+00
  0.00000000E+00  0.00000000E+00  0.00000000E+00  0.00000000E+00  0.00000000E+00
  0.00000000E+00  0.00000000E+00  0.00000000E+00  0.00000000E+00  0.00000000E+00
  0.00000000E+00  0.00000000E+00  0.00000000E+00  0.00000000E+00  0.00000000E+00
  0.00000000E+00  0.00000000E+00  0.00000000E+00  0.00000000E+00  0.00000000E+00
  0.00000000E+00  0.00000000E+00  5.45479051E-18  0.00000000E+00  0.00000000E+00
  0.00000000E+00  2.30132063E-01  0.00000000E+00  0.00000000E+00 -1.70692448E-17
  0.00000000E+00  0.00000000E+00  0.00000000E+00  1.00282150E+00  0.00000000E+00
  0.00000000E+00  1.03301303E-17  0.00000000E+00  0.00000000E+00  0.00000000E+00
  1.04429462E+00  0.00000000E+00  0.00000000E+00  0.00000000E+00  0.00000000E+00
  0.00000000E+00  0.00000000E+00  0.00000000E+00  0.00000000E+00  0.00000000E+00
  0.00000000E+00  0.00000000E+00  0.00000000E+00  0.00000000E+00  0.00000000E+00
  0.00000000E+00  0.00000000E+00  0.00000000E+00  0.00000000E+00  0.00000000E+00
Multipole Matrix (0,0,1)                   R   N=        3240
  0.00000000E+00  0.00000000E+00  0.00000000E+00  0.00000000E+00  0.00000000E+00
  0.00000000E+00  0.00000000E+00  0.00000000E+00  0.00000000E+00  0.00000000E+00
  0.00000000E+00  0.00000000E+00  0.00000000E+00  0.00000000E+00  0.00000000E+00
  0.00000000E+00  0.00000000E+00  0.00000000E+00  0.00000000E+00  0.00000000E+00
  0.00000000E+00  0.00000000E+00  0.00000000E+00  0.00000000E+00  0.00000000E+00
  0.00000000E+00  0.00000000E+00  0.00000000E+00  0.00000000E+00  0.00000000E+00
  0.00000000E+00  0.00000000E+00  0.00000000E+00  0.00000000E+00  0.00000000E+00
  0.00000000E+00  1.64199192E-01 -1.99147924E-01  3.56163850E-01  2.56343822E-01
  1.47353649E-01  7.53216724E-02  0.00000000E+00  0.00000000E+00  0.00000000E+00
  0.00000000E+00  0.00000000E+00  0.00000000E+00  0.00000000E+00  0.00000000E+00
  0.00000000E+00  0.00000000E+00  0.00000000E+00  0.00000000E+00  0.00000000E+00
  0.00000000E+00  0.00000000E+00  0.00000000E+00  0.00000000E+00  0.00000000E+00
  0.00000000E+00  0.00000000E+00  0.00000000E+00  0.00000000E+00  0.00000000E+00
  0.00000000E+00  8.02705295E-02 -1.06892042E-01  5.81179742E-01  6.75341911E-01
  5.11734701E-01  2.97142221E-01  0.00000000E+00  0.00000000E+00  0.00000000E+00
  0.00000000E+00  0.00000000E+00  0.00000000E+00  0.00000000E+00  0.00000000E+00
  0.00000000E+00  0.00000000E+00  0.00000000E+00  0.00000000E+00  0.00000000E+00
  0.00000000E+00  0.00000000E+00  0.00000000E+00  0.00000000E+00  0.00000000E+00
  0.00000000E+00  0.00000000E+00  0.00000000E+00  0.00000000E+00  0.00000000E+00
  0.00000000E+00  0.00000000E+00  0.00000000E+00  0.00000000E+00  0.00000000E+00
  0.00000000E+00  0.00000000E+00  0.00000000E+00  0.00000000E+00  0.00000000E+00
  3.06629451E-02 -4.19719926E-02  4.48047850E-01  9.27669544E-01  1.13902030E+00
  8.77094338E-01  0.00000000E+00  0.00000000E+00  0.00000000E+00  0.00000000E+00
  0.00000000E+00  0.00000000E+00  0.00000000E+00  0.00000000E+00  0.00000000E+00
  0.00000000E+00  0.00000000E+00  0.00000000E+00  0.00000000E+00  0.00000000E+00
  0.00000000E+00  0.00000000E+00  0.00000000E+00  0.00000000E+00  0.00000000E+00
  0.00000000E+00  0.00000000E+00  0.00000000E+00  0.00000000E+00  0.00000000E+00
  0.00000000E+00  0.00000000E+00  0.00000000E+00  0.00000000E+00  0.00000000E+00
  0.00000000E+00  0.00000000E+00  0.00000000E+00  0.00000000E+00  0.00000000E+00
  0.00000000E+00  0.00000000E+00  0.00000000E+00  0.00000000E+00  0.00000000E+00
  0.00000000E+00  0.00000000E+00  0.00000000E+00  9.41147234E-03 -1.30216037E-02
  1.99293636E-01  6.63276055E-01  1.49555534E+00  1.93467524E+00  0.00000000E+00
  0.00000000E+00  0.00000000E+00  0.00000000E+00  0.00000000E+00  0.00000000E+00
  0.00000000E+00  0.00000000E+00  0.00000000E+00  0.00000000E+00  0.00000000E+00
  0.00000000E+00  0.00000000E+00  0.00000000E+00  0.00000000E+00  0.00000000E+00
  0.00000000E+00  0.00000000E+00  0.00000000E+00  0.00000000E+00  0.00000000E+00
  0.00000000E+00  0.00000000E+00  0.00000000E+00  0.00000000E+00  0.00000000E+00
  0.00000000E+00  0.00000000E+00  0.00000000E+00  0.00000000E+00  0.00000000E+00
  0.00000000E+00  0.00000000E+00  0.00000000E+00  0.00000000E+00  0.00000000E+00
  0.00000000E+00  0.00000000E+00  0.00000000E+00  0.00000000E+00  0.00000000E+00
  0.00000000E+00  0.00000000E+00  0.00000000E+00  0.00000000E+00  0.00000000E+00
  0.00000000E+00  0.00000000E+00  0.00000000E+00  0.00000000E+00  0.00000000E+00
  2.38346857E-03 -3.31100984E-03  5.92944418E-02  2.57903375E-01  9.54660943E-01
  2.40732066E+00  0.00000000E+00  0.00000000E+00  0.00000000E+00  0.00000000E+00
  0.00000000E+00  0.00000000E+00  0.00000000E+00  0.00000000E+00  0.00000000E+00
  0.00000000E+00  0.00000000E+00  0.00000000E+00  0.00000000E+00  0.00000000E+00
  0.00000000E+00  0.00000000E+00  0.00000000E+00  0.00000000E+00  0.00000000E+00
  0.00000000E+00  0.00000000E+00  0.00000000E+00  0.00000000E+00  3.25437093E-01
  0.00000000E+00  0.00000000E+00  4.80560654E-01  0.00000000E+00  0.00000000E+00
  2.84170686E-01  0.00000000E+00  0.00000000E+00  1.05063579E-01  0.00000000E+00
  0.00000000E+00  2.86126017E-02  0.00000000E+00  0.00000000E+00  0.00000000E+00
  0.00000000E+00  0.00000000E+00  0.00000000E+00  0.00000000E+00  2.81836790E-01
  0.00000000E+00  0.00000000E+00  4.16177735E-01  0.00000000E+00  0.00000000E+00
  2.46099033E-01  0.00000000E+00  0.00000000E+00  9.09877281E-02  0.00000000E+00
  0.00000000E+00  2.47792399E-02  0.00000000E+00  0.00000000E+00  0.00000000E+00
  0.00000000E+00  0.00000000E+00  0.00000000E+00  0.00000000E+00  0.00000000E+00
  0.00000000E+00  0.00000000E+00  0.00000000E+00  2.81836790E-01  0.00000000E+00
  0.00000000E+00  4.16177735E-01  0.00000000E+00  0.00000000E+00  2.46099033E-01
  0.00000000E+00  0.00000000E+00  9.09877281E-02  0.00000000E+00  0.00000000E+00
  2.47792399E-02  0.00000000E+00  0.00000000E+00  0.00000000E+00  0.00000000E+00
  0.00000000E+00  0.00000000E+00  0.00000000E+00  0.00000000E+00  0.00000000E+00
  0.00000000E+00  0.00000000E+00  0.00000000E+00  4.17479164E-18  0.00000000E+00
  0.00000000E+00 -7.78618306E-18  0.00000000E+00  0.00000000E+00 -2.72253986E-18
  0.00000000E+00  0.00000000E+00 -2.56998750E-18  0.00000000E+00  0.00000000E+00
  3.11545594E-19  0.00000000E+00  0.00000000E+00  0.00000000E+00  0.00000000E+00
  0.00000000E+00  0.00000000E+00  0.00000000E+00  0.00000000E+00  0.00000000E+00
  0.00000000E+00  0.00000000E+00  0.00000000E+00  0.00000000E+00  0.00000000E+00
  0.00000000E+00  0.00000000E+00  0.00000000E+00  0.00000000E+00  0.00000000E+00
  0.00000000E+00  0.00000000E+00  0.00000000E+00  0.00000000E+00  0.00000000E+00
  0.00000000E+00  0.00000000E+00  0.00000000E+00  0.00000000E+00  0.00000000E+00
  0.00000000E+00  0.00000000E+00  0.00000000E+00  0.00000000E+00  0.00000000E+00
  0.00000000E+00  0.00000000E+00  0.00000000E+00  0.00000000E+00  1.63234837E-01
  0.00000000E+00  0.00000000E+00  6.26174764E-01  0.00000000E+00  0.00000000E+00
  8.12615208E-01  0.00000000E+00  0.00000000E+00  4.76599000E-01  0.00000000E+00
  0.00000000E+00  1.60154268E-01  0.00000000E+00  0.00000000E+00  0.00000000E+00
  0.00000000E+00  0.00000000E+00  0.00000000E+00  0.00000000E+00  0.00000000E+00
  0.00000000E+00  0.00000000E+00  0.00000000E+00  0.00000000E+00  1.41365516E-01
  0.00000000E+00  0.00000000E+00  5.42283253E-01  0.00000000E+00  0.00000000E+00
  7.03745414E-01  0.00000000E+00  0.00000000E+00  4.12746842E-01  0.00000000E+00
  0.00000000E+00  1.38697665E-01  0.00000000E+00  0.00000000E+00  0.00000000E+00
  0.00000000E+00  0.00000000E+00  0.00000000E+00  0.00000000E+00  0.00000000E+00
  0.00000000E+00  0.00000000E+00  0.00000000E+00  0.00000000E+00  0.00000000E+00
  0.00000000E+00  0.00000000E+00  0.00000000E+00  1.41365516E-01  0.00000000E+00
  0.00000000E+00  5.42283253E-01  0.00000000E+00  0.00000000E+00  7.03745414E-01
  0.00000000E+00  0.00000000E+00  4.12746842E-01  0.00000000E+00  0.00000000E+00
  1.38697665E-01  0.00000000E+00  0.00000000E+00  0.00000000E+00  0.00000000E+00
  0.00000000E+00  0.00000000E+00  0.00000000E+00  0.00000000E+00  0.00000000E+00
  0.00000000E+00  0.00000000E+00  0.00000000E+00  0.00000000E+00  0.00000000E+00
  0.00000000E+00  0.00000000E+00  0.00000000E+00 -2.91105139E-19  0.00000000E+00
  0.00000000E+00  1.66470747E-18  0.00000000E+00  0.00000000E+00 -2.43508785E-18
  0.00000000E+00  0.00000000E+00  2.34756506E-18  0.00000000E+00  0.00000000E+00
  5.12939198E-18  0.00000000E+00  0.00000000E+00  0.00000000E+00  0.00000000E+00
  0.00000000E+00  0.00000000E+00  0.00000000E+00  0.00000000E+00  0.00000000E+00
  0.00000000E+00  0.00000000E+00  0.00000000E+00  0.00000000E+00  0.00000000E+00
  0.00000000E+00  0.00000000E+00  0.00000000E+00  0.00000000E+00  0.00000000E+00
  0.00000000E+00  0.00000000E+00  0.00000000E+00  0.00000000E+00  0.00000000E+00
  0.00000000E+00  0.00000000E+00  0.00000000E+00  0.00000000E+00  0.00000000E+00
  0.00000000E+00  0.00000000E+00  0.00000000E+00  0.00000000E+00  0.00000000E+00
  0.00000000E+00  0.00000000E+00  0.00000000E+00  0.00000000E+00  0.00000000E+00
  0.00000000E+00  0.00000000E+00  0.00000000E+00  0.00000000E+00  0.00000000E+00
  0.00000000E+00  0.00000000E+00  0.00000000E+00  0.00000000E+00  4.39005402E-02
  0.00000000E+00  0.00000000E+00  3.29463641E-01  0.00000000E+00  0.00000000E+00
  1.04793837E+00  0.00000000E+00  0.00000000E+00  1.36904655E+00  0.00000000E+00
  0.00000000E+00  7.45511259E-01  0.00000000E+00  0.00000000E+00  0.00000000E+00
  0.00000000E+00  0.00000000E+00  0.00000000E+00  0.00000000E+00  0.00000000E+00
  0.00000000E+00  0.00000000E+00  0.00000000E+00  0.00000000E+00  0.00000000E+00
  0.00000000E+00  0.00000000E+00  0.00000000E+00  0.00000000E+00  3.80189830E-02
  0.00000000E+00  0.00000000E+00  2.85323883E-01  0.00000000E+00  0.00000000E+00
  9.07541250E-01  0.00000000E+00  0.00000000E+00  1.18562909E+00  0.00000000E+00
  0.00000000E+00  6.45631689E-01  0.00000000E+00  0.00000000E+00  0.00000000E+00
  0.00000000E+00  0.00000000E+00  0.00000000E+00  0.00000000E+00  0.00000000E+00
  0.00000000E+00  0.00000000E+00  0.00000000E+00  0.00000000E+00  0.00000000E+00
  0.00000000E+00  0.00000000E+00  0.00000000E+00  0.00000000E+00  0.00000000E+00
  0.00000000E+00  0.00000000E+00  0.00000000E+00  3.80189830E-02  0.00000000E+00
  0.00000000E+00  2.85323883E-01  0.00000000E+00  0.00000000E+00  9.07541250E-01
  0.00000000E+00  0.00000000E+00  1.18562909E+00  0.00000000E+00  0.00000000E+00
  6.45631689E-01  0.00000000E+00  0.00000000E+00  0.00000000E+00  0.00000000E+00
  0.00000000E+00  0.00000000E+00  0.00000000E+00  0.00000000E+00  0.00000000E+00
  0.00000000E+00  0.00000000E+00  0.00000000E+00  0.00000000E+00  0.00000000E+00
  0.00000000E+00  0.00000000E+00  0.00000000E+00  0.00000000E+00  0.00000000E+00
  0.00000000E+00  0.00000000E+00  0.00000000E+00  9.89077270E-19  0.00000000E+00
  0.00000000E+00  1.24325021E-18  0.00000000E+00  0.00000000E+00 -1.05815701E-17
  0.00000000E+00  0.00000000E+00 -4.59613239E-17  0.00000000E+00  0.00000000E+00
  2.07789047E-17  0.00000000E+00  0.00000000E+00  0.00000000E+00  0.00000000E+00
  0.00000000E+00  0.00000000E+00  0.00000000E+00  0.00000000E+00  0.00000000E+00
  0.00000000E+00  0.00000000E+00  0.00000000E+00  0.00000000E+00  0.00000000E+00
  0.00000000E+00  0.00000000E+00  0.00000000E+00  0.00000000E+00  0.00000000E+00
  0.00000000E+00  0.00000000E+00  0.00000000E+00  0.00000000E+00  0.00000000E+00
  0.00000000E+00  0.00000000E+00  0.00000000E+00  0.00000000E+00  0.00000000E+00
  0.00000000E+00  0.00000000E+00  0.00000000E+00  0.00000000E+00  0.00000000E+00
  0.00000000E+00  0.00000000E+00  0.00000000E+00  0.00000000E+00  0.00000000E+00
  0.00000000E+00  0.00000000E+00  0.00000000E+00  0.00000000E+00  0.00000000E+00
  0.00000000E+00  0.00000000E+00  0.00000000E+00  0.00000000E+00  0.00000000E+00
  0.00000000E+00  0.00000000E+00  0.00000000E+00  0.00000000E+00  0.00000000E+00
  0.00000000E+00  0.00000000E+00  0.00000000E+00  0.00000000E+00  8.00961469E-03
  0.00000000E+00  0.00000000E+00  8.46580015E-02  0.00000000E+00  0.00000000E+00
  5.22450745E-01  0.00000000E+00  0.00000000E+00  1.76096599E+00  0.00000000E+00
  0.00000000E+00  2.33886720E+00  0.00000000E+00  0.00000000E+00  0.00000000E+00
  0.00000000E+00  0.00000000E+00  0.00000000E+00  0.00000000E+00  0.00000000E+00
  0.00000000E+00  0.00000000E+00  0.00000000E+00  0.00000000E+00  0.00000000E+00
  0.00000000E+00  0.00000000E+00  0.00000000E+00  0.00000000E+00  0.00000000E+00
  0.00000000E+00  0.00000000E+00  0.00000000E+00  0.00000000E+00  6.93652979E-03
  0.00000000E+00  0.00000000E+00  7.33159799E-02  0.00000000E+00  0.00000000E+00
  4.52455618E-01  0.00000000E+00  0.00000000E+00  1.52504128E+00  0.00000000E+00
  0.00000000E+00  2.02551841E+00  0.00000000E+00  0.00000000E+00  0.00000000E+00
  0.00000000E+00  0.00000000E+00  0.00000000E+00  0.00000000E+00  0.00000000E+00
  0.00000000E+00  0.00000000E+00  0.00000000E+00  0.00000000E+00  0.00000000E+00
  0.00000000E+00  0.00000000E+00  0.00000000E+00  0.00000000E+00  0.00000000E+00
  0.00000000E+00  0.00000000E+00  0.00000000E+00  0.00000000E+00  0.00000000E+00
  0.00000000E+00  0.00000000E+00  0.00000000E+00  6.93652979E-03  0.00000000E+00
  0.00000000E+00  7.33159799E-02  0.00000000E+00  0.00000000E+00  4.52455618E-01
  0.00000000E+00  0.00000000E+00  1.52504128E+00  0.00000000E+00  0.00000000E+00
  2.02551841E+00  0.00000000E+00  0.00000000E+00  0.00000000E+00  0.00000000E+00
  0.00000000E+00  0.00000000E+00  0.00000000E+00  0.00000000E+00  0.00000000E+00
  0.00000000E+00  0.00000000E+00  0.00000000E+00  0.00000000E+00  0.00000000E+00
  0.00000000E+00  0.00000000E+00  0.00000000E+00  0.00000000E+00  0.00000000E+00
  0.00000000E+00  0.00000000E+00  0.00000000E+00  0.00000000E+00  0.00000000E+00
  0.00000000E+00  0.00000000E+00  0.00000000E+00  1.07796304E-19  0.00000000E+00
  0.00000000E+00  2.78027330E-18  0.00000000E+00  0.00000000E+00  3.81830835E-18
  0.00000000E+00  0.00000000E+00 -7.93606932E-18  0.00000000E+00  0.00000000E+00
 -4.55074314E-17  0.00000000E+00  0.00000000E+00  0.00000000E+00  0.00000000E+00
  0.00000000E+00  0.00000000E+00  0.00000000E+00  0.00000000E+00  0.00000000E+00
  0.00000000E+00  0.00000000E+00  0.00000000E+00  0.00000000E+00  0.00000000E+00
  0.00000000E+00  0.00000000E+00  0.00000000E+00  0.00000000E+00  0.00000000E+00
  0.00000000E+00  0.00000000E+00  0.00000000E+00  0.00000000E+00  0.00000000E+00
  0.00000000E+00  0.00000000E+00  0.00000000E+00  0.00000000E+00  0.00000000E+00
  0.00000000E+00  0.00000000E+00  0.00000000E+00  0.00000000E+00  0.00000000E+00
  0.00000000E+00  0.00000000E+00  0.00000000E+00  0.00000000E+00  0.00000000E+00
  0.00000000E+00  0.00000000E+00  0.00000000E+00  0.00000000E+00  0.00000000E+00
  0.00000000E+00  0.00000000E+00  0.00000000E+00  0.00000000E+00  0.00000000E+00
  0.00000000E+00  0.00000000E+00  0.00000000E+00  0.00000000E+00  0.00000000E+00
  0.00000000E+00  0.00000000E+00  0.00000000E+00  0.00000000E+00  0.00000000E+00
  0.00000000E+00  0.00000000E+00  1.38777878E-17 -2.22044605E-16  0.00000000E+00
  0.00000000E+00  0.00000000E+00  0.00000000E+00  0.00000000E+00  0.00000000E+00
  0.00000000E+00  0.00000000E+00  0.00000000E+00  0.00000000E+00  0.00000000E+00
  0.00000000E+00  0.00000000E+00  0.00000000E+00  0.00000000E+00  0.00000000E+00
  0.00000000E+00  0.00000000E+00  4.74524854E-01  0.00000000E+00  0.00000000E+00
  2.81047959E-17  0.00000000E+00  5.95185636E-01  0.00000000E+00  0.00000000E+00
 -4.91345163E-18  0.00000000E+00  2.65745802E-01  0.00000000E+00  0.00000000E+00
 -8.50830119E-18  0.00000000E+00  6.08040377E-02  0.00000000E+00  0.00000000E+00
  1.67792119E-19  0.00000000E+00  0.00000000E+00  0.00000000E+00  0.00000000E+00
  0.00000000E+00  0.00000000E+00  0.00000000E+00  0.00000000E+00  0.00000000E+00
  0.00000000E+00  0.00000000E+00  0.00000000E+00  0.00000000E+00  0.00000000E+00
  0.00000000E+00  0.00000000E+00  0.00000000E+00  0.00000000E+00  0.00000000E+00
  0.00000000E+00  0.00000000E+00  0.00000000E+00  0.00000000E+00  0.00000000E+00
  4.47386323E-01  0.00000000E+00  0.00000000E+00  0.00000000E+00  0.00000000E+00
  5.61146399E-01  0.00000000E+00  0.00000000E+00  0.00000000E+00  0.00000000E+00
  2.50547545E-01  0.00000000E+00  0.00000000E+00  0.00000000E+00  0.00000000E+00
  5.73265965E-02  0.00000000E+00  0.00000000E+00  0.00000000E+00  0.00000000E+00
  0.00000000E+00  0.00000000E+00  0.00000000E+00  0.00000000E+00  0.00000000E+00
  0.00000000E+00  0.00000000E+00  0.00000000E+00  0.00000000E+00  0.00000000E+00
  0.00000000E+00  0.00000000E+00  0.00000000E+00  0.00000000E+00  0.00000000E+00
  0.00000000E+00  0.00000000E+00  0.00000000E+00  0.00000000E+00  0.00000000E+00
  0.00000000E+00  0.00000000E+00  0.00000000E+00  0.00000000E+00  4.47386323E-01
  0.00000000E+00  0.00000000E+00  0.00000000E+00  0.00000000E+00  5.61146399E-01
  0.00000000E+00  0.00000000E+00  0.00000000E+00  0.00000000E+00  2.50547545E-01
  0.00000000E+00  0.00000000E+00  0.00000000E+00  0.00000000E+00  5.73265965E-02
  0.00000000E+00  0.00000000E+00  0.00000000E+00  0.00000000E+00  0.00000000E+00
 -3.00635554E-18 -1.92496778E-18  1.13806193E-17 -2.58387553E-17  9.96447820E-18
 -4.01874293E-18  0.00000000E+00  0.00000000E+00  0.00000000E+00  0.00000000E+00
  0.00000000E+00  0.00000000E+00  0.00000000E+00  0.00000000E+00  0.00000000E+00
  0.00000000E+00  0.00000000E+00  0.00000000E+00  0.00000000E+00  0.00000000E+00
  0.00000000E+00 -4.38180070E-18  0.00000000E+00  0.00000000E+00  3.53689943E-01
  0.00000000E+00 -8.61358956E-18  0.00000000E+00  0.00000000E+00  4.43625181E-01
  0.00000000E+00  1.54046888E-18  0.00000000E+00  0.00000000E+00  1.98075226E-01
  0.00000000E+00  5.99311413E-19  0.00000000E+00  0.00000000E+00  4.53206539E-02
  0.00000000E+00  0.00000000E+00  0.00000000E+00  0.00000000E+00  0.00000000E+00
  0.00000000E+00  0.00000000E+00  0.00000000E+00  0.00000000E+00  0.00000000E+00
  0.00000000E+00  0.00000000E+00  0.00000000E+00  0.00000000E+00  0.00000000E+00
  0.00000000E+00  0.00000000E+00  0.00000000E+00  0.00000000E+00  0.00000000E+00
  0.00000000E+00  0.00000000E+00  0.00000000E+00  0.00000000E+00  0.00000000E+00
  0.00000000E+00  0.00000000E+00  0.00000000E+00  0.00000000E+00  0.00000000E+00
  3.53689943E-01  0.00000000E+00  0.00000000E+00  0.00000000E+00  0.00000000E+00
  4.43625181E-01  0.00000000E+00  0.00000000E+00  0.00000000E+00  0.00000000E+00
  1.98075226E-01  0.00000000E+00  0.00000000E+00  0.00000000E+00  0.00000000E+00
  4.53206539E-02  0.00000000E+00  0.00000000E+00  0.00000000E+00  0.00000000E+00
  0.00000000E+00  0.00000000E+00  0.00000000E+00  0.00000000E+00  0.00000000E+00
  0.00000000E+00  0.00000000E+00  0.00000000E+00  0.00000000E+00  0.00000000E+00
  0.00000000E+00  0.00000000E+00  0.00000000E+00  0.00000000E+00  0.00000000E+00
  0.00000000E+00  0.00000000E+00  0.00000000E+00  0.00000000E+00  0.00000000E+00
  0.00000000E+00  0.00000000E+00  0.00000000E+00 -4.10736216E-17  0.00000000E+00
  0.00000000E+00  0.00000000E+00  0.00000000E+00  5.29570569E-17  0.00000000E+00
  0.00000000E+00  0.00000000E+00  0.00000000E+00 -3.19846986E-18  0.00000000E+00
  0.00000000E+00  0.00000000E+00  0.00000000E+00 -3.64534386E-18  0.00000000E+00
  0.00000000E+00  0.00000000E+00  0.00000000E+00  0.00000000E+00  0.00000000E+00
  0.00000000E+00  0.00000000E+00  0.00000000E+00  0.00000000E+00  0.00000000E+00
  0.00000000E+00  0.00000000E+00  0.00000000E+00  0.00000000E+00  0.00000000E+00
  0.00000000E+00  0.00000000E+00  0.00000000E+00  0.00000000E+00  0.00000000E+00
  0.00000000E+00  0.00000000E+00  0.00000000E+00  0.00000000E+00  0.00000000E+00
  0.00000000E+00  0.00000000E+00  0.00000000E+00  0.00000000E+00  0.00000000E+00
  0.00000000E+00  2.18175499E-17  0.00000000E+00  0.00000000E+00  0.00000000E+00
  0.00000000E+00 -7.66294110E-17  0.00000000E+00  0.00000000E+00  0.00000000E+00
  0.00000000E+00  7.39391839E-19  0.00000000E+00  0.00000000E+00  0.00000000E+00
  0.00000000E+00  2.53417761E-18  0.00000000E+00  0.00000000E+00  0.00000000E+00
  0.00000000E+00  0.00000000E+00  0.00000000E+00  0.00000000E+00  0.00000000E+00
  0.00000000E+00  0.00000000E+00  1.73472348E-18  0.00000000E+00 -1.11022302E-16
 -2.22044605E-16 -1.11022302E-16  0.00000000E+00  0.00000000E+00  0.00000000E+00
  0.00000000E+00  0.00000000E+00  0.00000000E+00  0.00000000E+00  0.00000000E+00
  0.00000000E+00  0.00000000E+00  0.00000000E+00  0.00000000E+00  0.00000000E+00
  0.00000000E+00  0.00000000E+00  1.92873369E-01  0.00000000E+00  0.00000000E+00
  3.69029201E-18  0.00000000E+00  7.94016675E-01  0.00000000E+00  0.00000000E+00
 -3.17268614E-17  0.00000000E+00  1.02717218E+00  0.00000000E+00  0.00000000E+00
 -2.21660803E-17  0.00000000E+00  4.45798446E-01  0.00000000E+00  0.00000000E+00
 -1.52319280E-17  0.00000000E+00  0.00000000E+00  0.00000000E+00  0.00000000E+00
  0.00000000E+00  0.00000000E+00  0.00000000E+00  0.00000000E+00  0.00000000E+00
  0.00000000E+00  0.00000000E+00  0.00000000E+00  0.00000000E+00  0.00000000E+00
  0.00000000E+00  0.00000000E+00  0.00000000E+00  0.00000000E+00  0.00000000E+00
  0.00000000E+00  0.00000000E+00  0.00000000E+00  0.00000000E+00  0.00000000E+00
  0.00000000E+00  0.00000000E+00  0.00000000E+00  0.00000000E+00  0.00000000E+00
  0.00000000E+00  0.00000000E+00  1.81842756E-01  0.00000000E+00  0.00000000E+00
  0.00000000E+00  0.00000000E+00  7.48606100E-01  0.00000000E+00  0.00000000E+00
  0.00000000E+00  0.00000000E+00  9.68427216E-01  0.00000000E+00  0.00000000E+00
  0.00000000E+00  0.00000000E+00  4.20302805E-01  0.00000000E+00  0.00000000E+00
  0.00000000E+00  0.00000000E+00  0.00000000E+00  0.00000000E+00  0.00000000E+00
  0.00000000E+00  0.00000000E+00  0.00000000E+00  0.00000000E+00  0.00000000E+00
  0.00000000E+00  0.00000000E+00  0.00000000E+00  0.00000000E+00  0.00000000E+00
  0.00000000E+00  0.00000000E+00  0.00000000E+00  0.00000000E+00  0.00000000E+00
  0.00000000E+00  0.00000000E+00  0.00000000E+00  0.00000000E+00  0.00000000E+00
  0.00000000E+00  0.00000000E+00  0.00000000E+00  0.00000000E+00  0.00000000E+00
  0.00000000E+00  0.00000000E+00  0.00000000E+00  1.81842756E-01  0.00000000E+00
  0.00000000E+00  0.00000000E+00  0.00000000E+00  7.48606100E-01  0.00000000E+00
  0.00000000E+00  0.00000000E+00  0.00000000E+00  9.68427216E-01  0.00000000E+00
  0.00000000E+00  0.00000000E+00  0.00000000E+00  4.20302805E-01  0.00000000E+00
  0.00000000E+00  0.00000000E+00  0.00000000E+00  0.00000000E+00  0.00000000E+00
  0.00000000E+00  0.00000000E+00  0.00000000E+00  0.00000000E+00  0.00000000E+00
  0.00000000E+00 -1.09788742E-20  4.37692428E-21 -4.02185873E-18 -3.39789590E-17
  1.52213886E-17 -7.28289425E-18  0.00000000E+00  0.00000000E+00  0.00000000E+00
  0.00000000E+00  0.00000000E+00  0.00000000E+00  0.00000000E+00  0.00000000E+00
  0.00000000E+00  0.00000000E+00  0.00000000E+00  0.00000000E+00  0.00000000E+00
  0.00000000E+00  0.00000000E+00  1.93066891E-18  0.00000000E+00  0.00000000E+00
  1.43759321E-01  0.00000000E+00  4.29714220E-18  0.00000000E+00  0.00000000E+00
  5.91825087E-01  0.00000000E+00  5.42777406E-18  0.00000000E+00  0.00000000E+00
  7.65608937E-01  0.00000000E+00  2.04338602E-18  0.00000000E+00  0.00000000E+00
  3.32278543E-01  0.00000000E+00  0.00000000E+00  0.00000000E+00  0.00000000E+00
  0.00000000E+00  0.00000000E+00  0.00000000E+00  0.00000000E+00  0.00000000E+00
  0.00000000E+00  0.00000000E+00  0.00000000E+00  0.00000000E+00  0.00000000E+00
  0.00000000E+00  0.00000000E+00  0.00000000E+00  0.00000000E+00  0.00000000E+00
  0.00000000E+00  0.00000000E+00  0.00000000E+00  0.00000000E+00  0.00000000E+00
  0.00000000E+00  0.00000000E+00  0.00000000E+00  0.00000000E+00  0.00000000E+00
  0.00000000E+00  0.00000000E+00  0.00000000E+00  0.00000000E+00  0.00000000E+00
  0.00000000E+00  0.00000000E+00  0.00000000E+00  1.43759321E-01  0.00000000E+00
  0.00000000E+00  0.00000000E+00  0.00000000E+00  5.91825087E-01  0.00000000E+00
  0.00000000E+00  0.00000000E+00  0.00000000E+00  7.65608937E-01  0.00000000E+00
  0.00000000E+00  0.00000000E+00  0.00000000E+00  3.32278543E-01  0.00000000E+00
  0.00000000E+00  0.00000000E+00  0.00000000E+00  0.00000000E+00  0.00000000E+00
  0.00000000E+00  0.00000000E+00  0.00000000E+00  0.00000000E+00  0.00000000E+00
  0.00000000E+00  0.00000000E+00  0.00000000E+00  0.00000000E+00  0.00000000E+00
  0.00000000E+00  0.00000000E+00  0.00000000E+00  0.00000000E+00  0.00000000E+00
  0.00000000E+00  0.00000000E+00  0.00000000E+00  0.00000000E+00  0.00000000E+00
  0.00000000E+00  0.00000000E+00  0.00000000E+00  0.00000000E+00  0.00000000E+00
  0.00000000E+00  0.00000000E+00  0.00000000E+00  5.02686419E-18  0.00000000E+00
  0.00000000E+00  0.00000000E+00  0.00000000E+00 -1.14167451E-17  0.00000000E+00
  0.00000000E+00  0.00000000E+00  0.00000000E+00 -4.10969643E-18  0.00000000E+00
  0.00000000E+00  0.00000000E+00  0.00000000E+00 -6.24070271E-17  0.00000000E+00
  0.00000000E+00  0.00000000E+00  0.00000000E+00  0.00000000E+00  0.00000000E+00
  0.00000000E+00  0.00000000E+00  0.00000000E+00  0.00000000E+00  0.00000000E+00
  0.00000000E+00  0.00000000E+00  0.00000000E+00  0.00000000E+00  0.00000000E+00
  0.00000000E+00  0.00000000E+00  0.00000000E+00  0.00000000E+00  0.00000000E+00
  0.00000000E+00  0.00000000E+00  0.00000000E+00  0.00000000E+00  0.00000000E+00
  0.00000000E+00  0.00000000E+00  0.00000000E+00  0.00000000E+00  0.00000000E+00
  0.00000000E+00  0.00000000E+00  0.00000000E+00  0.00000000E+00  0.00000000E+00
  0.00000000E+00  0.00000000E+00  0.00000000E+00  3.53377134E-19  0.00000000E+00
  0.00000000E+00  0.00000000E+00  0.00000000E+00  2.03090127E-17  0.00000000E+00
  0.00000000E+00  0.00000000E+00  0.00000000E+00 -7.91883369E-18  0.00000000E+00
  0.00000000E+00  0.00000000E+00  0.00000000E+00  4.17318821E-17  0.00000000E+00
  0.00000000E+00  0.00000000E+00  0.00000000E+00  0.00000000E+00  0.00000000E+00
  0.00000000E+00  0.00000000E+00  0.00000000E+00  0.00000000E+00  0.00000000E+00
  0.00000000E+00  0.00000000E+00  0.00000000E+00  0.00000000E+00  0.00000000E+00
  0.00000000E+00  0.00000000E+00  0.00000000E+00 -1.11022302E-16 -2.22044605E-16
 -2.22044605E-16  0.00000000E+00  0.00000000E+00  0.00000000E+00  0.00000000E+00
  0.00000000E+00  0.00000000E+00  0.00000000E+00  0.00000000E+00  0.00000000E+00
  0.00000000E+00  0.00000000E+00  0.00000000E+00  0.00000000E+00  0.00000000E+00
  0.00000000E+00  4.17901022E-02  0.00000000E+00  0.00000000E+00 -1.25240277E-18
  0.00000000E+00  3.66762414E-01  0.00000000E+00  0.00000000E+00 -3.13813004E-18
  0.00000000E+00  1.37421410E+00  0.00000000E+00  0.00000000E+00  4.37306998E-18
  0.00000000E+00  1.57047444E+00  0.00000000E+00  0.00000000E+00  1.31075229E-17
  0.00000000E+00  0.00000000E+00  0.00000000E+00  0.00000000E+00  0.00000000E+00
  0.00000000E+00  0.00000000E+00  0.00000000E+00  0.00000000E+00  0.00000000E+00
  0.00000000E+00  0.00000000E+00  0.00000000E+00  0.00000000E+00  0.00000000E+00
  0.00000000E+00  0.00000000E+00  0.00000000E+00  0.00000000E+00  0.00000000E+00
  0.00000000E+00  0.00000000E+00  0.00000000E+00  0.00000000E+00  0.00000000E+00
  0.00000000E+00  0.00000000E+00  0.00000000E+00  0.00000000E+00  0.00000000E+00
  0.00000000E+00  0.00000000E+00  0.00000000E+00  0.00000000E+00  0.00000000E+00
  0.00000000E+00  0.00000000E+00  0.00000000E+00  3.94000862E-02  0.00000000E+00
  0.00000000E+00  0.00000000E+00  0.00000000E+00  3.45786920E-01  0.00000000E+00
  0.00000000E+00  0.00000000E+00  0.00000000E+00  1.29562148E+00  0.00000000E+00
  0.00000000E+00  0.00000000E+00  0.00000000E+00  1.48065750E+00  0.00000000E+00
  0.00000000E+00  0.00000000E+00  0.00000000E+00  0.00000000E+00  0.00000000E+00
  0.00000000E+00  0.00000000E+00  0.00000000E+00  0.00000000E+00  0.00000000E+00
  0.00000000E+00  0.00000000E+00  0.00000000E+00  0.00000000E+00  0.00000000E+00
  0.00000000E+00  0.00000000E+00  0.00000000E+00  0.00000000E+00  0.00000000E+00
  0.00000000E+00  0.00000000E+00  0.00000000E+00  0.00000000E+00  0.00000000E+00
  0.00000000E+00  0.00000000E+00  0.00000000E+00  0.00000000E+00  0.00000000E+00
  0.00000000E+00  0.00000000E+00  0.00000000E+00  0.00000000E+00  0.00000000E+00
  0.00000000E+00  0.00000000E+00  0.00000000E+00  0.00000000E+00  0.00000000E+00
  0.00000000E+00  3.94000862E-02  0.00000000E+00  0.00000000E+00  0.00000000E+00
  0.00000000E+00  3.45786920E-01  0.00000000E+00  0.00000000E+00  0.00000000E+00
  0.00000000E+00  1.29562148E+00  0.00000000E+00  0.00000000E+00  0.00000000E+00
  0.00000000E+00  1.48065750E+00  0.00000000E+00  0.00000000E+00  0.00000000E+00
  0.00000000E+00  0.00000000E+00  0.00000000E+00  0.00000000E+00  0.00000000E+00
  0.00000000E+00  0.00000000E+00  0.00000000E+00  0.00000000E+00  0.00000000E+00
  0.00000000E+00  0.00000000E+00  0.00000000E+00  0.00000000E+00  0.00000000E+00
  0.00000000E+00  5.40025256E-20 -6.31148386E-21 -4.97339183E-18 -9.68455358E-19
  2.67731579E-17  3.03451038E-17  0.00000000E+00  0.00000000E+00  0.00000000E+00
  0.00000000E+00  0.00000000E+00  0.00000000E+00  0.00000000E+00  0.00000000E+00
  0.00000000E+00  0.00000000E+00  0.00000000E+00  0.00000000E+00  0.00000000E+00
  0.00000000E+00  0.00000000E+00  6.99638691E-20  0.00000000E+00  0.00000000E+00
  3.11485031E-02  0.00000000E+00  3.37528381E-18  0.00000000E+00  0.00000000E+00
  2.73368563E-01  0.00000000E+00 -8.46205551E-18  0.00000000E+00  0.00000000E+00
  1.02427871E+00  0.00000000E+00 -2.13744822E-17  0.00000000E+00  0.00000000E+00
  1.17056253E+00  0.00000000E+00  0.00000000E+00  0.00000000E+00  0.00000000E+00
  0.00000000E+00  0.00000000E+00  0.00000000E+00  0.00000000E+00  0.00000000E+00
  0.00000000E+00  0.00000000E+00  0.00000000E+00  0.00000000E+00  0.00000000E+00
  0.00000000E+00  0.00000000E+00  0.00000000E+00  0.00000000E+00  0.00000000E+00
  0.00000000E+00  0.00000000E+00  0.00000000E+00  0.00000000E+00  0.00000000E+00
  0.00000000E+00  0.00000000E+00  0.00000000E+00  0.00000000E+00  0.00000000E+00
  0.00000000E+00  0.00000000E+00  0.00000000E+00  0.00000000E+00  0.00000000E+00
  0.00000000E+00  0.00000000E+00  0.00000000E+00  0.00000000E+00  0.00000000E+00
  0.00000000E+00  0.00000000E+00  0.00000000E+00  0.00000000E+00  0.00000000E+00
  3.11485031E-02  0.00000000E+00  0.00000000E+00  0.00000000E+00  0.00000000E+00
  2.73368563E-01  0.00000000E+00  0.00000000E+00  0.00000000E+00  0.00000000E+00
  1.02427871E+00  0.00000000E+00  0.00000000E+00  0.00000000E+00  0.00000000E+00
  1.17056253E+00  0.00000000E+00  0.00000000E+00  0.00000000E+00  0.00000000E+00
  0.00000000E+00  0.00000000E+00  0.00000000E+00  0.00000000E+00  0.00000000E+00
  0.00000000E+00  0.00000000E+00  0.00000000E+00  0.00000000E+00  0.00000000E+00
  0.00000000E+00  0.00000000E+00  0.00000000E+00  0.00000000E+00  0.00000000E+00
  0.00000000E+00  0.00000000E+00  0.00000000E+00  0.00000000E+00  0.00000000E+00
  0.00000000E+00  0.00000000E+00  0.00000000E+00  0.00000000E+00  0.00000000E+00
  0.00000000E+00  0.00000000E+00  0.00000000E+00  0.00000000E+00  0.00000000E+00
  0.00000000E+00  0.00000000E+00  0.00000000E+00  0.00000000E+00  0.00000000E+00
  0.00000000E+00  0.00000000E+00  3.80095415E-19  0.00000000E+00  0.00000000E+00
  0.00000000E+00  0.00000000E+00  1.18985840E-17  0.00000000E+00  0.00000000E+00
  0.00000000E+00  0.00000000E+00  1.56621644E-16  0.00000000E+00  0.00000000E+00
  0.00000000E+00  0.00000000E+00  9.81648910E-17  0.00000000E+00  0.00000000E+00
  0.00000000E+00  0.00000000E+00  0.00000000E+00  0.00000000E+00  0.00000000E+00
  0.00000000E+00  0.00000000E+00  0.00000000E+00  0.00000000E+00  0.00000000E+00
  0.00000000E+00  0.00000000E+00  0.00000000E+00  0.00000000E+00  0.00000000E+00
  0.00000000E+00  0.00000000E+00  0.00000000E+00  0.00000000E+00  0.00000000E+00
  0.00000000E+00  0.00000000E+00  0.00000000E+00  0.00000000E+00  0.00000000E+00
  0.00000000E+00  0.00000000E+00  0.00000000E+00  0.00000000E+00  0.00000000E+00
  0.00000000E+00  0.00000000E+00  0.00000000E+00  0.00000000E+00  0.00000000E+00
  0.00000000E+00  0.00000000E+00  0.00000000E+00  0.00000000E+00  0.00000000E+00
  0.00000000E+00  0.00000000E+00  0.00000000E+00  0.00000000E+00  6.40355222E-19
  0.00000000E+00  0.00000000E+00  0.00000000E+00  0.00000000E+00 -3.77928987E-19
  0.00000000E+00  0.00000000E+00  0.00000000E+00  0.00000000E+00 -6.39771737E-17
  0.00000000E+00  0.00000000E+00  0.00000000E+00  0.00000000E+00 -6.05620787E-17
  0.00000000E+00  0.00000000E+00  0.00000000E+00  0.00000000E+00  0.00000000E+00
  0.00000000E+00  0.00000000E+00  0.00000000E+00  0.00000000E+00  0.00000000E+00
  0.00000000E+00  0.00000000E+00  0.00000000E+00  0.00000000E+00  0.00000000E+00
  0.00000000E+00  0.00000000E+00  0.00000000E+00  0.00000000E+00  0.00000000E+00
  0.00000000E+00  0.00000000E+00  0.00000000E+00  0.00000000E+00  0.00000000E+00
  0.00000000E+00  0.00000000E+00  0.00000000E+00  0.00000000E+00  0.00000000E+00
  0.00000000E+00 -2.77555756E-17  0.00000000E+00  0.00000000E+00  2.22044605E-16
  0.00000000E+00  0.00000000E+00 -2.22044605E-16  0.00000000E+00  0.00000000E+00
 -2.22044605E-16  0.00000000E+00  0.00000000E+00  2.77555756E-17  0.00000000E+00
  0.00000000E+00  0.00000000E+00  0.00000000E+00  0.00000000E+00  0.00000000E+00
  0.00000000E+00  0.00000000E+00  0.00000000E+00  0.00000000E+00  0.00000000E+00
  0.00000000E+00  0.00000000E+00  0.00000000E+00  0.00000000E+00  0.00000000E+00
  0.00000000E+00  0.00000000E+00  0.00000000E+00  0.00000000E+00  5.86593863E-01
  0.00000000E+00  0.00000000E+00  3.95445551E-18  0.00000000E+00  0.00000000E+00
  0.00000000E+00  7.55104011E-01  0.00000000E+00  0.00000000E+00  4.45523007E-17
  0.00000000E+00  0.00000000E+00  0.00000000E+00  3.00153039E-01  0.00000000E+00
  0.00000000E+00 -2.96826482E-17  0.00000000E+00  0.00000000E+00  0.00000000E+00
  0.00000000E+00  0.00000000E+00  0.00000000E+00  0.00000000E+00  0.00000000E+00
  0.00000000E+00  0.00000000E+00 -9.94296065E-18  0.00000000E+00  0.00000000E+00
 -1.05784430E-16  0.00000000E+00  0.00000000E+00 -1.08732955E-16  0.00000000E+00
  0.00000000E+00  4.67388107E-17  0.00000000E+00  0.00000000E+00 -3.16647524E-17
  0.00000000E+00  0.00000000E+00  0.00000000E+00  0.00000000E+00  0.00000000E+00
  0.00000000E+00  0.00000000E+00  0.00000000E+00  0.00000000E+00  0.00000000E+00
  0.00000000E+00  0.00000000E+00  0.00000000E+00  0.00000000E+00  0.00000000E+00
  0.00000000E+00  0.00000000E+00  0.00000000E+00  0.00000000E+00  0.00000000E+00
  0.00000000E+00  0.00000000E+00  0.00000000E+00  5.67967065E-01  0.00000000E+00
  0.00000000E+00  0.00000000E+00 -6.92263379E-17  0.00000000E+00  0.00000000E+00
  7.31126315E-01  0.00000000E+00  0.00000000E+00  0.00000000E+00  7.81395009E-17
  0.00000000E+00  0.00000000E+00  2.90621930E-01  0.00000000E+00  0.00000000E+00
  0.00000000E+00 -3.97380641E-17  0.00000000E+00  0.00000000E+00  0.00000000E+00
  0.00000000E+00  0.00000000E+00  0.00000000E+00  0.00000000E+00  0.00000000E+00
  0.00000000E+00  0.00000000E+00 -9.94296065E-18  0.00000000E+00  0.00000000E+00
 -1.05784430E-16  0.00000000E+00  0.00000000E+00 -1.08732955E-16  0.00000000E+00
  0.00000000E+00  4.67388107E-17  0.00000000E+00  0.00000000E+00 -4.55425402E-17
  0.00000000E+00  0.00000000E+00  0.00000000E+00  0.00000000E+00  0.00000000E+00
  0.00000000E+00  0.00000000E+00  0.00000000E+00  0.00000000E+00  0.00000000E+00
  0.00000000E+00  0.00000000E+00  0.00000000E+00  0.00000000E+00  0.00000000E+00
  0.00000000E+00  0.00000000E+00  0.00000000E+00  0.00000000E+00  0.00000000E+00
  0.00000000E+00  0.00000000E+00  0.00000000E+00  5.67967065E-01  0.00000000E+00
  0.00000000E+00  0.00000000E+00  5.58819220E-17  0.00000000E+00  0.00000000E+00
  7.31126315E-01  0.00000000E+00  0.00000000E+00  0.00000000E+00 -2.87548518E-18
  0.00000000E+00  0.00000000E+00  2.90621930E-01  0.00000000E+00  0.00000000E+00
  0.00000000E+00  4.72869762E-17  0.00000000E+00  0.00000000E+00  0.00000000E+00
  0.00000000E+00  0.00000000E+00  0.00000000E+00  0.00000000E+00  0.00000000E+00
  0.00000000E+00  0.00000000E+00  0.00000000E+00 -9.20348533E-19  0.00000000E+00
  0.00000000E+00 -4.71189475E-17  0.00000000E+00  0.00000000E+00  2.23397746E-17
  0.00000000E+00  0.00000000E+00 -6.81979959E-18  0.00000000E+00  0.00000000E+00
 -5.52959127E-18  0.00000000E+00  0.00000000E+00  0.00000000E+00  0.00000000E+00
  0.00000000E+00  0.00000000E+00  0.00000000E+00  0.00000000E+00  0.00000000E+00
  0.00000000E+00  0.00000000E+00  0.00000000E+00  0.00000000E+00  0.00000000E+00
  0.00000000E+00  0.00000000E+00  0.00000000E+00  0.00000000E+00  0.00000000E+00
  0.00000000E+00 -1.02690274E-16  0.00000000E+00  0.00000000E+00  5.08005187E-01
  0.00000000E+00  0.00000000E+00  0.00000000E+00  1.14980966E-17  0.00000000E+00
  0.00000000E+00  6.53939256E-01  0.00000000E+00  0.00000000E+00  0.00000000E+00
 -1.99586100E-18  0.00000000E+00  0.00000000E+00  2.59940157E-01  0.00000000E+00
  0.00000000E+00  0.00000000E+00  0.00000000E+00  0.00000000E+00  0.00000000E+00
  0.00000000E+00  0.00000000E+00  0.00000000E+00  0.00000000E+00  0.00000000E+00
  0.00000000E+00  0.00000000E+00  0.00000000E+00  0.00000000E+00  0.00000000E+00
  0.00000000E+00  0.00000000E+00  0.00000000E+00  0.00000000E+00  0.00000000E+00
  0.00000000E+00  0.00000000E+00  0.00000000E+00  0.00000000E+00  0.00000000E+00
  0.00000000E+00  0.00000000E+00  0.00000000E+00  0.00000000E+00  0.00000000E+00
  0.00000000E+00  0.00000000E+00  0.00000000E+00  0.00000000E+00  0.00000000E+00
  0.00000000E+00  0.00000000E+00  0.00000000E+00  0.00000000E+00  0.00000000E+00
  0.00000000E+00  0.00000000E+00  0.00000000E+00  0.00000000E+00  0.00000000E+00
  0.00000000E+00  0.00000000E+00  0.00000000E+00  0.00000000E+00  0.00000000E+00
  0.00000000E+00  5.08005187E-01  0.00000000E+00  0.00000000E+00  0.00000000E+00
  0.00000000E+00  0.00000000E+00  0.00000000E+00  6.53939256E-01  0.00000000E+00
  0.00000000E+00  0.00000000E+00  0.00000000E+00  0.00000000E+00  0.00000000E+00
  2.59940157E-01  0.00000000E+00  0.00000000E+00  0.00000000E+00  0.00000000E+00
  0.00000000E+00  0.00000000E+00  0.00000000E+00  0.00000000E+00  0.00000000E+00
  0.00000000E+00  0.00000000E+00  0.00000000E+00  0.00000000E+00  2.41678868E-18
  0.00000000E+00  0.00000000E+00 -1.56044039E-17  0.00000000E+00  0.00000000E+00
 -2.64987511E-17  0.00000000E+00  0.00000000E+00  4.49193142E-18  0.00000000E+00
  0.00000000E+00 -2.36844117E-18  0.00000000E+00  0.00000000E+00  0.00000000E+00
  0.00000000E+00  0.00000000E+00  0.00000000E+00  0.00000000E+00  0.00000000E+00
  0.00000000E+00  0.00000000E+00  0.00000000E+00  0.00000000E+00  0.00000000E+00
  0.00000000E+00  0.00000000E+00  0.00000000E+00  0.00000000E+00  0.00000000E+00
  0.00000000E+00  0.00000000E+00  0.00000000E+00  0.00000000E+00  0.00000000E+00
 -8.75958730E-17  0.00000000E+00  0.00000000E+00  0.00000000E+00  3.87995370E-01
  0.00000000E+00  0.00000000E+00  1.16934158E-16  0.00000000E+00  0.00000000E+00
  0.00000000E+00  4.99454357E-01  0.00000000E+00  0.00000000E+00 -2.05884724E-17
  0.00000000E+00  0.00000000E+00  0.00000000E+00  1.98532574E-01  0.00000000E+00
  0.00000000E+00  0.00000000E+00  0.00000000E+00  0.00000000E+00  0.00000000E+00
  0.00000000E+00  0.00000000E+00  0.00000000E+00  0.00000000E+00  0.00000000E+00
  0.00000000E+00  0.00000000E+00  0.00000000E+00  3.09257213E-18  0.00000000E+00
  0.00000000E+00 -1.73962840E-17  0.00000000E+00  0.00000000E+00  3.72346489E-18
  0.00000000E+00  0.00000000E+00 -1.58347023E-18  0.00000000E+00  0.00000000E+00
  7.12851332E-19  0.00000000E+00  0.00000000E+00  0.00000000E+00  0.00000000E+00
  0.00000000E+00  0.00000000E+00  0.00000000E+00  0.00000000E+00  0.00000000E+00
  0.00000000E+00  0.00000000E+00  0.00000000E+00  0.00000000E+00  0.00000000E+00
  0.00000000E+00  0.00000000E+00  0.00000000E+00  0.00000000E+00  0.00000000E+00
  0.00000000E+00  0.00000000E+00  0.00000000E+00  0.00000000E+00  7.49561642E-17
  0.00000000E+00  0.00000000E+00  0.00000000E+00  3.87995370E-01  0.00000000E+00
  0.00000000E+00 -9.15976029E-17  0.00000000E+00  0.00000000E+00  0.00000000E+00
  4.99454357E-01  0.00000000E+00  0.00000000E+00  4.40904752E-17  0.00000000E+00
  0.00000000E+00  0.00000000E+00  1.98532574E-01  0.00000000E+00  0.00000000E+00
  0.00000000E+00  0.00000000E+00  0.00000000E+00  0.00000000E+00  0.00000000E+00
  0.00000000E+00  0.00000000E+00  0.00000000E+00  0.00000000E+00  0.00000000E+00
  0.00000000E+00  0.00000000E+00  0.00000000E+00  2.82774254E-19  0.00000000E+00
  0.00000000E+00  2.80872684E-17  0.00000000E+00  0.00000000E+00  7.50552070E-18
  0.00000000E+00  0.00000000E+00  2.19032222E-17  0.00000000E+00  0.00000000E+00
  2.18368069E-18  0.00000000E+00  0.00000000E+00  0.00000000E+00  0.00000000E+00
  0.00000000E+00  0.00000000E+00  0.00000000E+00  0.00000000E+00  0.00000000E+00
  0.00000000E+00  0.00000000E+00  0.00000000E+00  0.00000000E+00  0.00000000E+00
  0.00000000E+00  0.00000000E+00  0.00000000E+00  0.00000000E+00  0.00000000E+00
  0.00000000E+00 -2.85678203E-17  0.00000000E+00  0.00000000E+00 -1.76215274E-17
  0.00000000E+00  0.00000000E+00  0.00000000E+00 -5.84282401E-17  0.00000000E+00
  0.00000000E+00  1.57840508E-17  0.00000000E+00  0.00000000E+00  0.00000000E+00
 -5.77098445E-17  0.00000000E+00  0.00000000E+00  3.39518233E-18  0.00000000E+00
  0.00000000E+00  0.00000000E+00  0.00000000E+00  0.00000000E+00  0.00000000E+00
  0.00000000E+00  0.00000000E+00  0.00000000E+00  0.00000000E+00  0.00000000E+00
  0.00000000E+00  0.00000000E+00  0.00000000E+00  0.00000000E+00  0.00000000E+00
  0.00000000E+00  0.00000000E+00  0.00000000E+00  0.00000000E+00  0.00000000E+00
  0.00000000E+00  0.00000000E+00  0.00000000E+00  0.00000000E+00  0.00000000E+00
  0.00000000E+00  0.00000000E+00  0.00000000E+00  0.00000000E+00  0.00000000E+00
  0.00000000E+00  0.00000000E+00  0.00000000E+00  0.00000000E+00  0.00000000E+00
  0.00000000E+00  0.00000000E+00  0.00000000E+00  0.00000000E+00  0.00000000E+00
  0.00000000E+00  0.00000000E+00  0.00000000E+00  0.00000000E+00  0.00000000E+00
  0.00000000E+00  0.00000000E+00  0.00000000E+00  0.00000000E+00  0.00000000E+00
  0.00000000E+00  0.00000000E+00  0.00000000E+00  0.00000000E+00  0.00000000E+00
 -1.12892886E-17  0.00000000E+00  0.00000000E+00  0.00000000E+00  0.00000000E+00
  0.00000000E+00  0.00000000E+00  5.34921483E-18  0.00000000E+00  0.00000000E+00
  0.00000000E+00  0.00000000E+00  0.00000000E+00  0.00000000E+00  8.88084109E-18
  0.00000000E+00  0.00000000E+00  0.00000000E+00  0.00000000E+00  0.00000000E+00
  0.00000000E+00  0.00000000E+00  0.00000000E+00  0.00000000E+00  0.00000000E+00
  0.00000000E+00  0.00000000E+00  0.00000000E+00  0.00000000E+00  0.00000000E+00
  0.00000000E+00  0.00000000E+00  0.00000000E+00  0.00000000E+00 -6.93889390E-18
  0.00000000E+00  0.00000000E+00 -5.55111512E-17  0.00000000E+00  0.00000000E+00
  0.00000000E+00  0.00000000E+00  0.00000000E+00  0.00000000E+00  0.00000000E+00
  0.00000000E+00 -1.11022302E-16  0.00000000E+00  0.00000000E+00  0.00000000E+00
  0.00000000E+00  0.00000000E+00  0.00000000E+00  0.00000000E+00  0.00000000E+00
  0.00000000E+00  0.00000000E+00  0.00000000E+00  0.00000000E+00  0.00000000E+00
  0.00000000E+00  0.00000000E+00  0.00000000E+00  0.00000000E+00  0.00000000E+00
  0.00000000E+00  0.00000000E+00  2.46021523E-01  0.00000000E+00  0.00000000E+00
 -3.15559221E-18  0.00000000E+00  0.00000000E+00  0.00000000E+00  1.07206128E+00
  0.00000000E+00  0.00000000E+00  1.83967308E-17  0.00000000E+00  0.00000000E+00
  0.00000000E+00  1.11639791E+00  0.00000000E+00  0.00000000E+00  2.06240395E-16
  0.00000000E+00  0.00000000E+00  0.00000000E+00  0.00000000E+00  0.00000000E+00
  0.00000000E+00  0.00000000E+00  0.00000000E+00  0.00000000E+00  0.00000000E+00
  0.00000000E+00  0.00000000E+00  0.00000000E+00  0.00000000E+00  0.00000000E+00
  0.00000000E+00  0.00000000E+00  0.00000000E+00  0.00000000E+00 -1.51542121E-18
  0.00000000E+00  0.00000000E+00 -6.02718109E-17  0.00000000E+00  0.00000000E+00
 -1.26481486E-16  0.00000000E+00  0.00000000E+00 -1.01488539E-16  0.00000000E+00
  0.00000000E+00 -4.57034905E-17  0.00000000E+00  0.00000000E+00  0.00000000E+00
  0.00000000E+00  0.00000000E+00  0.00000000E+00  0.00000000E+00  0.00000000E+00
  0.00000000E+00  0.00000000E+00  0.00000000E+00  0.00000000E+00  0.00000000E+00
  0.00000000E+00  0.00000000E+00  0.00000000E+00  0.00000000E+00  0.00000000E+00
  0.00000000E+00  0.00000000E+00  0.00000000E+00  0.00000000E+00  0.00000000E+00
  2.38209316E-01  0.00000000E+00  0.00000000E+00  0.00000000E+00  7.05963890E-18
  0.00000000E+00  0.00000000E+00  1.03801887E+00  0.00000000E+00  0.00000000E+00
  0.00000000E+00 -1.95069689E-17  0.00000000E+00  0.00000000E+00  1.08094763E+00
  0.00000000E+00  0.00000000E+00  0.00000000E+00 -1.93261702E-17  0.00000000E+00
  0.00000000E+00  0.00000000E+00  0.00000000E+00  0.00000000E+00  0.00000000E+00
  0.00000000E+00  0.00000000E+00  0.00000000E+00  0.00000000E+00  0.00000000E+00
  0.00000000E+00  0.00000000E+00  0.00000000E+00  0.00000000E+00  0.00000000E+00
  0.00000000E+00  0.00000000E+00  0.00000000E+00 -1.51542121E-18  0.00000000E+00
  0.00000000E+00 -6.02718109E-17  0.00000000E+00  0.00000000E+00 -1.26481486E-16
  0.00000000E+00  0.00000000E+00 -1.01488539E-16  0.00000000E+00  0.00000000E+00
 -4.57034905E-17  0.00000000E+00  0.00000000E+00  0.00000000E+00  0.00000000E+00
  0.00000000E+00  0.00000000E+00  0.00000000E+00  0.00000000E+00  0.00000000E+00
  0.00000000E+00  0.00000000E+00  0.00000000E+00  0.00000000E+00  0.00000000E+00
  0.00000000E+00  0.00000000E+00  0.00000000E+00  0.00000000E+00  0.00000000E+00
  0.00000000E+00  0.00000000E+00  0.00000000E+00  0.00000000E+00  2.38209316E-01
  0.00000000E+00  0.00000000E+00  0.00000000E+00 -3.32977453E-18  0.00000000E+00
  0.00000000E+00  1.03801887E+00  0.00000000E+00  0.00000000E+00  0.00000000E+00
 -3.79510133E-17  0.00000000E+00  0.00000000E+00  1.08094763E+00  0.00000000E+00
  0.00000000E+00  0.00000000E+00  2.11152609E-17  0.00000000E+00  0.00000000E+00
  0.00000000E+00  0.00000000E+00  0.00000000E+00  0.00000000E+00  0.00000000E+00
  0.00000000E+00  0.00000000E+00  0.00000000E+00  0.00000000E+00  0.00000000E+00
  0.00000000E+00  0.00000000E+00  0.00000000E+00  0.00000000E+00  0.00000000E+00
  0.00000000E+00  0.00000000E+00  0.00000000E+00 -5.67412853E-19  0.00000000E+00
  0.00000000E+00 -2.68809068E-17  0.00000000E+00  0.00000000E+00 -7.14193704E-17
  0.00000000E+00  0.00000000E+00  1.31625759E-17  0.00000000E+00  0.00000000E+00
 -2.15363939E-17  0.00000000E+00  0.00000000E+00  0.00000000E+00  0.00000000E+00
  0.00000000E+00  0.00000000E+00  0.00000000E+00  0.00000000E+00  0.00000000E+00
  0.00000000E+00  0.00000000E+00  0.00000000E+00  0.00000000E+00  0.00000000E+00
  0.00000000E+00  0.00000000E+00  0.00000000E+00  0.00000000E+00  0.00000000E+00
  0.00000000E+00  2.92710152E-18  0.00000000E+00  0.00000000E+00  2.13060889E-01
  0.00000000E+00  0.00000000E+00  0.00000000E+00 -1.43244375E-18  0.00000000E+00
  0.00000000E+00  9.28432305E-01  0.00000000E+00  0.00000000E+00  0.00000000E+00
  6.34772435E-18  0.00000000E+00  0.00000000E+00  9.66828953E-01  0.00000000E+00
  0.00000000E+00  0.00000000E+00  0.00000000E+00  0.00000000E+00  0.00000000E+00
  0.00000000E+00  0.00000000E+00  0.00000000E+00  0.00000000E+00  0.00000000E+00
  0.00000000E+00  0.00000000E+00  0.00000000E+00  0.00000000E+00  0.00000000E+00
  0.00000000E+00  0.00000000E+00  0.00000000E+00  0.00000000E+00  0.00000000E+00
  0.00000000E+00  0.00000000E+00  0.00000000E+00  0.00000000E+00  0.00000000E+00
  0.00000000E+00  0.00000000E+00  0.00000000E+00  0.00000000E+00  0.00000000E+00
  0.00000000E+00  0.00000000E+00  0.00000000E+00  0.00000000E+00  0.00000000E+00
  0.00000000E+00  0.00000000E+00  0.00000000E+00  0.00000000E+00  0.00000000E+00
  0.00000000E+00  0.00000000E+00  0.00000000E+00  0.00000000E+00  0.00000000E+00
  0.00000000E+00  0.00000000E+00  0.00000000E+00  0.00000000E+00  0.00000000E+00
  0.00000000E+00  0.00000000E+00  0.00000000E+00  0.00000000E+00  0.00000000E+00
  0.00000000E+00  0.00000000E+00  0.00000000E+00  0.00000000E+00  0.00000000E+00
  2.13060889E-01  0.00000000E+00  0.00000000E+00  0.00000000E+00  0.00000000E+00
  0.00000000E+00  0.00000000E+00  9.28432305E-01  0.00000000E+00  0.00000000E+00
  0.00000000E+00  0.00000000E+00  0.00000000E+00  0.00000000E+00  9.66828953E-01
  0.00000000E+00  0.00000000E+00  0.00000000E+00  0.00000000E+00  0.00000000E+00
  0.00000000E+00  0.00000000E+00  0.00000000E+00  0.00000000E+00  0.00000000E+00
  0.00000000E+00  0.00000000E+00  0.00000000E+00  0.00000000E+00  0.00000000E+00
  0.00000000E+00  0.00000000E+00  0.00000000E+00  0.00000000E+00  0.00000000E+00
  0.00000000E+00  0.00000000E+00 -5.67760231E-19  0.00000000E+00  0.00000000E+00
 -4.07088514E-18  0.00000000E+00  0.00000000E+00 -2.88285246E-17  0.00000000E+00
  0.00000000E+00  6.99991417E-17  0.00000000E+00  0.00000000E+00  2.99359278E-17
  0.00000000E+00  0.00000000E+00  0.00000000E+00  0.00000000E+00  0.00000000E+00
  0.00000000E+00  0.00000000E+00  0.00000000E+00  0.00000000E+00  0.00000000E+00
  0.00000000E+00  0.00000000E+00  0.00000000E+00  0.00000000E+00  0.00000000E+00
  0.00000000E+00  0.00000000E+00  0.00000000E+00  0.00000000E+00  0.00000000E+00
  0.00000000E+00  0.00000000E+00  0.00000000E+00  3.41749446E-17  0.00000000E+00
  0.00000000E+00  0.00000000E+00  1.62727942E-01  0.00000000E+00  0.00000000E+00
  5.67730332E-17  0.00000000E+00  0.00000000E+00  0.00000000E+00  7.09101886E-01
  0.00000000E+00  0.00000000E+00  8.38296867E-17  0.00000000E+00  0.00000000E+00
  0.00000000E+00  7.38427810E-01  0.00000000E+00  0.00000000E+00  0.00000000E+00
  0.00000000E+00  0.00000000E+00  0.00000000E+00  0.00000000E+00  0.00000000E+00
  0.00000000E+00  0.00000000E+00  0.00000000E+00  0.00000000E+00  0.00000000E+00
  0.00000000E+00  0.00000000E+00  0.00000000E+00  0.00000000E+00  0.00000000E+00
  0.00000000E+00  0.00000000E+00  0.00000000E+00  0.00000000E+00  0.00000000E+00
  8.07602250E-19  0.00000000E+00  0.00000000E+00 -5.15183935E-18  0.00000000E+00
  0.00000000E+00  5.54015949E-17  0.00000000E+00  0.00000000E+00 -1.51919323E-16
  0.00000000E+00  0.00000000E+00 -3.40302994E-17  0.00000000E+00  0.00000000E+00
  0.00000000E+00  0.00000000E+00  0.00000000E+00  0.00000000E+00  0.00000000E+00
  0.00000000E+00  0.00000000E+00  0.00000000E+00  0.00000000E+00  0.00000000E+00
  0.00000000E+00  0.00000000E+00  0.00000000E+00  0.00000000E+00  0.00000000E+00
  0.00000000E+00  0.00000000E+00  0.00000000E+00  0.00000000E+00  0.00000000E+00
  0.00000000E+00 -2.19807947E-17  0.00000000E+00  0.00000000E+00  0.00000000E+00
  1.62727942E-01  0.00000000E+00  0.00000000E+00 -9.29334005E-17  0.00000000E+00
  0.00000000E+00  0.00000000E+00  7.09101886E-01  0.00000000E+00  0.00000000E+00
 -1.63586240E-16  0.00000000E+00  0.00000000E+00  0.00000000E+00  7.38427810E-01
  0.00000000E+00  0.00000000E+00  0.00000000E+00  0.00000000E+00  0.00000000E+00
  0.00000000E+00  0.00000000E+00  0.00000000E+00  0.00000000E+00  0.00000000E+00
  0.00000000E+00  0.00000000E+00  0.00000000E+00  0.00000000E+00  0.00000000E+00
  0.00000000E+00  0.00000000E+00  0.00000000E+00  0.00000000E+00  0.00000000E+00
  0.00000000E+00  0.00000000E+00  0.00000000E+00  0.00000000E+00 -5.16181022E-19
  0.00000000E+00  0.00000000E+00  1.55638679E-17  0.00000000E+00  0.00000000E+00
 -3.42627733E-17  0.00000000E+00  0.00000000E+00  8.50523718E-17  0.00000000E+00
  0.00000000E+00  7.20435998E-18  0.00000000E+00  0.00000000E+00  0.00000000E+00
  0.00000000E+00  0.00000000E+00  0.00000000E+00  0.00000000E+00  0.00000000E+00
  0.00000000E+00  0.00000000E+00  0.00000000E+00  0.00000000E+00  0.00000000E+00
  0.00000000E+00  0.00000000E+00  0.00000000E+00  0.00000000E+00  0.00000000E+00
  0.00000000E+00  0.00000000E+00  3.31613741E-17  0.00000000E+00  0.00000000E+00
  5.11494926E-18  0.00000000E+00  0.00000000E+00  0.00000000E+00  1.38637307E-16
  0.00000000E+00  0.00000000E+00  4.24863194E-17  0.00000000E+00  0.00000000E+00
  0.00000000E+00  4.65247478E-17  0.00000000E+00  0.00000000E+00  3.57981466E-17
  0.00000000E+00  0.00000000E+00  0.00000000E+00  0.00000000E+00  0.00000000E+00
  0.00000000E+00  0.00000000E+00  0.00000000E+00  0.00000000E+00  0.00000000E+00
  0.00000000E+00  0.00000000E+00  0.00000000E+00  0.00000000E+00  0.00000000E+00
  0.00000000E+00  0.00000000E+00  0.00000000E+00  0.00000000E+00  0.00000000E+00
  0.00000000E+00  0.00000000E+00  0.00000000E+00  0.00000000E+00  0.00000000E+00
  0.00000000E+00  0.00000000E+00  0.00000000E+00  0.00000000E+00  0.00000000E+00
  0.00000000E+00  0.00000000E+00  0.00000000E+00  0.00000000E+00  0.00000000E+00
  0.00000000E+00  0.00000000E+00  0.00000000E+00  0.00000000E+00  0.00000000E+00
  0.00000000E+00  0.00000000E+00  0.00000000E+00  0.00000000E+00  0.00000000E+00
  0.00000000E+00  0.00000000E+00  0.00000000E+00  0.00000000E+00  0.00000000E+00
  0.00000000E+00  0.00000000E+00  0.00000000E+00  0.00000000E+00  0.00000000E+00
  0.00000000E+00  0.00000000E+00  0.00000000E+00  0.00000000E+00  0.00000000E+00
  0.00000000E+00  0.00000000E+00  0.00000000E+00  0.00000000E+00  0.00000000E+00
 -3.25487591E-18  0.00000000E+00  0.00000000E+00  0.00000000E+00  0.00000000E+00
  0.00000000E+00  0.00000000E+00 -3.69695950E-17  0.00000000E+00  0.00000000E+00
  0.00000000E+00  0.00000000E+00  0.00000000E+00  0.00000000E+00  5.22781194E-17
  0.00000000E+00  0.00000000E+00  0.00000000E+00  0.00000000E+00  0.00000000E+00
  0.00000000E+00  0.00000000E+00  0.00000000E+00  0.00000000E+00  0.00000000E+00
  0.00000000E+00  0.00000000E+00  0.00000000E+00  0.00000000E+00  0.00000000E+00
  0.00000000E+00  0.00000000E+00  0.00000000E+00  0.00000000E+00  0.00000000E+00
Multipole Matrix (2,0,0)                   R   N=        3240
  3.15567579E-02 -3.62245159E-02  4.24111737E-02  4.31826364E-02 -5.77268359E-02
  3.39904827E-01  2.86000600E-02 -3.91450018E-02  4.16814872E-01  8.60585198E-01
  1.58386575E-02 -2.19009406E-02  3.27749388E-01  1.05360030E+00  2.25022502E+00
  7.97455229E-03 -1.10718428E-02  1.93915591E-01  8.09722708E-01  2.75051117E+00
  6.03136309E+00 -1.82297724E-17  2.21098611E-17 -3.95421306E-17 -2.84598813E-17
 -1.63595414E-17 -8.36238550E-18  2.62123449E-01  0.00000000E+00  0.00000000E+00
  0.00000000E+00  0.00000000E+00  0.00000000E+00  0.00000000E+00  0.00000000E+00
  8.73744832E-02  0.00000000E+00  0.00000000E+00  0.00000000E+00  0.00000000E+00
  0.00000000E+00  0.00000000E+00  0.00000000E+00  0.00000000E+00  8.73744832E-02
 -8.91181901E-18  1.18674006E-17 -6.45239131E-17 -7.49780139E-17 -5.68139647E-17
 -3.29894135E-17  2.90934896E-01  0.00000000E+00  0.00000000E+00  9.22282341E-01
  0.00000000E+00  0.00000000E+00  0.00000000E+00  0.00000000E+00  0.00000000E+00
  0.00000000E+00  0.00000000E+00  9.69782987E-02  0.00000000E+00  0.00000000E+00
  3.07427447E-01  0.00000000E+00  0.00000000E+00  0.00000000E+00  0.00000000E+00
  0.00000000E+00  0.00000000E+00  0.00000000E+00  0.00000000E+00  9.69782987E-02
  0.00000000E+00  0.00000000E+00  3.07427447E-01 -3.40427077E-18  4.65982726E-18
 -4.97433039E-17 -1.02992009E-16 -1.26456656E-16 -9.73770329E-17  1.48263277E-01
  0.00000000E+00  0.00000000E+00  9.87697241E-01  0.00000000E+00  0.00000000E+00
  2.59515571E+00  0.00000000E+00  0.00000000E+00  0.00000000E+00  0.00000000E+00
  0.00000000E+00  0.00000000E+00  0.00000000E+00  4.94210922E-02  0.00000000E+00
  0.00000000E+00  3.29232414E-01  0.00000000E+00  0.00000000E+00  8.65051903E-01
  0.00000000E+00  0.00000000E+00  0.00000000E+00  0.00000000E+00  0.00000000E+00
  0.00000000E+00  0.00000000E+00  0.00000000E+00  4.94210922E-02  0.00000000E+00
  0.00000000E+00  3.29232414E-01  0.00000000E+00  0.00000000E+00  8.65051903E-01
 -1.04488333E-18  1.44568843E-18 -2.21260384E-17 -7.36384348E-17 -1.66039997E-16
 -2.14792099E-16  5.11559228E-02  0.00000000E+00  0.00000000E+00  5.09394707E-01
  0.00000000E+00  0.00000000E+00  2.76069844E+00  0.00000000E+00  0.00000000E+00
  7.44786495E+00  0.00000000E+00  0.00000000E+00  0.00000000E+00  0.00000000E+00
  0.00000000E+00  0.00000000E+00  0.00000000E+00  1.70519743E-02  0.00000000E+00
  0.00000000E+00  1.69798236E-01  0.00000000E+00  0.00000000E+00  9.20232813E-01
  0.00000000E+00  0.00000000E+00  2.48262165E+00  0.00000000E+00  0.00000000E+00
  0.00000000E+00  0.00000000E+00  0.00000000E+00  0.00000000E+00  0.00000000E+00
  0.00000000E+00  1.70519743E-02  0.00000000E+00  0.00000000E+00  1.69798236E-01
  0.00000000E+00  0.00000000E+00  9.20232813E-01  0.00000000E+00  0.00000000E+00
  2.48262165E+00 -2.64618168E-19  3.67595936E-19 -6.58300546E-18 -2.86330265E-17
 -1.05988656E-16 -2.67266283E-16  1.35471830E-02  0.00000000E+00  0.00000000E+00
  1.60773186E-01  0.00000000E+00  0.00000000E+00  1.30512279E+00  0.00000000E+00
  0.00000000E+00  7.67055818E+00  0.00000000E+00  0.00000000E+00  2.33064015E+01
  0.00000000E+00  0.00000000E+00  0.00000000E+00  0.00000000E+00  0.00000000E+00
  0.00000000E+00  0.00000000E+00  4.51572766E-03  0.00000000E+00  0.00000000E+00
  5.35910621E-02  0.00000000E+00  0.00000000E+00  4.35040930E-01  0.00000000E+00
  0.00000000E+00  2.55685273E+00  0.00000000E+00  0.00000000E+00  7.76880050E+00
  0.00000000E+00  0.00000000E+00  0.00000000E+00  0.00000000E+00  0.00000000E+00
  0.00000000E+00  0.00000000E+00  0.00000000E+00  4.51572766E-03  0.00000000E+00
  0.00000000E+00  5.35910621E-02  0.00000000E+00  0.00000000E+00  4.35040930E-01
  0.00000000E+00  0.00000000E+00  2.55685273E+00  0.00000000E+00  0.00000000E+00
  7.76880050E+00 -1.79515838E-02  2.49226877E-02 -1.37062985E-01 -1.32339662E-01
 -8.74581399E-02 -4.73895185E-02  1.80653877E-17  0.00000000E+00  0.00000000E+00
  2.66764752E-17  0.00000000E+00  0.00000000E+00  1.57746419E-17  0.00000000E+00
  0.00000000E+00  5.83220020E-18  0.00000000E+00  0.00000000E+00  1.58831846E-18
  0.00000000E+00  0.00000000E+00  2.25468975E-01  0.00000000E+00  0.00000000E+00
  0.00000000E+00  0.00000000E+00  0.00000000E+00  0.00000000E+00  0.00000000E+00
  0.00000000E+00 -3.12901693E-17  0.00000000E+00  0.00000000E+00 -4.62050103E-17
  0.00000000E+00  0.00000000E+00 -2.73224813E-17  0.00000000E+00  0.00000000E+00
 -1.01016671E-17  0.00000000E+00  0.00000000E+00 -2.75104827E-18  0.00000000E+00
  4.05844156E-01  0.00000000E+00  0.00000000E+00  0.00000000E+00  0.00000000E+00
  0.00000000E+00  0.00000000E+00  0.00000000E+00  0.00000000E+00  0.00000000E+00
  0.00000000E+00  0.00000000E+00  0.00000000E+00  0.00000000E+00  0.00000000E+00
  0.00000000E+00  0.00000000E+00  0.00000000E+00  0.00000000E+00  0.00000000E+00
  0.00000000E+00  0.00000000E+00  0.00000000E+00  0.00000000E+00  1.35281385E-01
  3.10930552E-02 -4.31673614E-02  2.37400054E-01  2.29219018E-01  1.51481942E-01
  8.20810538E-02 -3.12901693E-17  0.00000000E+00  0.00000000E+00 -4.62050103E-17
  0.00000000E+00  0.00000000E+00 -2.73224813E-17  0.00000000E+00  0.00000000E+00
 -1.01016671E-17  0.00000000E+00  0.00000000E+00 -2.75104827E-18  0.00000000E+00
  0.00000000E+00 -1.56209488E-01  0.00000000E+00  0.00000000E+00  4.05844156E-01
  0.00000000E+00  0.00000000E+00  0.00000000E+00  0.00000000E+00  0.00000000E+00
  0.00000000E+00  0.00000000E+00 -3.12901693E-17  0.00000000E+00  0.00000000E+00
 -4.62050103E-17  0.00000000E+00  0.00000000E+00 -2.73224813E-17  0.00000000E+00
  0.00000000E+00 -1.01016671E-17  0.00000000E+00  0.00000000E+00 -2.75104827E-18
  0.00000000E+00  0.00000000E+00  0.00000000E+00  0.00000000E+00  0.00000000E+00
  4.05844156E-01 -7.53138165E-03  1.09669519E-02 -1.94905562E-01 -3.77253643E-01
 -3.85168326E-01 -2.57390888E-01  9.06135373E-18  0.00000000E+00  0.00000000E+00
  3.47596820E-17  0.00000000E+00  0.00000000E+00  4.51092057E-17  0.00000000E+00
  0.00000000E+00  2.64565592E-17  0.00000000E+00  0.00000000E+00  8.89034781E-18
  0.00000000E+00  0.00000000E+00  2.10958466E-01  0.00000000E+00  0.00000000E+00
 -1.46156313E-01  0.00000000E+00  6.42013354E-01  0.00000000E+00  0.00000000E+00
  0.00000000E+00  0.00000000E+00  0.00000000E+00  0.00000000E+00  0.00000000E+00
  0.00000000E+00 -1.56947250E-17  0.00000000E+00  0.00000000E+00 -6.02055353E-17
  0.00000000E+00  0.00000000E+00 -7.81314362E-17  0.00000000E+00  0.00000000E+00
 -4.58241047E-17  0.00000000E+00  0.00000000E+00 -1.53985341E-17  0.00000000E+00
  3.79725240E-01  0.00000000E+00  0.00000000E+00  0.00000000E+00  0.00000000E+00
  1.15562404E+00  0.00000000E+00  0.00000000E+00  0.00000000E+00  0.00000000E+00
  0.00000000E+00  0.00000000E+00  0.00000000E+00  0.00000000E+00  0.00000000E+00
  0.00000000E+00  0.00000000E+00  0.00000000E+00  0.00000000E+00  0.00000000E+00
  0.00000000E+00  0.00000000E+00  0.00000000E+00  0.00000000E+00  0.00000000E+00
  0.00000000E+00  0.00000000E+00  0.00000000E+00  0.00000000E+00  1.26575080E-01
  0.00000000E+00  0.00000000E+00  0.00000000E+00  0.00000000E+00  3.85208012E-01
  1.30447357E-02 -1.89953178E-02  3.37586336E-01  6.53422477E-01  6.67131110E-01
  4.45814095E-01 -1.56947250E-17  0.00000000E+00  0.00000000E+00 -6.02055353E-17
  0.00000000E+00  0.00000000E+00 -7.81314362E-17  0.00000000E+00  0.00000000E+00
 -4.58241047E-17  0.00000000E+00  0.00000000E+00 -1.53985341E-17  0.00000000E+00
  0.00000000E+00 -1.46156313E-01  0.00000000E+00  0.00000000E+00  3.79725240E-01
  0.00000000E+00 -4.44799899E-01  0.00000000E+00  0.00000000E+00  1.15562404E+00
  0.00000000E+00  0.00000000E+00  0.00000000E+00  0.00000000E+00  0.00000000E+00
  0.00000000E+00  0.00000000E+00 -1.56947250E-17  0.00000000E+00  0.00000000E+00
 -6.02055353E-17  0.00000000E+00  0.00000000E+00 -7.81314362E-17  0.00000000E+00
  0.00000000E+00 -4.58241047E-17  0.00000000E+00  0.00000000E+00 -1.53985341E-17
  0.00000000E+00  0.00000000E+00  0.00000000E+00  0.00000000E+00  0.00000000E+00
  3.79725240E-01  0.00000000E+00  0.00000000E+00  0.00000000E+00  0.00000000E+00
  1.15562404E+00 -1.87809277E-03  2.78357582E-03 -1.11128727E-01 -4.84294223E-01
 -1.04113879E+00 -1.11132246E+00  2.43696953E-18  0.00000000E+00  0.00000000E+00
  1.82889060E-17  0.00000000E+00  0.00000000E+00  5.81722654E-17  0.00000000E+00
  0.00000000E+00  7.59973498E-17  0.00000000E+00  0.00000000E+00  4.13841882E-17
  0.00000000E+00  0.00000000E+00  7.76274092E-02  0.00000000E+00  0.00000000E+00
 -5.37818467E-02  0.00000000E+00  6.00813621E-01  0.00000000E+00  0.00000000E+00
 -4.16255887E-01  0.00000000E+00  1.82748538E+00  0.00000000E+00  0.00000000E+00
  0.00000000E+00  0.00000000E+00  0.00000000E+00  0.00000000E+00  0.00000000E+00
  0.00000000E+00 -4.22095504E-18  0.00000000E+00  0.00000000E+00 -3.16773144E-17
  0.00000000E+00  0.00000000E+00 -1.00757319E-16  0.00000000E+00  0.00000000E+00
 -1.31631271E-16  0.00000000E+00  0.00000000E+00 -7.16795167E-17  0.00000000E+00
  1.39729337E-01  0.00000000E+00  0.00000000E+00  0.00000000E+00  0.00000000E+00
  1.08146452E+00  0.00000000E+00  0.00000000E+00  0.00000000E+00  0.00000000E+00
  3.28947368E+00  0.00000000E+00  0.00000000E+00  0.00000000E+00  0.00000000E+00
  0.00000000E+00  0.00000000E+00  0.00000000E+00  0.00000000E+00  0.00000000E+00
  0.00000000E+00  0.00000000E+00  0.00000000E+00  0.00000000E+00  0.00000000E+00
  0.00000000E+00  0.00000000E+00  0.00000000E+00  0.00000000E+00  0.00000000E+00
  0.00000000E+00  0.00000000E+00  0.00000000E+00  0.00000000E+00  4.65764455E-02
  0.00000000E+00  0.00000000E+00  0.00000000E+00  0.00000000E+00  3.60488173E-01
  0.00000000E+00  0.00000000E+00  0.00000000E+00  0.00000000E+00  1.09649123E+00
  3.25295211E-03 -4.82129475E-03  1.92480601E-01  8.38822200E-01  1.80330529E+00
  1.92486697E+00 -4.22095504E-18  0.00000000E+00  0.00000000E+00 -3.16773144E-17
  0.00000000E+00  0.00000000E+00 -1.00757319E-16  0.00000000E+00  0.00000000E+00
 -1.31631271E-16  0.00000000E+00  0.00000000E+00 -7.16795167E-17  0.00000000E+00
  0.00000000E+00 -5.37818467E-02  0.00000000E+00  0.00000000E+00  1.39729337E-01
  0.00000000E+00 -4.16255887E-01  0.00000000E+00  0.00000000E+00  1.08146452E+00
  0.00000000E+00 -1.26611901E+00  0.00000000E+00  0.00000000E+00  3.28947368E+00
  0.00000000E+00  0.00000000E+00  0.00000000E+00  0.00000000E+00  0.00000000E+00
  0.00000000E+00  0.00000000E+00 -4.22095504E-18  0.00000000E+00  0.00000000E+00
 -3.16773144E-17  0.00000000E+00  0.00000000E+00 -1.00757319E-16  0.00000000E+00
  0.00000000E+00 -1.31631271E-16  0.00000000E+00  0.00000000E+00 -7.16795167E-17
  0.00000000E+00  0.00000000E+00  0.00000000E+00  0.00000000E+00  0.00000000E+00
  1.39729337E-01  0.00000000E+00  0.00000000E+00  0.00000000E+00  0.00000000E+00
  1.08146452E+00  0.00000000E+00  0.00000000E+00  0.00000000E+00  0.00000000E+00
  3.28947368E+00 -3.32738204E-04  4.96289177E-04 -2.99701167E-02 -2.40435710E-01
 -1.22333472E+00 -2.96003703E+00  4.44622932E-19  0.00000000E+00  0.00000000E+00
  4.69946312E-18  0.00000000E+00  0.00000000E+00  2.90018423E-17  0.00000000E+00
  0.00000000E+00  9.77532493E-17  0.00000000E+00  0.00000000E+00  1.29833211E-16
  0.00000000E+00  0.00000000E+00  1.61815590E-02  0.00000000E+00  0.00000000E+00
 -1.12109129E-02  0.00000000E+00  2.08984738E-01  0.00000000E+00  0.00000000E+00
 -1.44788874E-01  0.00000000E+00  1.66504326E+00  0.00000000E+00  0.00000000E+00
 -1.15357581E+00  0.00000000E+00  5.43951262E+00  0.00000000E+00  0.00000000E+00
  0.00000000E+00  0.00000000E+00  0.00000000E+00  0.00000000E+00  0.00000000E+00
  0.00000000E+00 -7.70109509E-19  0.00000000E+00  0.00000000E+00 -8.13970890E-18
  0.00000000E+00  0.00000000E+00 -5.02326644E-17  0.00000000E+00  0.00000000E+00
 -1.69313594E-16  0.00000000E+00  0.00000000E+00 -2.24877718E-16  0.00000000E+00
  2.91268062E-02  0.00000000E+00  0.00000000E+00  0.00000000E+00  0.00000000E+00
  3.76172529E-01  0.00000000E+00  0.00000000E+00  0.00000000E+00  0.00000000E+00
  2.99707787E+00  0.00000000E+00  0.00000000E+00  0.00000000E+00  0.00000000E+00
  9.79112272E+00  0.00000000E+00  0.00000000E+00  0.00000000E+00  0.00000000E+00
  0.00000000E+00  0.00000000E+00  0.00000000E+00  0.00000000E+00  0.00000000E+00
  0.00000000E+00  0.00000000E+00  0.00000000E+00  0.00000000E+00  0.00000000E+00
  0.00000000E+00  0.00000000E+00  0.00000000E+00  0.00000000E+00  0.00000000E+00
  0.00000000E+00  0.00000000E+00  0.00000000E+00  0.00000000E+00  9.70893540E-03
  0.00000000E+00  0.00000000E+00  0.00000000E+00  0.00000000E+00  1.25390843E-01
  0.00000000E+00  0.00000000E+00  0.00000000E+00  0.00000000E+00  9.99025958E-01
  0.00000000E+00  0.00000000E+00  0.00000000E+00  0.00000000E+00  3.26370757E+00
  5.76319474E-04 -8.59598070E-04  5.19097648E-02  4.16446865E-01  2.11887790E+00
  5.12693453E+00 -7.70109509E-19  0.00000000E+00  0.00000000E+00 -8.13970890E-18
  0.00000000E+00  0.00000000E+00 -5.02326644E-17  0.00000000E+00  0.00000000E+00
 -1.69313594E-16  0.00000000E+00  0.00000000E+00 -2.24877718E-16  0.00000000E+00
  0.00000000E+00 -1.12109129E-02  0.00000000E+00  0.00000000E+00  2.91268062E-02
  0.00000000E+00 -1.44788874E-01  0.00000000E+00  0.00000000E+00  3.76172529E-01
  0.00000000E+00 -1.15357581E+00  0.00000000E+00  0.00000000E+00  2.99707787E+00
  0.00000000E+00 -3.76860489E+00  0.00000000E+00  0.00000000E+00  9.79112272E+00
  0.00000000E+00  0.00000000E+00  0.00000000E+00  0.00000000E+00  0.00000000E+00
  0.00000000E+00  0.00000000E+00 -7.70109509E-19  0.00000000E+00  0.00000000E+00
 -8.13970890E-18  0.00000000E+00  0.00000000E+00 -5.02326644E-17  0.00000000E+00
  0.00000000E+00 -1.69313594E-16  0.00000000E+00  0.00000000E+00 -2.24877718E-16
  0.00000000E+00  0.00000000E+00  0.00000000E+00  0.00000000E+00  0.00000000E+00
  2.91268062E-02  0.00000000E+00  0.00000000E+00  0.00000000E+00  0.00000000E+00
  3.76172529E-01  0.00000000E+00  0.00000000E+00  0.00000000E+00  0.00000000E+00
  2.99707787E+00  0.00000000E+00  0.00000000E+00  0.00000000E+00  0.00000000E+00
  9.79112272E+00  0.00000000E+00  0.00000000E+00  0.00000000E+00  0.00000000E+00
  0.00000000E+00  0.00000000E+00  0.00000000E+00  0.00000000E+00 -6.05130887E-02
  0.00000000E+00  0.00000000E+00 -2.00474320E-01  0.00000000E+00  0.00000000E+00
 -1.83458530E-01  0.00000000E+00  0.00000000E+00 -8.30782724E-02  0.00000000E+00
  0.00000000E+00 -2.45667538E-02  0.00000000E+00  3.04164529E-17  0.00000000E+00
  0.00000000E+00  0.00000000E+00  0.00000000E+00  3.81506590E-17  0.00000000E+00
  0.00000000E+00  0.00000000E+00  0.00000000E+00  1.70339754E-17  0.00000000E+00
  0.00000000E+00  0.00000000E+00  0.00000000E+00  3.89746319E-18  0.00000000E+00
  0.00000000E+00  0.00000000E+00  3.87596899E-01  2.10614387E-34  1.08399014E-33
 -1.78026629E-32  5.90690349E-33 -3.86027176E-33 -7.53602153E-34 -7.41130950E-02
  0.00000000E+00  0.00000000E+00 -2.45529896E-01  0.00000000E+00  0.00000000E+00
 -2.24689894E-01  0.00000000E+00  0.00000000E+00 -1.01749688E-01  0.00000000E+00
  0.00000000E+00 -3.00880058E-02  0.00000000E+00  0.00000000E+00 -4.30153602E-17
  0.00000000E+00  0.00000000E+00  1.24174649E-17  0.00000000E+00 -5.39531794E-17
  0.00000000E+00  0.00000000E+00  1.55749413E-17  0.00000000E+00 -2.40896790E-17
  0.00000000E+00  0.00000000E+00  6.95409133E-18  0.00000000E+00 -5.51184530E-18
  0.00000000E+00  0.00000000E+00  1.59113269E-18  0.00000000E+00  0.00000000E+00
  6.34249471E-01  0.00000000E+00  0.00000000E+00  0.00000000E+00  0.00000000E+00
  0.00000000E+00  0.00000000E+00  0.00000000E+00 -2.47043650E-02  0.00000000E+00
  0.00000000E+00 -8.18432985E-02  0.00000000E+00  0.00000000E+00 -7.48966312E-02
  0.00000000E+00  0.00000000E+00 -3.39165627E-02  0.00000000E+00  0.00000000E+00
 -1.00293353E-02  0.00000000E+00  0.00000000E+00  0.00000000E+00  0.00000000E+00
  0.00000000E+00  1.24174649E-17  0.00000000E+00  0.00000000E+00  0.00000000E+00
  0.00000000E+00  1.55749413E-17  0.00000000E+00  0.00000000E+00  0.00000000E+00
  0.00000000E+00  6.95409133E-18  0.00000000E+00  0.00000000E+00  0.00000000E+00
  0.00000000E+00  1.59113269E-18  0.00000000E+00  0.00000000E+00  2.11416490E-01
  0.00000000E+00  0.00000000E+00  0.00000000E+00  0.00000000E+00  0.00000000E+00
  0.00000000E+00  0.00000000E+00  0.00000000E+00  7.81220616E-02  0.00000000E+00
  0.00000000E+00  2.58811235E-01  0.00000000E+00  0.00000000E+00  2.36843944E-01
  0.00000000E+00  0.00000000E+00  1.07253588E-01  0.00000000E+00  0.00000000E+00
  3.17155428E-02  0.00000000E+00 -3.92674719E-17  0.00000000E+00  0.00000000E+00
  0.00000000E+00  0.00000000E+00 -4.92522890E-17  0.00000000E+00  0.00000000E+00
  0.00000000E+00  0.00000000E+00 -2.19907677E-17  0.00000000E+00  0.00000000E+00
  0.00000000E+00  0.00000000E+00 -5.03160334E-18  0.00000000E+00  0.00000000E+00
  0.00000000E+00 -2.72937516E-01  0.00000000E+00  0.00000000E+00  5.28541226E-01
  0.00000000E+00  0.00000000E+00  0.00000000E+00  0.00000000E+00  0.00000000E+00
  0.00000000E+00  0.00000000E+00  0.00000000E+00  0.00000000E+00  0.00000000E+00
  0.00000000E+00  0.00000000E+00  0.00000000E+00  0.00000000E+00  0.00000000E+00
  0.00000000E+00  0.00000000E+00  0.00000000E+00  0.00000000E+00  0.00000000E+00
  0.00000000E+00  0.00000000E+00  0.00000000E+00 -3.92674719E-17  0.00000000E+00
  0.00000000E+00  0.00000000E+00  0.00000000E+00 -4.92522890E-17  0.00000000E+00
  0.00000000E+00  0.00000000E+00  0.00000000E+00 -2.19907677E-17  0.00000000E+00
  0.00000000E+00  0.00000000E+00  0.00000000E+00 -5.03160334E-18  0.00000000E+00
  0.00000000E+00  0.00000000E+00  0.00000000E+00  0.00000000E+00  0.00000000E+00
  5.28541226E-01 -4.89409354E-34 -7.14346827E-34 -4.27743748E-33 -1.31971974E-32
 -8.52003742E-34 -4.26137410E-33  9.56795943E-02  0.00000000E+00  0.00000000E+00
  3.16977732E-01  0.00000000E+00  0.00000000E+00  2.90073405E-01  0.00000000E+00
  0.00000000E+00  1.31358282E-01  0.00000000E+00  0.00000000E+00  3.88434484E-02
  0.00000000E+00  0.00000000E+00  8.37030041E-33  0.00000000E+00  0.00000000E+00
 -4.80926348E-17  0.00000000E+00  5.51503237E-33  0.00000000E+00  0.00000000E+00
 -6.03214883E-17  0.00000000E+00 -2.41050727E-33  0.00000000E+00  0.00000000E+00
 -2.69330799E-17  0.00000000E+00 -3.20896380E-34  0.00000000E+00  0.00000000E+00
 -6.16243039E-18  0.00000000E+00  0.00000000E+00 -1.36468758E-01  0.00000000E+00
  0.00000000E+00  0.00000000E+00  7.04721635E-01  0.00000000E+00  0.00000000E+00
  0.00000000E+00  0.00000000E+00  0.00000000E+00  0.00000000E+00  0.00000000E+00
  9.56795943E-02  0.00000000E+00  0.00000000E+00  3.16977732E-01  0.00000000E+00
  0.00000000E+00  2.90073405E-01  0.00000000E+00  0.00000000E+00  1.31358282E-01
  0.00000000E+00  0.00000000E+00  3.88434484E-02  0.00000000E+00  0.00000000E+00
  0.00000000E+00  0.00000000E+00  0.00000000E+00 -4.80926348E-17  0.00000000E+00
  0.00000000E+00  0.00000000E+00  0.00000000E+00 -6.03214883E-17  0.00000000E+00
  0.00000000E+00  0.00000000E+00  0.00000000E+00 -2.69330799E-17  0.00000000E+00
  0.00000000E+00  0.00000000E+00  0.00000000E+00 -6.16243039E-18  0.00000000E+00
  0.00000000E+00 -1.36468758E-01  0.00000000E+00  0.00000000E+00  0.00000000E+00
  7.04721635E-01  0.00000000E+00  0.00000000E+00  0.00000000E+00  0.00000000E+00
  0.00000000E+00  0.00000000E+00  0.00000000E+00  0.00000000E+00 -1.91250636E-02
  0.00000000E+00  0.00000000E+00 -2.05248039E-01  0.00000000E+00  0.00000000E+00
 -5.77241447E-01  0.00000000E+00  0.00000000E+00 -5.41773622E-01  0.00000000E+00
  0.00000000E+00 -2.27858024E-01  0.00000000E+00  1.23629431E-17  0.00000000E+00
  0.00000000E+00  0.00000000E+00  0.00000000E+00  5.08954813E-17  0.00000000E+00
  0.00000000E+00  0.00000000E+00  0.00000000E+00  6.58404590E-17  0.00000000E+00
  0.00000000E+00  0.00000000E+00  0.00000000E+00  2.85751259E-17  0.00000000E+00
  0.00000000E+00  0.00000000E+00  3.10984523E-01  0.00000000E+00  0.00000000E+00
 -2.18988705E-01  0.00000000E+00  0.00000000E+00  0.00000000E+00  1.13402062E+00
 -1.11685664E-34  5.51943994E-35 -5.08021679E-33  1.54803057E-33 -7.88484687E-33
  9.97582851E-35 -2.34233235E-02  0.00000000E+00  0.00000000E+00 -2.51376484E-01
  0.00000000E+00  0.00000000E+00 -7.06973502E-01  0.00000000E+00  0.00000000E+00
 -6.63534465E-01  0.00000000E+00  0.00000000E+00 -2.79067947E-01  0.00000000E+00
  0.00000000E+00 -1.74838418E-17  0.00000000E+00  0.00000000E+00  5.04715037E-18
  0.00000000E+00 -7.19770799E-17  0.00000000E+00  0.00000000E+00  2.07779932E-17
  0.00000000E+00 -9.31124700E-17  0.00000000E+00  0.00000000E+00  2.68792548E-17
  0.00000000E+00 -4.04113306E-17  0.00000000E+00  0.00000000E+00  1.16657463E-17
  0.00000000E+00  0.00000000E+00  5.08883764E-01  0.00000000E+00  0.00000000E+00
  0.00000000E+00 -1.09494352E-01  0.00000000E+00  0.00000000E+00  1.85567010E+00
  0.00000000E+00  0.00000000E+00  0.00000000E+00  0.00000000E+00  0.00000000E+00
  0.00000000E+00  0.00000000E+00 -7.80777451E-03  0.00000000E+00  0.00000000E+00
 -8.37921612E-02  0.00000000E+00  0.00000000E+00 -2.35657834E-01  0.00000000E+00
  0.00000000E+00 -2.21178155E-01  0.00000000E+00  0.00000000E+00 -9.30226490E-02
  0.00000000E+00  0.00000000E+00  0.00000000E+00  0.00000000E+00  0.00000000E+00
  5.04715037E-18  0.00000000E+00  0.00000000E+00  0.00000000E+00  0.00000000E+00
  2.07779932E-17  0.00000000E+00  0.00000000E+00  0.00000000E+00  0.00000000E+00
  2.68792548E-17  0.00000000E+00  0.00000000E+00  0.00000000E+00  0.00000000E+00
  1.16657463E-17  0.00000000E+00  0.00000000E+00  1.69627921E-01  0.00000000E+00
  0.00000000E+00  0.00000000E+00 -1.09494352E-01  0.00000000E+00  0.00000000E+00
  6.18556701E-01  0.00000000E+00  0.00000000E+00  0.00000000E+00  0.00000000E+00
  0.00000000E+00  0.00000000E+00  0.00000000E+00  0.00000000E+00  2.46903509E-02
  0.00000000E+00  0.00000000E+00  2.64974079E-01  0.00000000E+00  0.00000000E+00
  7.45215503E-01  0.00000000E+00  0.00000000E+00  6.99426739E-01  0.00000000E+00
  0.00000000E+00  2.94163445E-01  0.00000000E+00 -1.59604909E-17  0.00000000E+00
  0.00000000E+00  0.00000000E+00  0.00000000E+00 -6.57057838E-17  0.00000000E+00
  0.00000000E+00  0.00000000E+00  0.00000000E+00 -8.49996670E-17  0.00000000E+00
  0.00000000E+00  0.00000000E+00  0.00000000E+00 -3.68903289E-17  0.00000000E+00
  0.00000000E+00  0.00000000E+00 -2.18988705E-01  0.00000000E+00  0.00000000E+00
  4.24069803E-01  0.00000000E+00  0.00000000E+00  0.00000000E+00 -7.98553267E-01
  0.00000000E+00  0.00000000E+00  1.54639175E+00  0.00000000E+00  0.00000000E+00
  0.00000000E+00  0.00000000E+00  0.00000000E+00  0.00000000E+00  0.00000000E+00
  0.00000000E+00  0.00000000E+00  0.00000000E+00  0.00000000E+00  0.00000000E+00
  0.00000000E+00  0.00000000E+00  0.00000000E+00  0.00000000E+00  0.00000000E+00
  0.00000000E+00  0.00000000E+00  0.00000000E+00  0.00000000E+00  0.00000000E+00
  0.00000000E+00 -1.59604909E-17  0.00000000E+00  0.00000000E+00  0.00000000E+00
  0.00000000E+00 -6.57057838E-17  0.00000000E+00  0.00000000E+00  0.00000000E+00
  0.00000000E+00 -8.49996670E-17  0.00000000E+00  0.00000000E+00  0.00000000E+00
  0.00000000E+00 -3.68903289E-17  0.00000000E+00  0.00000000E+00  0.00000000E+00
  0.00000000E+00  0.00000000E+00  0.00000000E+00  4.24069803E-01  0.00000000E+00
  0.00000000E+00  0.00000000E+00  0.00000000E+00  0.00000000E+00  0.00000000E+00
  1.54639175E+00 -7.89516990E-35  7.71832887E-35 -3.77423057E-33 -8.77329449E-33
  1.58187540E-33 -4.32489139E-33  3.02393807E-02  0.00000000E+00  0.00000000E+00
  3.24525645E-01  0.00000000E+00  0.00000000E+00  9.12698866E-01  0.00000000E+00
  0.00000000E+00  8.56619311E-01  0.00000000E+00  0.00000000E+00  3.60275170E-01
  0.00000000E+00  0.00000000E+00  4.55710390E-33  0.00000000E+00  0.00000000E+00
 -1.95475293E-17  0.00000000E+00  1.08502225E-32  0.00000000E+00  0.00000000E+00
 -8.04728217E-17  0.00000000E+00 -5.63743675E-33  0.00000000E+00  0.00000000E+00
 -1.04102906E-16  0.00000000E+00  4.37964415E-33  0.00000000E+00  0.00000000E+00
 -4.51812411E-17  0.00000000E+00  0.00000000E+00 -1.09494352E-01  0.00000000E+00
  0.00000000E+00  0.00000000E+00  5.65426405E-01  0.00000000E+00  0.00000000E+00
 -3.99276634E-01  0.00000000E+00  0.00000000E+00  0.00000000E+00  2.06185567E+00
  0.00000000E+00  0.00000000E+00  0.00000000E+00  0.00000000E+00  0.00000000E+00
  0.00000000E+00  0.00000000E+00  3.02393807E-02  0.00000000E+00  0.00000000E+00
  3.24525645E-01  0.00000000E+00  0.00000000E+00  9.12698866E-01  0.00000000E+00
  0.00000000E+00  8.56619311E-01  0.00000000E+00  0.00000000E+00  3.60275170E-01
  0.00000000E+00  0.00000000E+00  0.00000000E+00  0.00000000E+00  0.00000000E+00
 -1.95475293E-17  0.00000000E+00  0.00000000E+00  0.00000000E+00  0.00000000E+00
 -8.04728217E-17  0.00000000E+00  0.00000000E+00  0.00000000E+00  0.00000000E+00
 -1.04102906E-16  0.00000000E+00  0.00000000E+00  0.00000000E+00  0.00000000E+00
 -4.51812411E-17  0.00000000E+00  0.00000000E+00 -1.09494352E-01  0.00000000E+00
  0.00000000E+00  0.00000000E+00  5.65426405E-01  0.00000000E+00  0.00000000E+00
 -3.99276634E-01  0.00000000E+00  0.00000000E+00  0.00000000E+00  2.06185567E+00
  0.00000000E+00  0.00000000E+00  0.00000000E+00  0.00000000E+00  0.00000000E+00
  0.00000000E+00  0.00000000E+00  0.00000000E+00 -3.67144444E-03  0.00000000E+00
  0.00000000E+00 -7.77409987E-02  0.00000000E+00  0.00000000E+00 -6.02816658E-01
  0.00000000E+00  0.00000000E+00 -1.55543436E+00  0.00000000E+00  0.00000000E+00
 -1.27107924E+00  0.00000000E+00  2.67869357E-18  0.00000000E+00  0.00000000E+00
  0.00000000E+00  0.00000000E+00  2.35090146E-17  0.00000000E+00  0.00000000E+00
  0.00000000E+00  0.00000000E+00  8.80854143E-17  0.00000000E+00  0.00000000E+00
  0.00000000E+00  0.00000000E+00  1.00665458E-16  0.00000000E+00  0.00000000E+00
  0.00000000E+00  9.29033116E-02  0.00000000E+00  0.00000000E+00 -6.54205416E-02
  0.00000000E+00  0.00000000E+00  0.00000000E+00  1.00013630E+00  0.00000000E+00
  0.00000000E+00 -7.04274770E-01  0.00000000E+00  0.00000000E+00  0.00000000E+00
  2.94117647E+00 -7.99902259E-36  3.41496605E-35  6.32954561E-34 -8.91683712E-33
 -1.34121900E-32  1.34689372E-32 -4.49658275E-03  0.00000000E+00  0.00000000E+00
 -9.52128895E-02  0.00000000E+00  0.00000000E+00 -7.38296611E-01  0.00000000E+00
  0.00000000E+00 -1.90501026E+00  0.00000000E+00  0.00000000E+00 -1.55674779E+00
  0.00000000E+00  0.00000000E+00 -3.78824478E-18  0.00000000E+00  0.00000000E+00
  1.09357207E-18  0.00000000E+00 -3.32467673E-17  0.00000000E+00  0.00000000E+00
  9.59751502E-18  0.00000000E+00 -1.24571588E-16  0.00000000E+00  0.00000000E+00
  3.59607198E-17  0.00000000E+00 -1.42362456E-16  0.00000000E+00  0.00000000E+00
  4.10965012E-17  0.00000000E+00  0.00000000E+00  1.52023601E-01  0.00000000E+00
  0.00000000E+00  0.00000000E+00 -3.27102708E-02  0.00000000E+00  0.00000000E+00
  1.63658667E+00  0.00000000E+00  0.00000000E+00  0.00000000E+00 -3.52137385E-01
  0.00000000E+00  0.00000000E+00  4.81283422E+00  0.00000000E+00  0.00000000E+00
  0.00000000E+00  0.00000000E+00  0.00000000E+00  0.00000000E+00  0.00000000E+00
 -1.49886092E-03  0.00000000E+00  0.00000000E+00 -3.17376298E-02  0.00000000E+00
  0.00000000E+00 -2.46098870E-01  0.00000000E+00  0.00000000E+00 -6.35003419E-01
  0.00000000E+00  0.00000000E+00 -5.18915929E-01  0.00000000E+00  0.00000000E+00
  0.00000000E+00  0.00000000E+00  0.00000000E+00  1.09357207E-18  0.00000000E+00
  0.00000000E+00  0.00000000E+00  0.00000000E+00  9.59751502E-18  0.00000000E+00
  0.00000000E+00  0.00000000E+00  0.00000000E+00  3.59607198E-17  0.00000000E+00
  0.00000000E+00  0.00000000E+00  0.00000000E+00  4.10965012E-17  0.00000000E+00
  0.00000000E+00  5.06745336E-02  0.00000000E+00  0.00000000E+00  0.00000000E+00
 -3.27102708E-02  0.00000000E+00  0.00000000E+00  5.45528891E-01  0.00000000E+00
  0.00000000E+00  0.00000000E+00 -3.52137385E-01  0.00000000E+00  0.00000000E+00
  1.60427807E+00  0.00000000E+00  0.00000000E+00  0.00000000E+00  0.00000000E+00
  0.00000000E+00  0.00000000E+00  0.00000000E+00  0.00000000E+00  4.73981439E-03
  0.00000000E+00  0.00000000E+00  1.00363198E-01  0.00000000E+00  0.00000000E+00
  7.78232960E-01  0.00000000E+00  0.00000000E+00  2.00805713E+00  0.00000000E+00
  0.00000000E+00  1.64095625E+00  0.00000000E+00 -3.45817853E-18  0.00000000E+00
  0.00000000E+00  0.00000000E+00  0.00000000E+00 -3.03500073E-17  0.00000000E+00
  0.00000000E+00  0.00000000E+00  0.00000000E+00 -1.13717781E-16  0.00000000E+00
  0.00000000E+00  0.00000000E+00  0.00000000E+00 -1.29958548E-16  0.00000000E+00
  0.00000000E+00  0.00000000E+00 -6.54205416E-02  0.00000000E+00  0.00000000E+00
  1.26686334E-01  0.00000000E+00  0.00000000E+00  0.00000000E+00 -7.04274770E-01
  0.00000000E+00  0.00000000E+00  1.36382223E+00  0.00000000E+00  0.00000000E+00
  0.00000000E+00 -2.07111409E+00  0.00000000E+00  0.00000000E+00  4.01069519E+00
  0.00000000E+00  0.00000000E+00  0.00000000E+00  0.00000000E+00  0.00000000E+00
  0.00000000E+00  0.00000000E+00  0.00000000E+00  0.00000000E+00  0.00000000E+00
  0.00000000E+00  0.00000000E+00  0.00000000E+00  0.00000000E+00  0.00000000E+00
  0.00000000E+00  0.00000000E+00  0.00000000E+00  0.00000000E+00  0.00000000E+00
  0.00000000E+00  0.00000000E+00  0.00000000E+00 -3.45817853E-18  0.00000000E+00
  0.00000000E+00  0.00000000E+00  0.00000000E+00 -3.03500073E-17  0.00000000E+00
  0.00000000E+00  0.00000000E+00  0.00000000E+00 -1.13717781E-16  0.00000000E+00
  0.00000000E+00  0.00000000E+00  0.00000000E+00 -1.29958548E-16  0.00000000E+00
  0.00000000E+00  0.00000000E+00  0.00000000E+00  0.00000000E+00  0.00000000E+00
  1.26686334E-01  0.00000000E+00  0.00000000E+00  0.00000000E+00  0.00000000E+00
  0.00000000E+00  0.00000000E+00  1.36382223E+00  0.00000000E+00  0.00000000E+00
  0.00000000E+00  0.00000000E+00  0.00000000E+00  0.00000000E+00  4.01069519E+00
 -1.47494016E-35  3.95758297E-35 -2.42128484E-34 -5.54273946E-33 -2.61484861E-32
 -3.83871749E-32  5.80506337E-03  0.00000000E+00  0.00000000E+00  1.22919312E-01
  0.00000000E+00  0.00000000E+00  9.53136826E-01  0.00000000E+00  0.00000000E+00
  2.45935767E+00  0.00000000E+00  0.00000000E+00  2.00975275E+00  0.00000000E+00
  0.00000000E+00  7.05005531E-34  0.00000000E+00  0.00000000E+00 -4.23538642E-18
  0.00000000E+00  5.15728571E-33  0.00000000E+00  0.00000000E+00 -3.71710158E-17
  0.00000000E+00  2.88145752E-32  0.00000000E+00  0.00000000E+00 -1.39275269E-16
  0.00000000E+00  3.24151455E-32  0.00000000E+00  0.00000000E+00 -1.59166065E-16
  0.00000000E+00  0.00000000E+00 -3.27102708E-02  0.00000000E+00  0.00000000E+00
  0.00000000E+00  1.68915112E-01  0.00000000E+00  0.00000000E+00 -3.52137385E-01
  0.00000000E+00  0.00000000E+00  0.00000000E+00  1.81842964E+00  0.00000000E+00
  0.00000000E+00 -1.03555704E+00  0.00000000E+00  0.00000000E+00  0.00000000E+00
  5.34759358E+00  0.00000000E+00  0.00000000E+00  0.00000000E+00  0.00000000E+00
  0.00000000E+00  0.00000000E+00  0.00000000E+00  5.80506337E-03  0.00000000E+00
  0.00000000E+00  1.22919312E-01  0.00000000E+00  0.00000000E+00  9.53136826E-01
  0.00000000E+00  0.00000000E+00  2.45935767E+00  0.00000000E+00  0.00000000E+00
  2.00975275E+00  0.00000000E+00  0.00000000E+00  0.00000000E+00  0.00000000E+00
  0.00000000E+00 -4.23538642E-18  0.00000000E+00  0.00000000E+00  0.00000000E+00
  0.00000000E+00 -3.71710158E-17  0.00000000E+00  0.00000000E+00  0.00000000E+00
  0.00000000E+00 -1.39275269E-16  0.00000000E+00  0.00000000E+00  0.00000000E+00
  0.00000000E+00 -1.59166065E-16  0.00000000E+00  0.00000000E+00 -3.27102708E-02
  0.00000000E+00  0.00000000E+00  0.00000000E+00  1.68915112E-01  0.00000000E+00
  0.00000000E+00 -3.52137385E-01  0.00000000E+00  0.00000000E+00  0.00000000E+00
  1.81842964E+00  0.00000000E+00  0.00000000E+00 -1.03555704E+00  0.00000000E+00
  0.00000000E+00  0.00000000E+00  5.34759358E+00  4.33680869E-19  1.73472348E-18
 -5.55111512E-17 -1.38777878E-16 -2.77555756E-17  4.16333634E-17  0.00000000E+00
  0.00000000E+00  0.00000000E+00  3.08148791E-33  0.00000000E+00  0.00000000E+00
  3.08148791E-33  0.00000000E+00  0.00000000E+00  1.54074396E-33  0.00000000E+00
  0.00000000E+00  0.00000000E+00  0.00000000E+00  0.00000000E+00 -1.07235475E-01
  0.00000000E+00  0.00000000E+00  3.09562151E-02  0.00000000E+00 -3.41681627E-01
  0.00000000E+00  0.00000000E+00  9.86349896E-02  0.00000000E+00 -2.73704343E-01
  0.00000000E+00  0.00000000E+00  7.90116380E-02  0.00000000E+00 -8.31012667E-02
  0.00000000E+00  0.00000000E+00  2.39892694E-02  0.00000000E+00  0.00000000E+00
  3.98807556E-17  0.00000000E+00  0.00000000E+00  0.00000000E+00  9.90568663E-33
  0.00000000E+00  0.00000000E+00  5.13372547E-17  0.00000000E+00  0.00000000E+00
  0.00000000E+00 -2.69283111E-33  0.00000000E+00  0.00000000E+00  2.04065040E-17
  0.00000000E+00  0.00000000E+00  0.00000000E+00  2.46953361E-33  0.00000000E+00
  6.71188357E-01  0.00000000E+00  0.00000000E+00  0.00000000E+00  0.00000000E+00
  0.00000000E+00  0.00000000E+00  0.00000000E+00  0.00000000E+00  1.10389038E-33
  0.00000000E+00  0.00000000E+00  1.17444310E-32  0.00000000E+00  0.00000000E+00
  1.20717830E-32  0.00000000E+00  0.00000000E+00 -5.18905038E-33  0.00000000E+00
  0.00000000E+00  3.51549371E-33  0.00000000E+00 -1.46838221E-01  0.00000000E+00
  0.00000000E+00  0.00000000E+00  0.00000000E+00 -4.67866836E-01  0.00000000E+00
  0.00000000E+00  0.00000000E+00  0.00000000E+00 -3.74785106E-01  0.00000000E+00
  0.00000000E+00  0.00000000E+00  0.00000000E+00 -1.13791096E-01  0.00000000E+00
  0.00000000E+00  0.00000000E+00 -5.14858341E-17  0.00000000E+00  0.00000000E+00
  1.99403778E-17  0.00000000E+00  0.00000000E+00  0.00000000E+00 -6.62761108E-17
  0.00000000E+00  0.00000000E+00  2.56686274E-17  0.00000000E+00  0.00000000E+00
  0.00000000E+00 -2.63446834E-17  0.00000000E+00  0.00000000E+00  1.02032520E-17
  0.00000000E+00  0.00000000E+00  0.00000000E+00  0.00000000E+00  1.05977109E+00
  0.00000000E+00  0.00000000E+00  0.00000000E+00  0.00000000E+00  0.00000000E+00
  0.00000000E+00  0.00000000E+00  0.00000000E+00  0.00000000E+00  0.00000000E+00
  0.00000000E+00  0.00000000E+00  0.00000000E+00  0.00000000E+00  0.00000000E+00
  0.00000000E+00  0.00000000E+00  0.00000000E+00  0.00000000E+00  0.00000000E+00
  0.00000000E+00  0.00000000E+00  0.00000000E+00 -4.89460737E-02  0.00000000E+00
  0.00000000E+00  0.00000000E+00  0.00000000E+00 -1.55955612E-01  0.00000000E+00
  0.00000000E+00  0.00000000E+00  0.00000000E+00 -1.24928369E-01  0.00000000E+00
  0.00000000E+00  0.00000000E+00  0.00000000E+00 -3.79303653E-02  0.00000000E+00
  0.00000000E+00  0.00000000E+00  0.00000000E+00  0.00000000E+00  0.00000000E+00
  1.99403778E-17  0.00000000E+00  0.00000000E+00  0.00000000E+00  0.00000000E+00
  0.00000000E+00  0.00000000E+00  2.56686274E-17  0.00000000E+00  0.00000000E+00
  0.00000000E+00  0.00000000E+00  0.00000000E+00  0.00000000E+00  1.02032520E-17
  0.00000000E+00  0.00000000E+00  0.00000000E+00  0.00000000E+00  3.53257030E-01
 -7.30940097E-19  2.08753138E-18  2.66087854E-17  4.69689654E-17  4.73139660E-17
 -1.19752396E-16  7.99804478E-34  0.00000000E+00  0.00000000E+00  6.61061858E-34
  0.00000000E+00  0.00000000E+00  2.21773227E-33  0.00000000E+00  0.00000000E+00
  2.38074436E-33  0.00000000E+00  0.00000000E+00  1.20866243E-33  0.00000000E+00
  0.00000000E+00  1.19892905E-01  0.00000000E+00  0.00000000E+00 -6.92202013E-02
  0.00000000E+00  3.82011672E-01  0.00000000E+00  0.00000000E+00 -2.20554542E-01
  0.00000000E+00  3.06010758E-01  0.00000000E+00  0.00000000E+00 -1.76675393E-01
  0.00000000E+00  9.29100407E-02  0.00000000E+00  0.00000000E+00 -5.36416370E-02
  0.00000000E+00  0.00000000E+00 -4.45880403E-17  0.00000000E+00  0.00000000E+00
  0.00000000E+00  1.15125825E-17  0.00000000E+00  0.00000000E+00 -5.73967957E-17
  0.00000000E+00  0.00000000E+00  0.00000000E+00  1.48197889E-17  0.00000000E+00
  0.00000000E+00 -2.28151651E-17  0.00000000E+00  0.00000000E+00  0.00000000E+00
  5.89085029E-18  0.00000000E+00 -4.73944039E-01  0.00000000E+00  0.00000000E+00
  8.12491169E-01  0.00000000E+00  0.00000000E+00  0.00000000E+00  0.00000000E+00
  0.00000000E+00  0.00000000E+00  0.00000000E+00  2.30667875E-33  0.00000000E+00
  0.00000000E+00  5.37621298E-34  0.00000000E+00  0.00000000E+00  1.43983917E-33
  0.00000000E+00  0.00000000E+00  5.94850608E-33  0.00000000E+00  0.00000000E+00
  1.48363452E-35  0.00000000E+00  0.00000000E+00  0.00000000E+00  0.00000000E+00
  0.00000000E+00 -6.92202013E-02  0.00000000E+00  0.00000000E+00  0.00000000E+00
  0.00000000E+00 -2.20554542E-01  0.00000000E+00  0.00000000E+00  0.00000000E+00
  0.00000000E+00 -1.76675393E-01  0.00000000E+00  0.00000000E+00  0.00000000E+00
  0.00000000E+00 -5.36416370E-02  0.00000000E+00  0.00000000E+00 -4.45880403E-17
  0.00000000E+00  0.00000000E+00  0.00000000E+00  1.15125825E-17  0.00000000E+00
  0.00000000E+00 -5.73967957E-17  0.00000000E+00  0.00000000E+00  0.00000000E+00
  1.48197889E-17  0.00000000E+00  0.00000000E+00 -2.28151651E-17  0.00000000E+00
  0.00000000E+00  0.00000000E+00  5.89085029E-18  0.00000000E+00  0.00000000E+00
  0.00000000E+00  0.00000000E+00  8.12491169E-01  0.00000000E+00  0.00000000E+00
  0.00000000E+00  0.00000000E+00  0.00000000E+00  0.00000000E+00  0.00000000E+00
  0.00000000E+00 -2.68317444E-34  0.00000000E+00  0.00000000E+00  1.73243685E-33
  0.00000000E+00  0.00000000E+00  2.94195236E-33  0.00000000E+00  0.00000000E+00
 -4.98704568E-34  0.00000000E+00  0.00000000E+00  2.62949792E-34  0.00000000E+00
  1.29499139E-01  0.00000000E+00  0.00000000E+00  0.00000000E+00  0.00000000E+00
  4.12619765E-01  0.00000000E+00  0.00000000E+00  0.00000000E+00  0.00000000E+00
  3.30529396E-01  0.00000000E+00  0.00000000E+00  0.00000000E+00  0.00000000E+00
  1.00354314E-01  0.00000000E+00  0.00000000E+00  0.00000000E+00  8.96602948E-33
  0.00000000E+00  0.00000000E+00 -5.27572807E-17  0.00000000E+00  0.00000000E+00
  0.00000000E+00 -3.87317028E-33  0.00000000E+00  0.00000000E+00 -6.79128045E-17
  0.00000000E+00  0.00000000E+00  0.00000000E+00  4.49264710E-33  0.00000000E+00
  0.00000000E+00 -2.69952674E-17  0.00000000E+00  0.00000000E+00  0.00000000E+00
  0.00000000E+00 -2.80389075E-01  0.00000000E+00  0.00000000E+00  0.00000000E+00
  9.89119683E-01  0.00000000E+00  0.00000000E+00  0.00000000E+00  0.00000000E+00
  0.00000000E+00  0.00000000E+00  0.00000000E+00  0.00000000E+00  0.00000000E+00
  0.00000000E+00  0.00000000E+00  0.00000000E+00  0.00000000E+00  0.00000000E+00
  0.00000000E+00  0.00000000E+00  0.00000000E+00  0.00000000E+00  0.00000000E+00
  0.00000000E+00  0.00000000E+00  0.00000000E+00  0.00000000E+00  1.29499139E-01
  0.00000000E+00  0.00000000E+00  0.00000000E+00  0.00000000E+00  4.12619765E-01
  0.00000000E+00  0.00000000E+00  0.00000000E+00  0.00000000E+00  3.30529396E-01
  0.00000000E+00  0.00000000E+00  0.00000000E+00  0.00000000E+00  1.00354314E-01
  0.00000000E+00  0.00000000E+00  0.00000000E+00  0.00000000E+00  0.00000000E+00
  0.00000000E+00 -5.27572807E-17  0.00000000E+00  0.00000000E+00  0.00000000E+00
  0.00000000E+00  0.00000000E+00  0.00000000E+00 -6.79128045E-17  0.00000000E+00
  0.00000000E+00  0.00000000E+00  0.00000000E+00  0.00000000E+00  0.00000000E+00
 -2.69952674E-17  0.00000000E+00  0.00000000E+00  0.00000000E+00  0.00000000E+00
 -2.80389075E-01  0.00000000E+00  0.00000000E+00  0.00000000E+00  9.89119683E-01
 -1.43404608E-18 -9.41705668E-19 -5.64431809E-17 -1.18131499E-16  1.06218260E-16
  1.20875910E-16  2.48039590E-33  0.00000000E+00  0.00000000E+00  3.04466261E-33
  0.00000000E+00  0.00000000E+00 -8.33280190E-34  0.00000000E+00  0.00000000E+00
 -4.89653773E-34  0.00000000E+00  0.00000000E+00  1.42748731E-34  0.00000000E+00
  0.00000000E+00 -3.19901479E-17  0.00000000E+00  0.00000000E+00  1.83139438E-01
  0.00000000E+00 -1.31848037E-17  0.00000000E+00  0.00000000E+00  5.83532468E-01
  0.00000000E+00 -1.33066734E-16  0.00000000E+00  0.00000000E+00  4.67439154E-01
  0.00000000E+00  1.39143792E-17  0.00000000E+00  0.00000000E+00  1.41922431E-01
  0.00000000E+00  0.00000000E+00 -3.02494667E-33  0.00000000E+00  0.00000000E+00
  0.00000000E+00 -6.09188605E-17  0.00000000E+00  0.00000000E+00 -3.71504715E-33
  0.00000000E+00  0.00000000E+00  0.00000000E+00 -7.84189519E-17  0.00000000E+00
  0.00000000E+00  3.42490953E-33  0.00000000E+00  0.00000000E+00  0.00000000E+00
 -3.11714498E-17  0.00000000E+00 -1.46778745E-16  0.00000000E+00  0.00000000E+00
 -1.86926050E-01  0.00000000E+00  0.00000000E+00  0.00000000E+00  1.23639960E+00
  0.00000000E+00  0.00000000E+00  0.00000000E+00  0.00000000E+00  0.00000000E+00
  0.00000000E+00  0.00000000E+00  5.80597817E-34  0.00000000E+00  0.00000000E+00
  3.50583494E-33  0.00000000E+00  0.00000000E+00  3.20194226E-33  0.00000000E+00
  0.00000000E+00 -1.79599455E-34  0.00000000E+00  0.00000000E+00 -6.48283568E-34
  0.00000000E+00  0.00000000E+00  0.00000000E+00  0.00000000E+00  0.00000000E+00
  1.83139438E-01  0.00000000E+00  0.00000000E+00  0.00000000E+00  0.00000000E+00
  5.83532468E-01  0.00000000E+00  0.00000000E+00  0.00000000E+00  0.00000000E+00
  4.67439154E-01  0.00000000E+00  0.00000000E+00  0.00000000E+00  0.00000000E+00
  1.41922431E-01  0.00000000E+00  0.00000000E+00  6.81967730E-33  0.00000000E+00
  0.00000000E+00  0.00000000E+00 -6.09188605E-17  0.00000000E+00  0.00000000E+00
  4.55244780E-33  0.00000000E+00  0.00000000E+00  0.00000000E+00 -7.84189519E-17
  0.00000000E+00  0.00000000E+00  5.51371298E-34  0.00000000E+00  0.00000000E+00
  0.00000000E+00 -3.11714498E-17  0.00000000E+00  0.00000000E+00  0.00000000E+00
  0.00000000E+00 -1.86926050E-01  0.00000000E+00  0.00000000E+00  0.00000000E+00
  1.23639960E+00 -3.25260652E-19  1.08420217E-19 -4.16333634E-17  2.22044605E-16
  0.00000000E+00 -1.11022302E-16  3.85185989E-34  0.00000000E+00  0.00000000E+00
  0.00000000E+00  0.00000000E+00  0.00000000E+00  3.08148791E-32  0.00000000E+00
  0.00000000E+00  1.84889275E-32  0.00000000E+00  0.00000000E+00 -3.08148791E-33
  0.00000000E+00  0.00000000E+00 -3.47905234E-02  0.00000000E+00  0.00000000E+00
  1.00431590E-02  0.00000000E+00 -3.45229634E-01  0.00000000E+00  0.00000000E+00
  9.96592109E-02  0.00000000E+00 -8.57042827E-01  0.00000000E+00  0.00000000E+00
  2.47406953E-01  0.00000000E+00 -5.43474306E-01  0.00000000E+00  0.00000000E+00
  1.56887518E-01  0.00000000E+00  0.00000000E+00  1.67262648E-17  0.00000000E+00
  0.00000000E+00  0.00000000E+00 -5.44327590E-33  0.00000000E+00  0.00000000E+00
  7.28862280E-17  0.00000000E+00  0.00000000E+00  0.00000000E+00  3.60336564E-33
  0.00000000E+00  0.00000000E+00  7.59005424E-17  0.00000000E+00  0.00000000E+00
  0.00000000E+00 -7.34943674E-33  0.00000000E+00  5.71577294E-01  0.00000000E+00
  0.00000000E+00 -4.03606005E-01  0.00000000E+00  0.00000000E+00  0.00000000E+00
  3.77892288E-17  0.00000000E+00  1.60040431E+00  0.00000000E+00  0.00000000E+00
  0.00000000E+00  0.00000000E+00  0.00000000E+00  0.00000000E+00  0.00000000E+00
  0.00000000E+00  1.68245552E-34  0.00000000E+00  0.00000000E+00  6.69151522E-33
  0.00000000E+00  0.00000000E+00  1.40422658E-32  0.00000000E+00  0.00000000E+00
  1.12674912E-32  0.00000000E+00  0.00000000E+00  5.07410674E-33  0.00000000E+00
 -4.76388861E-02  0.00000000E+00  0.00000000E+00  0.00000000E+00  0.00000000E+00
 -4.72725145E-01  0.00000000E+00  0.00000000E+00  0.00000000E+00  0.00000000E+00
 -1.17355422E+00  0.00000000E+00  0.00000000E+00  0.00000000E+00  0.00000000E+00
 -7.44182842E-01  0.00000000E+00  0.00000000E+00  0.00000000E+00 -2.15935150E-17
  0.00000000E+00  0.00000000E+00  8.36313238E-18  0.00000000E+00  0.00000000E+00
  0.00000000E+00 -9.40957157E-17  0.00000000E+00  0.00000000E+00  3.64431140E-17
  0.00000000E+00  0.00000000E+00  0.00000000E+00 -9.79871789E-17  0.00000000E+00
  0.00000000E+00  3.79502712E-17  0.00000000E+00  0.00000000E+00  0.00000000E+00
  0.00000000E+00  9.02490464E-01  0.00000000E+00  0.00000000E+00  0.00000000E+00
 -2.38776533E-01  0.00000000E+00  0.00000000E+00  0.00000000E+00  0.00000000E+00
  2.52695418E+00  0.00000000E+00  0.00000000E+00  0.00000000E+00  0.00000000E+00
  0.00000000E+00  0.00000000E+00  0.00000000E+00  0.00000000E+00  0.00000000E+00
  0.00000000E+00  0.00000000E+00  0.00000000E+00  0.00000000E+00  0.00000000E+00
  0.00000000E+00  0.00000000E+00  0.00000000E+00  0.00000000E+00  0.00000000E+00
  0.00000000E+00  0.00000000E+00  0.00000000E+00  0.00000000E+00 -1.58796287E-02
  0.00000000E+00  0.00000000E+00  0.00000000E+00  0.00000000E+00 -1.57575048E-01
  0.00000000E+00  0.00000000E+00  0.00000000E+00  0.00000000E+00 -3.91184741E-01
  0.00000000E+00  0.00000000E+00  0.00000000E+00  0.00000000E+00 -2.48060947E-01
  0.00000000E+00  0.00000000E+00  0.00000000E+00  0.00000000E+00  0.00000000E+00
  0.00000000E+00  8.36313238E-18  0.00000000E+00  0.00000000E+00  0.00000000E+00
  0.00000000E+00  0.00000000E+00  0.00000000E+00  3.64431140E-17  0.00000000E+00
  0.00000000E+00  0.00000000E+00  0.00000000E+00  0.00000000E+00  0.00000000E+00
  3.79502712E-17  0.00000000E+00  0.00000000E+00  0.00000000E+00  0.00000000E+00
  3.00830155E-01  0.00000000E+00  0.00000000E+00  0.00000000E+00 -2.38776533E-01
  0.00000000E+00  0.00000000E+00  0.00000000E+00  0.00000000E+00  8.42318059E-01
 -1.60425385E-19 -1.09813474E-19 -2.75615201E-17 -2.97219695E-16 -5.81630861E-17
  2.20192999E-16  1.49393823E-34  0.00000000E+00  0.00000000E+00  2.52628287E-33
  0.00000000E+00  0.00000000E+00 -9.71992190E-33  0.00000000E+00  0.00000000E+00
 -1.28130648E-32  0.00000000E+00  0.00000000E+00  7.78497729E-34  0.00000000E+00
  0.00000000E+00  3.88969876E-02  0.00000000E+00  0.00000000E+00 -2.24571863E-02
  0.00000000E+00  3.85978464E-01  0.00000000E+00  0.00000000E+00 -2.22844770E-01
  0.00000000E+00  9.58203010E-01  0.00000000E+00  0.00000000E+00 -5.53218766E-01
  0.00000000E+00  6.07622746E-01  0.00000000E+00  0.00000000E+00 -3.50811156E-01
  0.00000000E+00  0.00000000E+00 -1.87005325E-17  0.00000000E+00  0.00000000E+00
  0.00000000E+00  4.82845673E-18  0.00000000E+00  0.00000000E+00 -8.14892802E-17
  0.00000000E+00  0.00000000E+00  0.00000000E+00  2.10404417E-17  0.00000000E+00
  0.00000000E+00 -8.48593862E-17  0.00000000E+00  0.00000000E+00  0.00000000E+00
  2.19105993E-17  0.00000000E+00 -4.03606005E-01  0.00000000E+00  0.00000000E+00
  6.91909356E-01  0.00000000E+00  0.00000000E+00  0.00000000E+00 -1.59184355E-01
  0.00000000E+00 -1.13008826E+00  0.00000000E+00  0.00000000E+00  1.93733154E+00
  0.00000000E+00  0.00000000E+00  0.00000000E+00  0.00000000E+00  0.00000000E+00
  0.00000000E+00  0.00000000E+00  2.31959392E-37  0.00000000E+00  0.00000000E+00
 -2.89409238E-34  0.00000000E+00  0.00000000E+00 -5.19251627E-33  0.00000000E+00
  0.00000000E+00  2.16059669E-32  0.00000000E+00  0.00000000E+00 -6.15430391E-34
  0.00000000E+00  0.00000000E+00  0.00000000E+00  0.00000000E+00  0.00000000E+00
 -2.24571863E-02  0.00000000E+00  0.00000000E+00  0.00000000E+00  0.00000000E+00
 -2.22844770E-01  0.00000000E+00  0.00000000E+00  0.00000000E+00  0.00000000E+00
 -5.53218766E-01  0.00000000E+00  0.00000000E+00  0.00000000E+00  0.00000000E+00
 -3.50811156E-01  0.00000000E+00  0.00000000E+00 -1.87005325E-17  0.00000000E+00
  0.00000000E+00  0.00000000E+00  4.82845673E-18  0.00000000E+00  0.00000000E+00
 -8.14892802E-17  0.00000000E+00  0.00000000E+00  0.00000000E+00  2.10404417E-17
  0.00000000E+00  0.00000000E+00 -8.48593862E-17  0.00000000E+00  0.00000000E+00
  0.00000000E+00  2.19105993E-17  0.00000000E+00  0.00000000E+00  0.00000000E+00
  0.00000000E+00  6.91909356E-01  0.00000000E+00  0.00000000E+00  0.00000000E+00
 -1.59184355E-01  0.00000000E+00  0.00000000E+00  0.00000000E+00  0.00000000E+00
  1.93733154E+00  0.00000000E+00  0.00000000E+00  0.00000000E+00  0.00000000E+00
  0.00000000E+00  0.00000000E+00  0.00000000E+00  0.00000000E+00  6.30340481E-35
  0.00000000E+00  0.00000000E+00  4.51959041E-34  0.00000000E+00  0.00000000E+00
  3.20060917E-33  0.00000000E+00  0.00000000E+00 -7.77146588E-33  0.00000000E+00
  0.00000000E+00 -3.32355563E-33  0.00000000E+00  4.20135484E-02  0.00000000E+00
  0.00000000E+00  0.00000000E+00  0.00000000E+00  4.16904390E-01  0.00000000E+00
  0.00000000E+00  0.00000000E+00  0.00000000E+00  1.03497754E+00  0.00000000E+00
  0.00000000E+00  0.00000000E+00  0.00000000E+00  6.56307577E-01  0.00000000E+00
  0.00000000E+00  0.00000000E+00 -5.17336635E-33  0.00000000E+00  0.00000000E+00
 -2.21267685E-17  0.00000000E+00  0.00000000E+00  0.00000000E+00  2.75261233E-32
  0.00000000E+00  0.00000000E+00 -9.64194166E-17  0.00000000E+00  0.00000000E+00
  0.00000000E+00  2.49027170E-32  0.00000000E+00  0.00000000E+00 -1.00406980E-16
  0.00000000E+00  0.00000000E+00  0.00000000E+00  0.00000000E+00 -2.38776533E-01
  0.00000000E+00  0.00000000E+00  0.00000000E+00  8.42324433E-01  0.00000000E+00
  0.00000000E+00  0.00000000E+00  0.00000000E+00 -6.68569233E-01  0.00000000E+00
  0.00000000E+00  0.00000000E+00  2.35849057E+00  0.00000000E+00  0.00000000E+00
  0.00000000E+00  0.00000000E+00  0.00000000E+00  0.00000000E+00  0.00000000E+00
  0.00000000E+00  0.00000000E+00  0.00000000E+00  0.00000000E+00  0.00000000E+00
  0.00000000E+00  0.00000000E+00  0.00000000E+00  0.00000000E+00  0.00000000E+00
  0.00000000E+00  0.00000000E+00  0.00000000E+00  0.00000000E+00  0.00000000E+00
  0.00000000E+00  4.20135484E-02  0.00000000E+00  0.00000000E+00  0.00000000E+00
  0.00000000E+00  4.16904390E-01  0.00000000E+00  0.00000000E+00  0.00000000E+00
  0.00000000E+00  1.03497754E+00  0.00000000E+00  0.00000000E+00  0.00000000E+00
  0.00000000E+00  6.56307577E-01  0.00000000E+00  0.00000000E+00  0.00000000E+00
  0.00000000E+00  0.00000000E+00  0.00000000E+00 -2.21267685E-17  0.00000000E+00
  0.00000000E+00  0.00000000E+00  0.00000000E+00  0.00000000E+00  0.00000000E+00
 -9.64194166E-17  0.00000000E+00  0.00000000E+00  0.00000000E+00  0.00000000E+00
  0.00000000E+00  0.00000000E+00 -1.00406980E-16  0.00000000E+00  0.00000000E+00
  0.00000000E+00  0.00000000E+00 -2.38776533E-01  0.00000000E+00  0.00000000E+00
  0.00000000E+00  8.42324433E-01  0.00000000E+00  0.00000000E+00  0.00000000E+00
  0.00000000E+00 -6.68569233E-01  0.00000000E+00  0.00000000E+00  0.00000000E+00
  2.35849057E+00  2.02857868E-19  5.67304819E-20 -8.92344767E-18  1.32040841E-16
  2.07534804E-16  1.31978525E-17 -2.31581886E-34  0.00000000E+00  0.00000000E+00
 -4.80942436E-33  0.00000000E+00  0.00000000E+00  2.22928594E-32  0.00000000E+00
  0.00000000E+00  1.21277052E-32  0.00000000E+00  0.00000000E+00 -7.99844633E-34
  0.00000000E+00  0.00000000E+00 -9.22090910E-19  0.00000000E+00  0.00000000E+00
  5.94161300E-02  0.00000000E+00  3.12604270E-18  0.00000000E+00  0.00000000E+00
  5.89591843E-01  0.00000000E+00  3.09019156E-16  0.00000000E+00  0.00000000E+00
  1.46367928E+00  0.00000000E+00  3.85377751E-17  0.00000000E+00  0.00000000E+00
  9.28159076E-01  0.00000000E+00  0.00000000E+00  9.28030917E-33  0.00000000E+00
  0.00000000E+00  0.00000000E+00 -2.55497915E-17  0.00000000E+00  0.00000000E+00
  4.69969398E-33  0.00000000E+00  0.00000000E+00  0.00000000E+00 -1.11335552E-16
  0.00000000E+00  0.00000000E+00 -1.34974332E-32  0.00000000E+00  0.00000000E+00
  0.00000000E+00 -1.15939994E-16  0.00000000E+00  6.06584513E-17  0.00000000E+00
  0.00000000E+00 -1.59184355E-01  0.00000000E+00  0.00000000E+00  0.00000000E+00
  1.05290554E+00  0.00000000E+00  5.04042540E-16  0.00000000E+00  0.00000000E+00
 -4.45712822E-01  0.00000000E+00  0.00000000E+00  0.00000000E+00  2.94811321E+00
  0.00000000E+00  0.00000000E+00  0.00000000E+00  0.00000000E+00  0.00000000E+00
  0.00000000E+00  0.00000000E+00 -1.34345489E-34  0.00000000E+00  0.00000000E+00
  1.94631233E-33  0.00000000E+00  0.00000000E+00  3.80837583E-33  0.00000000E+00
  0.00000000E+00 -1.83645657E-33  0.00000000E+00  0.00000000E+00  3.81201429E-34
  0.00000000E+00  0.00000000E+00  0.00000000E+00  0.00000000E+00  0.00000000E+00
  5.94161300E-02  0.00000000E+00  0.00000000E+00  0.00000000E+00  0.00000000E+00
  5.89591843E-01  0.00000000E+00  0.00000000E+00  0.00000000E+00  0.00000000E+00
  1.46367928E+00  0.00000000E+00  0.00000000E+00  0.00000000E+00  0.00000000E+00
  9.28159076E-01  0.00000000E+00  0.00000000E+00 -6.05603402E-34  0.00000000E+00
  0.00000000E+00  0.00000000E+00 -2.55497915E-17  0.00000000E+00  0.00000000E+00
  1.89506686E-33  0.00000000E+00  0.00000000E+00  0.00000000E+00 -1.11335552E-16
  0.00000000E+00  0.00000000E+00 -1.14687485E-33  0.00000000E+00  0.00000000E+00
  0.00000000E+00 -1.15939994E-16  0.00000000E+00  0.00000000E+00  0.00000000E+00
  0.00000000E+00 -1.59184355E-01  0.00000000E+00  0.00000000E+00  0.00000000E+00
  1.05290554E+00  0.00000000E+00  0.00000000E+00  0.00000000E+00  0.00000000E+00
 -4.45712822E-01  0.00000000E+00  0.00000000E+00  0.00000000E+00  2.94811321E+00
Multipole Matrix (1,1,0)                   R   N=        3240
  0.00000000E+00  0.00000000E+00  0.00000000E+00  0.00000000E+00  0.00000000E+00
  0.00000000E+00  0.00000000E+00  0.00000000E+00  0.00000000E+00  0.00000000E+00
  0.00000000E+00  0.00000000E+00  0.00000000E+00  0.00000000E+00  0.00000000E+00
  0.00000000E+00  0.00000000E+00  0.00000000E+00  0.00000000E+00  0.00000000E+00
  0.00000000E+00  0.00000000E+00  0.00000000E+00  0.00000000E+00  0.00000000E+00
  0.00000000E+00  0.00000000E+00  0.00000000E+00 -9.11488620E-18  1.10549305E-17
 -1.97710653E-17 -1.42299406E-17 -8.17977070E-18 -4.18119275E-18  8.73744832E-02
  0.00000000E+00  0.00000000E+00  0.00000000E+00  0.00000000E+00  0.00000000E+00
  0.00000000E+00  0.00000000E+00  0.00000000E+00  0.00000000E+00  0.00000000E+00
  0.00000000E+00  0.00000000E+00  0.00000000E+00  0.00000000E+00  0.00000000E+00
  0.00000000E+00  0.00000000E+00  9.69782987E-02  0.00000000E+00  0.00000000E+00
 -4.45590950E-18  5.93370032E-18 -3.22619566E-17 -3.74890069E-17 -2.84069824E-17
 -1.64947067E-17  9.69782987E-02  0.00000000E+00  0.00000000E+00  3.07427447E-01
  0.00000000E+00  0.00000000E+00  0.00000000E+00  0.00000000E+00  0.00000000E+00
  0.00000000E+00  0.00000000E+00  0.00000000E+00  0.00000000E+00  0.00000000E+00
  0.00000000E+00  0.00000000E+00  0.00000000E+00  0.00000000E+00  0.00000000E+00
  0.00000000E+00  0.00000000E+00  0.00000000E+00  0.00000000E+00  0.00000000E+00
  4.94210922E-02  0.00000000E+00  0.00000000E+00  3.29232414E-01  0.00000000E+00
  0.00000000E+00 -1.70213538E-18  2.32991363E-18 -2.48716520E-17 -5.14960044E-17
 -6.32283279E-17 -4.86885165E-17  4.94210922E-02  0.00000000E+00  0.00000000E+00
  3.29232414E-01  0.00000000E+00  0.00000000E+00  8.65051903E-01  0.00000000E+00
  0.00000000E+00  0.00000000E+00  0.00000000E+00  0.00000000E+00  0.00000000E+00
  0.00000000E+00  0.00000000E+00  0.00000000E+00  0.00000000E+00  0.00000000E+00
  0.00000000E+00  0.00000000E+00  0.00000000E+00  0.00000000E+00  0.00000000E+00
  0.00000000E+00  0.00000000E+00  0.00000000E+00  0.00000000E+00  0.00000000E+00
  0.00000000E+00  0.00000000E+00  1.70519743E-02  0.00000000E+00  0.00000000E+00
  1.69798236E-01  0.00000000E+00  0.00000000E+00  9.20232813E-01  0.00000000E+00
  0.00000000E+00 -5.22441664E-19  7.22844214E-19 -1.10630192E-17 -3.68192174E-17
 -8.30199984E-17 -1.07396050E-16  1.70519743E-02  0.00000000E+00  0.00000000E+00
  1.69798236E-01  0.00000000E+00  0.00000000E+00  9.20232813E-01  0.00000000E+00
  0.00000000E+00  2.48262165E+00  0.00000000E+00  0.00000000E+00  0.00000000E+00
  0.00000000E+00  0.00000000E+00  0.00000000E+00  0.00000000E+00  0.00000000E+00
  0.00000000E+00  0.00000000E+00  0.00000000E+00  0.00000000E+00  0.00000000E+00
  0.00000000E+00  0.00000000E+00  0.00000000E+00  0.00000000E+00  0.00000000E+00
  0.00000000E+00  0.00000000E+00  0.00000000E+00  0.00000000E+00  0.00000000E+00
  0.00000000E+00  0.00000000E+00  0.00000000E+00  4.51572766E-03  0.00000000E+00
  0.00000000E+00  5.35910621E-02  0.00000000E+00  0.00000000E+00  4.35040930E-01
  0.00000000E+00  0.00000000E+00  2.55685273E+00  0.00000000E+00  0.00000000E+00
 -1.32309084E-19  1.83797968E-19 -3.29150273E-18 -1.43165132E-17 -5.29943280E-17
 -1.33633141E-16  4.51572766E-03  0.00000000E+00  0.00000000E+00  5.35910621E-02
  0.00000000E+00  0.00000000E+00  4.35040930E-01  0.00000000E+00  0.00000000E+00
  2.55685273E+00  0.00000000E+00  0.00000000E+00  7.76880050E+00  0.00000000E+00
  0.00000000E+00  0.00000000E+00  0.00000000E+00  0.00000000E+00  0.00000000E+00
  0.00000000E+00  0.00000000E+00  0.00000000E+00  0.00000000E+00  0.00000000E+00
  0.00000000E+00  0.00000000E+00  0.00000000E+00  0.00000000E+00  0.00000000E+00
  0.00000000E+00  0.00000000E+00  0.00000000E+00  0.00000000E+00  0.00000000E+00
  0.00000000E+00  0.00000000E+00  0.00000000E+00  0.00000000E+00  0.00000000E+00
  0.00000000E+00  0.00000000E+00  0.00000000E+00  9.03269384E-18  0.00000000E+00
  0.00000000E+00  1.33382376E-17  0.00000000E+00  0.00000000E+00  7.88732096E-18
  0.00000000E+00  0.00000000E+00  2.91610010E-18  0.00000000E+00  0.00000000E+00
  7.94159229E-19  0.00000000E+00  0.00000000E+00  0.00000000E+00  0.00000000E+00
  0.00000000E+00  0.00000000E+00  0.00000000E+00  0.00000000E+00  0.00000000E+00
  0.00000000E+00  0.00000000E+00  0.00000000E+00  0.00000000E+00  0.00000000E+00
  0.00000000E+00  0.00000000E+00  0.00000000E+00  0.00000000E+00  0.00000000E+00
  0.00000000E+00  0.00000000E+00  0.00000000E+00  0.00000000E+00  0.00000000E+00
  0.00000000E+00  0.00000000E+00  0.00000000E+00  0.00000000E+00  0.00000000E+00
  0.00000000E+00  0.00000000E+00  0.00000000E+00  0.00000000E+00 -1.56450847E-17
  0.00000000E+00  0.00000000E+00 -2.31025052E-17  0.00000000E+00  0.00000000E+00
 -1.36612406E-17  0.00000000E+00  0.00000000E+00 -5.05083354E-18  0.00000000E+00
  0.00000000E+00 -1.37552413E-18  0.00000000E+00  1.35281385E-01  0.00000000E+00
  0.00000000E+00  0.00000000E+00  0.00000000E+00  0.00000000E+00  0.00000000E+00
  0.00000000E+00  0.00000000E+00  1.56450847E-17  0.00000000E+00  0.00000000E+00
  2.31025052E-17  0.00000000E+00  0.00000000E+00  1.36612406E-17  0.00000000E+00
  0.00000000E+00  5.05083354E-18  0.00000000E+00  0.00000000E+00  1.37552413E-18
  0.00000000E+00  0.00000000E+00  0.00000000E+00  0.00000000E+00  0.00000000E+00
  3.10930552E-02 -4.31673614E-02  2.37400054E-01  2.29219018E-01  1.51481942E-01
  8.20810538E-02 -1.56450847E-17  0.00000000E+00  0.00000000E+00 -2.31025052E-17
  0.00000000E+00  0.00000000E+00 -1.36612406E-17  0.00000000E+00  0.00000000E+00
 -5.05083354E-18  0.00000000E+00  0.00000000E+00 -1.37552413E-18  0.00000000E+00
  0.00000000E+00 -1.56209488E-01  0.00000000E+00  0.00000000E+00  1.20556621E-17
  0.00000000E+00  0.00000000E+00  0.00000000E+00  0.00000000E+00  0.00000000E+00
  0.00000000E+00  0.00000000E+00  0.00000000E+00  4.53067686E-18  0.00000000E+00
  0.00000000E+00  1.73798410E-17  0.00000000E+00  0.00000000E+00  2.25546029E-17
  0.00000000E+00  0.00000000E+00  1.32282796E-17  0.00000000E+00  0.00000000E+00
  4.44517391E-18  0.00000000E+00  0.00000000E+00  0.00000000E+00  0.00000000E+00
  0.00000000E+00 -1.46156313E-01  0.00000000E+00  0.00000000E+00  0.00000000E+00
  0.00000000E+00  0.00000000E+00  0.00000000E+00  0.00000000E+00  0.00000000E+00
  0.00000000E+00  0.00000000E+00  0.00000000E+00  0.00000000E+00  0.00000000E+00
  0.00000000E+00  0.00000000E+00  0.00000000E+00  0.00000000E+00  0.00000000E+00
  0.00000000E+00  0.00000000E+00  0.00000000E+00  0.00000000E+00  0.00000000E+00
  0.00000000E+00  1.26575080E-01  0.00000000E+00  0.00000000E+00  0.00000000E+00
  0.00000000E+00  0.00000000E+00  0.00000000E+00  0.00000000E+00  0.00000000E+00
  0.00000000E+00  0.00000000E+00  0.00000000E+00  0.00000000E+00 -7.84736252E-18
  0.00000000E+00  0.00000000E+00 -3.01027677E-17  0.00000000E+00  0.00000000E+00
 -3.90657181E-17  0.00000000E+00  0.00000000E+00 -2.29120524E-17  0.00000000E+00
  0.00000000E+00 -7.69926705E-18  0.00000000E+00  1.26575080E-01  0.00000000E+00
  0.00000000E+00  0.00000000E+00  0.00000000E+00  3.85208012E-01  0.00000000E+00
  0.00000000E+00  0.00000000E+00  0.00000000E+00  0.00000000E+00  0.00000000E+00
  0.00000000E+00  0.00000000E+00  7.84736252E-18  0.00000000E+00  0.00000000E+00
  3.01027677E-17  0.00000000E+00  0.00000000E+00  3.90657181E-17  0.00000000E+00
  0.00000000E+00  2.29120524E-17  0.00000000E+00  0.00000000E+00  7.69926705E-18
  0.00000000E+00  0.00000000E+00  0.00000000E+00  0.00000000E+00  0.00000000E+00
 -5.68155380E-18  0.00000000E+00  0.00000000E+00  0.00000000E+00  0.00000000E+00
  1.30447357E-02 -1.89953178E-02  3.37586336E-01  6.53422477E-01  6.67131110E-01
  4.45814095E-01 -7.84736252E-18  0.00000000E+00  0.00000000E+00 -3.01027677E-17
  0.00000000E+00  0.00000000E+00 -3.90657181E-17  0.00000000E+00  0.00000000E+00
 -2.29120524E-17  0.00000000E+00  0.00000000E+00 -7.69926705E-18  0.00000000E+00
  0.00000000E+00 -1.46156313E-01  0.00000000E+00  0.00000000E+00 -5.68155380E-18
  0.00000000E+00 -4.44799899E-01  0.00000000E+00  0.00000000E+00 -1.44367919E-17
  0.00000000E+00  0.00000000E+00  0.00000000E+00  0.00000000E+00  0.00000000E+00
  0.00000000E+00  0.00000000E+00  0.00000000E+00  1.21848476E-18  0.00000000E+00
  0.00000000E+00  9.14445301E-18  0.00000000E+00  0.00000000E+00  2.90861327E-17
  0.00000000E+00  0.00000000E+00  3.79986749E-17  0.00000000E+00  0.00000000E+00
  2.06920941E-17  0.00000000E+00  0.00000000E+00  0.00000000E+00  0.00000000E+00
  0.00000000E+00 -5.37818467E-02  0.00000000E+00  0.00000000E+00  0.00000000E+00
  0.00000000E+00 -4.16255887E-01  0.00000000E+00  0.00000000E+00  0.00000000E+00
  0.00000000E+00  0.00000000E+00  0.00000000E+00  0.00000000E+00  0.00000000E+00
  0.00000000E+00  0.00000000E+00  0.00000000E+00  0.00000000E+00  0.00000000E+00
  0.00000000E+00  0.00000000E+00  0.00000000E+00  0.00000000E+00  0.00000000E+00
  0.00000000E+00  0.00000000E+00  0.00000000E+00  0.00000000E+00  0.00000000E+00
  0.00000000E+00  4.65764455E-02  0.00000000E+00  0.00000000E+00  0.00000000E+00
  0.00000000E+00  3.60488173E-01  0.00000000E+00  0.00000000E+00  0.00000000E+00
  0.00000000E+00  0.00000000E+00  0.00000000E+00  0.00000000E+00  0.00000000E+00
  0.00000000E+00  0.00000000E+00  0.00000000E+00  0.00000000E+00 -2.11047752E-18
  0.00000000E+00  0.00000000E+00 -1.58386572E-17  0.00000000E+00  0.00000000E+00
 -5.03786596E-17  0.00000000E+00  0.00000000E+00 -6.58156356E-17  0.00000000E+00
  0.00000000E+00 -3.58397583E-17  0.00000000E+00  4.65764455E-02  0.00000000E+00
  0.00000000E+00  0.00000000E+00  0.00000000E+00  3.60488173E-01  0.00000000E+00
  0.00000000E+00  0.00000000E+00  0.00000000E+00  1.09649123E+00  0.00000000E+00
  0.00000000E+00  0.00000000E+00  0.00000000E+00  0.00000000E+00  0.00000000E+00
  0.00000000E+00  0.00000000E+00  2.11047752E-18  0.00000000E+00  0.00000000E+00
  1.58386572E-17  0.00000000E+00  0.00000000E+00  5.03786596E-17  0.00000000E+00
  0.00000000E+00  6.58156356E-17  0.00000000E+00  0.00000000E+00  3.58397583E-17
  0.00000000E+00  0.00000000E+00  0.00000000E+00  0.00000000E+00  0.00000000E+00
 -3.13299404E-18  0.00000000E+00  0.00000000E+00  0.00000000E+00  0.00000000E+00
 -3.88711859E-17  0.00000000E+00  0.00000000E+00  0.00000000E+00  0.00000000E+00
  3.25295211E-03 -4.82129475E-03  1.92480601E-01  8.38822200E-01  1.80330529E+00
  1.92486697E+00 -2.11047752E-18  0.00000000E+00  0.00000000E+00 -1.58386572E-17
  0.00000000E+00  0.00000000E+00 -5.03786596E-17  0.00000000E+00  0.00000000E+00
 -6.58156356E-17  0.00000000E+00  0.00000000E+00 -3.58397583E-17  0.00000000E+00
  0.00000000E+00 -5.37818467E-02  0.00000000E+00  0.00000000E+00 -3.13299404E-18
  0.00000000E+00 -4.16255887E-01  0.00000000E+00  0.00000000E+00 -3.88711859E-17
  0.00000000E+00 -1.26611901E+00  0.00000000E+00  0.00000000E+00  1.85469978E-17
  0.00000000E+00  0.00000000E+00  0.00000000E+00  0.00000000E+00  0.00000000E+00
  0.00000000E+00  0.00000000E+00  0.00000000E+00  2.22311466E-19  0.00000000E+00
  0.00000000E+00  2.34973156E-18  0.00000000E+00  0.00000000E+00  1.45009212E-17
  0.00000000E+00  0.00000000E+00  4.88766246E-17  0.00000000E+00  0.00000000E+00
  6.49166054E-17  0.00000000E+00  0.00000000E+00  0.00000000E+00  0.00000000E+00
  0.00000000E+00 -1.12109129E-02  0.00000000E+00  0.00000000E+00  0.00000000E+00
  0.00000000E+00 -1.44788874E-01  0.00000000E+00  0.00000000E+00  0.00000000E+00
  0.00000000E+00 -1.15357581E+00  0.00000000E+00  0.00000000E+00  0.00000000E+00
  0.00000000E+00  0.00000000E+00  0.00000000E+00  0.00000000E+00  0.00000000E+00
  0.00000000E+00  0.00000000E+00  0.00000000E+00  0.00000000E+00  0.00000000E+00
  0.00000000E+00  0.00000000E+00  0.00000000E+00  0.00000000E+00  0.00000000E+00
  0.00000000E+00  0.00000000E+00  0.00000000E+00  0.00000000E+00  0.00000000E+00
  0.00000000E+00  9.70893540E-03  0.00000000E+00  0.00000000E+00  0.00000000E+00
  0.00000000E+00  1.25390843E-01  0.00000000E+00  0.00000000E+00  0.00000000E+00
  0.00000000E+00  9.99025958E-01  0.00000000E+00  0.00000000E+00  0.00000000E+00
  0.00000000E+00  0.00000000E+00  0.00000000E+00  0.00000000E+00  0.00000000E+00
  0.00000000E+00  0.00000000E+00  0.00000000E+00  0.00000000E+00 -3.85054754E-19
  0.00000000E+00  0.00000000E+00 -4.06985445E-18  0.00000000E+00  0.00000000E+00
 -2.51163322E-17  0.00000000E+00  0.00000000E+00 -8.46567972E-17  0.00000000E+00
  0.00000000E+00 -1.12438859E-16  0.00000000E+00  9.70893540E-03  0.00000000E+00
  0.00000000E+00  0.00000000E+00  0.00000000E+00  1.25390843E-01  0.00000000E+00
  0.00000000E+00  0.00000000E+00  0.00000000E+00  9.99025958E-01  0.00000000E+00
  0.00000000E+00  0.00000000E+00  0.00000000E+00  3.26370757E+00  0.00000000E+00
  0.00000000E+00  0.00000000E+00  0.00000000E+00  0.00000000E+00  0.00000000E+00
  0.00000000E+00  0.00000000E+00  3.85054754E-19  0.00000000E+00  0.00000000E+00
  4.06985445E-18  0.00000000E+00  0.00000000E+00  2.51163322E-17  0.00000000E+00
  0.00000000E+00  8.46567972E-17  0.00000000E+00  0.00000000E+00  1.12438859E-16
  0.00000000E+00  0.00000000E+00  0.00000000E+00  0.00000000E+00  0.00000000E+00
 -7.95306713E-19  0.00000000E+00  0.00000000E+00  0.00000000E+00  0.00000000E+00
  1.30314434E-17  0.00000000E+00  0.00000000E+00  0.00000000E+00  0.00000000E+00
  2.53419795E-17  0.00000000E+00  0.00000000E+00  0.00000000E+00  0.00000000E+00
  5.76319474E-04 -8.59598070E-04  5.19097648E-02  4.16446865E-01  2.11887790E+00
  5.12693453E+00 -3.85054754E-19  0.00000000E+00  0.00000000E+00 -4.06985445E-18
  0.00000000E+00  0.00000000E+00 -2.51163322E-17  0.00000000E+00  0.00000000E+00
 -8.46567972E-17  0.00000000E+00  0.00000000E+00 -1.12438859E-16  0.00000000E+00
  0.00000000E+00 -1.12109129E-02  0.00000000E+00  0.00000000E+00 -7.95306713E-19
  0.00000000E+00 -1.44788874E-01  0.00000000E+00  0.00000000E+00  1.30314434E-17
  0.00000000E+00 -1.15357581E+00  0.00000000E+00  0.00000000E+00  2.53419795E-17
  0.00000000E+00 -3.76860489E+00  0.00000000E+00  0.00000000E+00 -3.60681913E-16
  0.00000000E+00  0.00000000E+00  0.00000000E+00  0.00000000E+00  0.00000000E+00
  0.00000000E+00  0.00000000E+00  0.00000000E+00  0.00000000E+00  0.00000000E+00
  0.00000000E+00  0.00000000E+00  0.00000000E+00  0.00000000E+00  0.00000000E+00
  0.00000000E+00  0.00000000E+00  0.00000000E+00  0.00000000E+00  0.00000000E+00
  0.00000000E+00  0.00000000E+00  0.00000000E+00  0.00000000E+00  1.52082265E-17
  0.00000000E+00  0.00000000E+00  0.00000000E+00  0.00000000E+00  1.90753295E-17
  0.00000000E+00  0.00000000E+00  0.00000000E+00  0.00000000E+00  8.51698770E-18
  0.00000000E+00  0.00000000E+00  0.00000000E+00  0.00000000E+00  1.94873160E-18
  0.00000000E+00  0.00000000E+00  0.00000000E+00  0.00000000E+00  0.00000000E+00
  0.00000000E+00  0.00000000E+00  0.00000000E+00  0.00000000E+00  0.00000000E+00
 -2.47043650E-02  0.00000000E+00  0.00000000E+00 -8.18432985E-02  0.00000000E+00
  0.00000000E+00 -7.48966312E-02  0.00000000E+00  0.00000000E+00 -3.39165627E-02
  0.00000000E+00  0.00000000E+00 -1.00293353E-02  0.00000000E+00  0.00000000E+00
  0.00000000E+00  0.00000000E+00  0.00000000E+00  6.20873245E-18  0.00000000E+00
  0.00000000E+00  0.00000000E+00  0.00000000E+00  7.78747066E-18  0.00000000E+00
  0.00000000E+00  0.00000000E+00  0.00000000E+00  3.47704567E-18  0.00000000E+00
  0.00000000E+00  0.00000000E+00  0.00000000E+00  7.95566343E-19  0.00000000E+00
  0.00000000E+00  1.05307194E-34  5.41995071E-34 -8.90133146E-33  2.95345175E-33
 -1.93013588E-33 -3.76801077E-34 -2.47043650E-02  0.00000000E+00  0.00000000E+00
 -8.18432985E-02  0.00000000E+00  0.00000000E+00 -7.48966312E-02  0.00000000E+00
  0.00000000E+00 -3.39165627E-02  0.00000000E+00  0.00000000E+00 -1.00293353E-02
  0.00000000E+00  0.00000000E+00 -2.15076801E-17  0.00000000E+00  0.00000000E+00
 -6.20873245E-18  0.00000000E+00 -2.69765897E-17  0.00000000E+00  0.00000000E+00
 -7.78747066E-18  0.00000000E+00 -1.20448395E-17  0.00000000E+00  0.00000000E+00
 -3.47704567E-18  0.00000000E+00 -2.75592265E-18  0.00000000E+00  0.00000000E+00
 -7.95566343E-19  0.00000000E+00  0.00000000E+00  2.11416490E-01  0.00000000E+00
  0.00000000E+00  0.00000000E+00  0.00000000E+00  0.00000000E+00  0.00000000E+00
  0.00000000E+00  0.00000000E+00  0.00000000E+00  0.00000000E+00  0.00000000E+00
  0.00000000E+00  0.00000000E+00  0.00000000E+00  0.00000000E+00  0.00000000E+00
  0.00000000E+00  0.00000000E+00  0.00000000E+00  0.00000000E+00  0.00000000E+00
  0.00000000E+00  0.00000000E+00  0.00000000E+00  1.96337359E-17  0.00000000E+00
  0.00000000E+00  0.00000000E+00  0.00000000E+00  2.46261445E-17  0.00000000E+00
  0.00000000E+00  0.00000000E+00  0.00000000E+00  1.09953838E-17  0.00000000E+00
  0.00000000E+00  0.00000000E+00  0.00000000E+00  2.51580167E-18  0.00000000E+00
  0.00000000E+00  0.00000000E+00  0.00000000E+00  0.00000000E+00  0.00000000E+00
  0.00000000E+00  0.00000000E+00  0.00000000E+00  0.00000000E+00  0.00000000E+00
  0.00000000E+00  0.00000000E+00  0.00000000E+00  7.81220616E-02  0.00000000E+00
  0.00000000E+00  2.58811235E-01  0.00000000E+00  0.00000000E+00  2.36843944E-01
  0.00000000E+00  0.00000000E+00  1.07253588E-01  0.00000000E+00  0.00000000E+00
  3.17155428E-02  0.00000000E+00 -1.96337359E-17  0.00000000E+00  0.00000000E+00
  0.00000000E+00  0.00000000E+00 -2.46261445E-17  0.00000000E+00  0.00000000E+00
  0.00000000E+00  0.00000000E+00 -1.09953838E-17  0.00000000E+00  0.00000000E+00
  0.00000000E+00  0.00000000E+00 -2.51580167E-18  0.00000000E+00  0.00000000E+00
  0.00000000E+00 -2.72937516E-01  0.00000000E+00  0.00000000E+00 -2.49379454E-17
  0.00000000E+00  0.00000000E+00  0.00000000E+00  0.00000000E+00  0.00000000E+00
  0.00000000E+00  0.00000000E+00  0.00000000E+00 -9.56795943E-02  0.00000000E+00
  0.00000000E+00 -3.16977732E-01  0.00000000E+00  0.00000000E+00 -2.90073405E-01
  0.00000000E+00  0.00000000E+00 -1.31358282E-01  0.00000000E+00  0.00000000E+00
 -3.88434484E-02  0.00000000E+00  0.00000000E+00  0.00000000E+00  0.00000000E+00
  0.00000000E+00  2.40463174E-17  0.00000000E+00  0.00000000E+00  0.00000000E+00
  0.00000000E+00  3.01607442E-17  0.00000000E+00  0.00000000E+00  0.00000000E+00
  0.00000000E+00  1.34665400E-17  0.00000000E+00  0.00000000E+00  0.00000000E+00
  0.00000000E+00  3.08121520E-18  0.00000000E+00  0.00000000E+00  1.36468758E-01
  0.00000000E+00  0.00000000E+00  0.00000000E+00  5.20975632E-34  3.52962918E-34
  3.57688433E-33  4.97553209E-33  1.50915658E-33  1.89834855E-33  9.56795943E-02
  0.00000000E+00  0.00000000E+00  3.16977732E-01  0.00000000E+00  0.00000000E+00
  2.90073405E-01  0.00000000E+00  0.00000000E+00  1.31358282E-01  0.00000000E+00
  0.00000000E+00  3.88434484E-02  0.00000000E+00  0.00000000E+00 -3.09185184E-33
  0.00000000E+00  0.00000000E+00 -2.40463174E-17  0.00000000E+00 -3.67950311E-33
  0.00000000E+00  0.00000000E+00 -3.01607442E-17  0.00000000E+00  1.69575651E-33
  0.00000000E+00  0.00000000E+00 -1.34665400E-17  0.00000000E+00  9.62125215E-36
  0.00000000E+00  0.00000000E+00 -3.08121520E-18  0.00000000E+00  0.00000000E+00
 -1.36468758E-01  0.00000000E+00  0.00000000E+00  0.00000000E+00 -1.59998658E-16
  0.00000000E+00  0.00000000E+00  0.00000000E+00  0.00000000E+00  0.00000000E+00
  0.00000000E+00  0.00000000E+00  0.00000000E+00  0.00000000E+00  0.00000000E+00
  0.00000000E+00  0.00000000E+00  0.00000000E+00  0.00000000E+00  0.00000000E+00
  0.00000000E+00  0.00000000E+00  0.00000000E+00  0.00000000E+00  0.00000000E+00
  0.00000000E+00  0.00000000E+00  0.00000000E+00  0.00000000E+00  6.18147153E-18
  0.00000000E+00  0.00000000E+00  0.00000000E+00  0.00000000E+00  2.54477406E-17
  0.00000000E+00  0.00000000E+00  0.00000000E+00  0.00000000E+00  3.29202295E-17
  0.00000000E+00  0.00000000E+00  0.00000000E+00  0.00000000E+00  1.42875629E-17
  0.00000000E+00  0.00000000E+00  0.00000000E+00  0.00000000E+00  0.00000000E+00
  0.00000000E+00 -2.18988705E-01  0.00000000E+00  0.00000000E+00  0.00000000E+00
  0.00000000E+00  0.00000000E+00  0.00000000E+00  0.00000000E+00  0.00000000E+00
  0.00000000E+00  0.00000000E+00 -7.80777451E-03  0.00000000E+00  0.00000000E+00
 -8.37921612E-02  0.00000000E+00  0.00000000E+00 -2.35657834E-01  0.00000000E+00
  0.00000000E+00 -2.21178155E-01  0.00000000E+00  0.00000000E+00 -9.30226490E-02
  0.00000000E+00  0.00000000E+00  0.00000000E+00  0.00000000E+00  0.00000000E+00
  2.52357519E-18  0.00000000E+00  0.00000000E+00  0.00000000E+00  0.00000000E+00
  1.03889966E-17  0.00000000E+00  0.00000000E+00  0.00000000E+00  0.00000000E+00
  1.34396274E-17  0.00000000E+00  0.00000000E+00  0.00000000E+00  0.00000000E+00
  5.83287315E-18  0.00000000E+00  0.00000000E+00  1.69627921E-01  0.00000000E+00
  0.00000000E+00  0.00000000E+00 -1.09494352E-01  0.00000000E+00  0.00000000E+00
  4.04536654E-35  1.23893697E-34 -2.54010839E-33  7.74015284E-34 -3.94242343E-33
  4.98791426E-35 -7.80777451E-03  0.00000000E+00  0.00000000E+00 -8.37921612E-02
  0.00000000E+00  0.00000000E+00 -2.35657834E-01  0.00000000E+00  0.00000000E+00
 -2.21178155E-01  0.00000000E+00  0.00000000E+00 -9.30226490E-02  0.00000000E+00
  0.00000000E+00 -8.74192088E-18  0.00000000E+00  0.00000000E+00 -2.52357519E-18
  0.00000000E+00 -3.59885399E-17  0.00000000E+00  0.00000000E+00 -1.03889966E-17
  0.00000000E+00 -4.65562350E-17  0.00000000E+00  0.00000000E+00 -1.34396274E-17
  0.00000000E+00 -2.02056653E-17  0.00000000E+00  0.00000000E+00 -5.83287315E-18
  0.00000000E+00  0.00000000E+00  1.69627921E-01  0.00000000E+00  0.00000000E+00
  0.00000000E+00  1.09494352E-01  0.00000000E+00  0.00000000E+00  6.18556701E-01
  0.00000000E+00  0.00000000E+00  0.00000000E+00  0.00000000E+00  0.00000000E+00
  0.00000000E+00  0.00000000E+00  0.00000000E+00  0.00000000E+00  0.00000000E+00
  0.00000000E+00  0.00000000E+00  0.00000000E+00  0.00000000E+00  0.00000000E+00
  0.00000000E+00  0.00000000E+00  0.00000000E+00  0.00000000E+00  0.00000000E+00
  0.00000000E+00  0.00000000E+00  0.00000000E+00  0.00000000E+00  7.98024543E-18
  0.00000000E+00  0.00000000E+00  0.00000000E+00  0.00000000E+00  3.28528919E-17
  0.00000000E+00  0.00000000E+00  0.00000000E+00  0.00000000E+00  4.24998335E-17
  0.00000000E+00  0.00000000E+00  0.00000000E+00  0.00000000E+00  1.84451645E-17
  0.00000000E+00  0.00000000E+00  0.00000000E+00  0.00000000E+00  0.00000000E+00
  0.00000000E+00 -9.68154179E-18  0.00000000E+00  0.00000000E+00  0.00000000E+00
  0.00000000E+00  0.00000000E+00  0.00000000E+00  0.00000000E+00  0.00000000E+00
  0.00000000E+00  0.00000000E+00  0.00000000E+00  0.00000000E+00  0.00000000E+00
  0.00000000E+00  2.46903509E-02  0.00000000E+00  0.00000000E+00  2.64974079E-01
  0.00000000E+00  0.00000000E+00  7.45215503E-01  0.00000000E+00  0.00000000E+00
  6.99426739E-01  0.00000000E+00  0.00000000E+00  2.94163445E-01  0.00000000E+00
 -7.98024543E-18  0.00000000E+00  0.00000000E+00  0.00000000E+00  0.00000000E+00
 -3.28528919E-17  0.00000000E+00  0.00000000E+00  0.00000000E+00  0.00000000E+00
 -4.24998335E-17  0.00000000E+00  0.00000000E+00  0.00000000E+00  0.00000000E+00
 -1.84451645E-17  0.00000000E+00  0.00000000E+00  0.00000000E+00 -2.18988705E-01
  0.00000000E+00  0.00000000E+00 -9.68154179E-18  0.00000000E+00  0.00000000E+00
  0.00000000E+00 -7.98553267E-01  0.00000000E+00  0.00000000E+00  3.24462609E-18
  0.00000000E+00  0.00000000E+00  0.00000000E+00  0.00000000E+00  0.00000000E+00
  0.00000000E+00  0.00000000E+00  0.00000000E+00 -3.02393807E-02  0.00000000E+00
  0.00000000E+00 -3.24525645E-01  0.00000000E+00  0.00000000E+00 -9.12698866E-01
  0.00000000E+00  0.00000000E+00 -8.56619311E-01  0.00000000E+00  0.00000000E+00
 -3.60275170E-01  0.00000000E+00  0.00000000E+00  0.00000000E+00  0.00000000E+00
  0.00000000E+00  9.77376467E-18  0.00000000E+00  0.00000000E+00  0.00000000E+00
  0.00000000E+00  4.02364109E-17  0.00000000E+00  0.00000000E+00  0.00000000E+00
  0.00000000E+00  5.20514531E-17  0.00000000E+00  0.00000000E+00  0.00000000E+00
  0.00000000E+00  2.25906206E-17  0.00000000E+00  0.00000000E+00  1.09494352E-01
  0.00000000E+00  0.00000000E+00  0.00000000E+00 -1.21670011E-17  0.00000000E+00
  0.00000000E+00  3.99276634E-01  0.00000000E+00  0.00000000E+00  0.00000000E+00
  2.53184747E-35  4.11726166E-35  3.58148526E-33  8.36648501E-33 -2.06966529E-35
  4.79094892E-34  3.02393807E-02  0.00000000E+00  0.00000000E+00  3.24525645E-01
  0.00000000E+00  0.00000000E+00  9.12698866E-01  0.00000000E+00  0.00000000E+00
  8.56619311E-01  0.00000000E+00  0.00000000E+00  3.60275170E-01  0.00000000E+00
  0.00000000E+00 -2.28733029E-33  0.00000000E+00  0.00000000E+00 -9.77376467E-18
  0.00000000E+00 -7.43952765E-33  0.00000000E+00  0.00000000E+00 -4.02364109E-17
  0.00000000E+00 -1.69084122E-34  0.00000000E+00  0.00000000E+00 -5.20514531E-17
  0.00000000E+00 -1.81314051E-33  0.00000000E+00  0.00000000E+00 -2.25906206E-17
  0.00000000E+00  0.00000000E+00 -1.09494352E-01  0.00000000E+00  0.00000000E+00
  0.00000000E+00 -1.26076582E-17  0.00000000E+00  0.00000000E+00 -3.99276634E-01
  0.00000000E+00  0.00000000E+00  0.00000000E+00 -2.60713851E-18  0.00000000E+00
  0.00000000E+00  0.00000000E+00  0.00000000E+00  0.00000000E+00  0.00000000E+00
  0.00000000E+00  0.00000000E+00  0.00000000E+00  0.00000000E+00  0.00000000E+00
  0.00000000E+00  0.00000000E+00  0.00000000E+00  0.00000000E+00  0.00000000E+00
  0.00000000E+00  0.00000000E+00  0.00000000E+00  0.00000000E+00  0.00000000E+00
  0.00000000E+00  0.00000000E+00  0.00000000E+00  1.33934679E-18  0.00000000E+00
  0.00000000E+00  0.00000000E+00  0.00000000E+00  1.17545073E-17  0.00000000E+00
  0.00000000E+00  0.00000000E+00  0.00000000E+00  4.40427072E-17  0.00000000E+00
  0.00000000E+00  0.00000000E+00  0.00000000E+00  5.03327291E-17  0.00000000E+00
  0.00000000E+00  0.00000000E+00  0.00000000E+00  0.00000000E+00  0.00000000E+00
 -6.54205416E-02  0.00000000E+00  0.00000000E+00  0.00000000E+00  0.00000000E+00
  0.00000000E+00  0.00000000E+00 -7.04274770E-01  0.00000000E+00  0.00000000E+00
  0.00000000E+00  0.00000000E+00  0.00000000E+00  0.00000000E+00  0.00000000E+00
  0.00000000E+00  0.00000000E+00  0.00000000E+00 -1.49886092E-03  0.00000000E+00
  0.00000000E+00 -3.17376298E-02  0.00000000E+00  0.00000000E+00 -2.46098870E-01
  0.00000000E+00  0.00000000E+00 -6.35003419E-01  0.00000000E+00  0.00000000E+00
 -5.18915929E-01  0.00000000E+00  0.00000000E+00  0.00000000E+00  0.00000000E+00
  0.00000000E+00  5.46786036E-19  0.00000000E+00  0.00000000E+00  0.00000000E+00
  0.00000000E+00  4.79875751E-18  0.00000000E+00  0.00000000E+00  0.00000000E+00
  0.00000000E+00  1.79803599E-17  0.00000000E+00  0.00000000E+00  0.00000000E+00
  0.00000000E+00  2.05482506E-17  0.00000000E+00  0.00000000E+00  5.06745336E-02
  0.00000000E+00  0.00000000E+00  0.00000000E+00 -3.27102708E-02  0.00000000E+00
  0.00000000E+00  5.45528891E-01  0.00000000E+00  0.00000000E+00  0.00000000E+00
 -3.52137385E-01  0.00000000E+00  0.00000000E+00 -3.99951130E-36 -6.99929404E-36
  3.16477281E-34 -4.45841856E-33 -6.70609499E-33  6.73446860E-33 -1.49886092E-03
  0.00000000E+00  0.00000000E+00 -3.17376298E-02  0.00000000E+00  0.00000000E+00
 -2.46098870E-01  0.00000000E+00  0.00000000E+00 -6.35003419E-01  0.00000000E+00
  0.00000000E+00 -5.18915929E-01  0.00000000E+00  0.00000000E+00 -1.89412239E-18
  0.00000000E+00  0.00000000E+00 -5.46786036E-19  0.00000000E+00 -1.66233836E-17
  0.00000000E+00  0.00000000E+00 -4.79875751E-18  0.00000000E+00 -6.22857938E-17
  0.00000000E+00  0.00000000E+00 -1.79803599E-17  0.00000000E+00 -7.11812281E-17
  0.00000000E+00  0.00000000E+00 -2.05482506E-17  0.00000000E+00  0.00000000E+00
  5.06745336E-02  0.00000000E+00  0.00000000E+00  0.00000000E+00  3.27102708E-02
  0.00000000E+00  0.00000000E+00  5.45528891E-01  0.00000000E+00  0.00000000E+00
  0.00000000E+00  3.52137385E-01  0.00000000E+00  0.00000000E+00  1.60427807E+00
  0.00000000E+00  0.00000000E+00  0.00000000E+00  0.00000000E+00  0.00000000E+00
  0.00000000E+00  0.00000000E+00  0.00000000E+00  0.00000000E+00  0.00000000E+00
  0.00000000E+00  0.00000000E+00  0.00000000E+00  0.00000000E+00  0.00000000E+00
  0.00000000E+00  0.00000000E+00  0.00000000E+00  0.00000000E+00  0.00000000E+00
  0.00000000E+00  0.00000000E+00  0.00000000E+00  0.00000000E+00  1.72908927E-18
  0.00000000E+00  0.00000000E+00  0.00000000E+00  0.00000000E+00  1.51750037E-17
  0.00000000E+00  0.00000000E+00  0.00000000E+00  0.00000000E+00  5.68588905E-17
  0.00000000E+00  0.00000000E+00  0.00000000E+00  0.00000000E+00  6.49792739E-17
  0.00000000E+00  0.00000000E+00  0.00000000E+00  0.00000000E+00  0.00000000E+00
  0.00000000E+00  5.11201975E-18  0.00000000E+00  0.00000000E+00  0.00000000E+00
  0.00000000E+00  0.00000000E+00  0.00000000E+00  3.41390869E-17  0.00000000E+00
  0.00000000E+00  0.00000000E+00  0.00000000E+00  0.00000000E+00  0.00000000E+00
  0.00000000E+00  0.00000000E+00  0.00000000E+00  0.00000000E+00  0.00000000E+00
  0.00000000E+00  0.00000000E+00  0.00000000E+00  4.73981439E-03  0.00000000E+00
  0.00000000E+00  1.00363198E-01  0.00000000E+00  0.00000000E+00  7.78232960E-01
  0.00000000E+00  0.00000000E+00  2.00805713E+00  0.00000000E+00  0.00000000E+00
  1.64095625E+00  0.00000000E+00 -1.72908927E-18  0.00000000E+00  0.00000000E+00
  0.00000000E+00  0.00000000E+00 -1.51750037E-17  0.00000000E+00  0.00000000E+00
  0.00000000E+00  0.00000000E+00 -5.68588905E-17  0.00000000E+00  0.00000000E+00
  0.00000000E+00  0.00000000E+00 -6.49792739E-17  0.00000000E+00  0.00000000E+00
  0.00000000E+00 -6.54205416E-02  0.00000000E+00  0.00000000E+00  5.11201975E-18
  0.00000000E+00  0.00000000E+00  0.00000000E+00 -7.04274770E-01  0.00000000E+00
  0.00000000E+00  3.41390869E-17  0.00000000E+00  0.00000000E+00  0.00000000E+00
 -2.07111409E+00  0.00000000E+00  0.00000000E+00 -1.33051928E-16  0.00000000E+00
  0.00000000E+00  0.00000000E+00  0.00000000E+00  0.00000000E+00  0.00000000E+00
  0.00000000E+00  0.00000000E+00 -5.80506337E-03  0.00000000E+00  0.00000000E+00
 -1.22919312E-01  0.00000000E+00  0.00000000E+00 -9.53136826E-01  0.00000000E+00
  0.00000000E+00 -2.45935767E+00  0.00000000E+00  0.00000000E+00 -2.00975275E+00
  0.00000000E+00  0.00000000E+00  0.00000000E+00  0.00000000E+00  0.00000000E+00
  2.11769321E-18  0.00000000E+00  0.00000000E+00  0.00000000E+00  0.00000000E+00
  1.85855079E-17  0.00000000E+00  0.00000000E+00  0.00000000E+00  0.00000000E+00
  6.96376345E-17  0.00000000E+00  0.00000000E+00  0.00000000E+00  0.00000000E+00
  7.95830324E-17  0.00000000E+00  0.00000000E+00  3.27102708E-02  0.00000000E+00
  0.00000000E+00  0.00000000E+00 -4.26486477E-17  0.00000000E+00  0.00000000E+00
  3.52137385E-01  0.00000000E+00  0.00000000E+00  0.00000000E+00  1.01324718E-16
  0.00000000E+00  0.00000000E+00  1.03555704E+00  0.00000000E+00  0.00000000E+00
  0.00000000E+00  1.23109773E-35 -1.92482203E-35 -1.14130422E-34  3.81122100E-33
  7.87109118E-33  2.01251213E-32  5.80506337E-03  0.00000000E+00  0.00000000E+00
  1.22919312E-01  0.00000000E+00  0.00000000E+00  9.53136826E-01  0.00000000E+00
  0.00000000E+00  2.45935767E+00  0.00000000E+00  0.00000000E+00  2.00975275E+00
  0.00000000E+00  0.00000000E+00 -4.06564495E-34  0.00000000E+00  0.00000000E+00
 -2.11769321E-18  0.00000000E+00 -2.33800697E-33  0.00000000E+00  0.00000000E+00
 -1.85855079E-17  0.00000000E+00 -1.33107681E-32  0.00000000E+00  0.00000000E+00
 -6.96376345E-17  0.00000000E+00 -1.70057406E-32  0.00000000E+00  0.00000000E+00
 -7.95830324E-17  0.00000000E+00  0.00000000E+00 -3.27102708E-02  0.00000000E+00
  0.00000000E+00  0.00000000E+00 -5.12706301E-17  0.00000000E+00  0.00000000E+00
 -3.52137385E-01  0.00000000E+00  0.00000000E+00  0.00000000E+00 -3.89640187E-17
  0.00000000E+00  0.00000000E+00 -1.03555704E+00  0.00000000E+00  0.00000000E+00
  0.00000000E+00 -4.08959796E-16  0.00000000E+00  0.00000000E+00  0.00000000E+00
  0.00000000E+00  0.00000000E+00  0.00000000E+00  0.00000000E+00  0.00000000E+00
 -7.70371978E-34  0.00000000E+00  0.00000000E+00  3.08148791E-33  0.00000000E+00
  0.00000000E+00  1.54074396E-33  0.00000000E+00  0.00000000E+00  0.00000000E+00
  0.00000000E+00  0.00000000E+00  3.85185989E-34  0.00000000E+00  0.00000000E+00
  0.00000000E+00  0.00000000E+00  0.00000000E+00  3.09562151E-02  0.00000000E+00
  0.00000000E+00  0.00000000E+00  0.00000000E+00  9.86349896E-02  0.00000000E+00
  0.00000000E+00  0.00000000E+00  0.00000000E+00  7.90116380E-02  0.00000000E+00
  0.00000000E+00  0.00000000E+00  0.00000000E+00  2.39892694E-02  0.00000000E+00
  0.00000000E+00  1.99403778E-17  0.00000000E+00  0.00000000E+00  0.00000000E+00
 -2.09229856E-33  0.00000000E+00  0.00000000E+00  2.56686274E-17  0.00000000E+00
  0.00000000E+00  0.00000000E+00  1.02526523E-33  0.00000000E+00  0.00000000E+00
  1.02032520E-17  0.00000000E+00  0.00000000E+00  0.00000000E+00 -8.33005102E-34
  0.00000000E+00  0.00000000E+00  0.00000000E+00  0.00000000E+00  0.00000000E+00
  0.00000000E+00  0.00000000E+00  0.00000000E+00  0.00000000E+00  0.00000000E+00
  0.00000000E+00  0.00000000E+00  0.00000000E+00  0.00000000E+00  0.00000000E+00
  0.00000000E+00  0.00000000E+00  0.00000000E+00  0.00000000E+00  0.00000000E+00
  0.00000000E+00  0.00000000E+00  0.00000000E+00  0.00000000E+00 -4.89460737E-02
  0.00000000E+00  0.00000000E+00  0.00000000E+00  0.00000000E+00 -1.55955612E-01
  0.00000000E+00  0.00000000E+00  0.00000000E+00  0.00000000E+00 -1.24928369E-01
  0.00000000E+00  0.00000000E+00  0.00000000E+00  0.00000000E+00 -3.79303653E-02
  0.00000000E+00  0.00000000E+00  0.00000000E+00  0.00000000E+00  0.00000000E+00
  0.00000000E+00  9.97018891E-18  0.00000000E+00  0.00000000E+00  0.00000000E+00
  0.00000000E+00  0.00000000E+00  0.00000000E+00  1.28343137E-17  0.00000000E+00
  0.00000000E+00  0.00000000E+00  0.00000000E+00  0.00000000E+00  0.00000000E+00
  5.10162600E-18  0.00000000E+00  0.00000000E+00  0.00000000E+00  0.00000000E+00
  0.00000000E+00  0.00000000E+00  0.00000000E+00  0.00000000E+00  0.00000000E+00
  0.00000000E+00  0.00000000E+00  0.00000000E+00  5.51945192E-34  0.00000000E+00
  0.00000000E+00  5.87221552E-33  0.00000000E+00  0.00000000E+00  6.03589148E-33
  0.00000000E+00  0.00000000E+00 -2.59452519E-33  0.00000000E+00  0.00000000E+00
  2.52811883E-33  0.00000000E+00 -4.89460737E-02  0.00000000E+00  0.00000000E+00
  0.00000000E+00  0.00000000E+00 -1.55955612E-01  0.00000000E+00  0.00000000E+00
  0.00000000E+00  0.00000000E+00 -1.24928369E-01  0.00000000E+00  0.00000000E+00
  0.00000000E+00  0.00000000E+00 -3.79303653E-02  0.00000000E+00  0.00000000E+00
  0.00000000E+00 -2.57429171E-17  0.00000000E+00  0.00000000E+00 -9.97018891E-18
  0.00000000E+00  0.00000000E+00  0.00000000E+00 -3.31380554E-17  0.00000000E+00
  0.00000000E+00 -1.28343137E-17  0.00000000E+00  0.00000000E+00  0.00000000E+00
 -1.31723417E-17  0.00000000E+00  0.00000000E+00 -5.10162600E-18  0.00000000E+00
  0.00000000E+00  0.00000000E+00  0.00000000E+00  3.53257030E-01  0.00000000E+00
  0.00000000E+00  0.00000000E+00  0.00000000E+00  0.00000000E+00  0.00000000E+00
  0.00000000E+00  0.00000000E+00 -7.19282371E-34  0.00000000E+00  0.00000000E+00
  2.50457332E-33  0.00000000E+00  0.00000000E+00 -1.35116031E-33  0.00000000E+00
  0.00000000E+00  4.34101779E-34  0.00000000E+00  0.00000000E+00 -1.26155340E-33
  0.00000000E+00  0.00000000E+00  0.00000000E+00  0.00000000E+00  0.00000000E+00
 -1.41000596E-18  0.00000000E+00  0.00000000E+00  0.00000000E+00  0.00000000E+00
  1.40389047E-17  0.00000000E+00  0.00000000E+00  0.00000000E+00  0.00000000E+00
 -2.02555676E-17  0.00000000E+00  0.00000000E+00  0.00000000E+00  0.00000000E+00
 -9.45447835E-19  0.00000000E+00  0.00000000E+00  2.22940201E-17  0.00000000E+00
  0.00000000E+00  0.00000000E+00  5.75629125E-18  0.00000000E+00  0.00000000E+00
  2.86983978E-17  0.00000000E+00  0.00000000E+00  0.00000000E+00  7.40989446E-18
  0.00000000E+00  0.00000000E+00  1.14075825E-17  0.00000000E+00  0.00000000E+00
  0.00000000E+00  2.94542515E-18  0.00000000E+00  0.00000000E+00  0.00000000E+00
  0.00000000E+00 -2.32638979E-18  6.28214076E-19 -1.09949609E-18  3.99942504E-17
 -9.17538146E-17  4.09975996E-19  1.15333938E-33  0.00000000E+00  0.00000000E+00
  2.68810649E-34  0.00000000E+00  0.00000000E+00  7.19919585E-34  0.00000000E+00
  0.00000000E+00  2.97425304E-33  0.00000000E+00  0.00000000E+00  7.41817261E-36
  0.00000000E+00  0.00000000E+00  1.19892905E-01  0.00000000E+00  0.00000000E+00
  8.75055929E-19  0.00000000E+00  3.82011672E-01  0.00000000E+00  0.00000000E+00
  1.16199805E-17  0.00000000E+00  3.06010758E-01  0.00000000E+00  0.00000000E+00
 -1.32892265E-17  0.00000000E+00  9.29100407E-02  0.00000000E+00  0.00000000E+00
  1.25592467E-17  0.00000000E+00  0.00000000E+00 -2.22940201E-17  0.00000000E+00
  0.00000000E+00  0.00000000E+00 -5.75629125E-18  0.00000000E+00  0.00000000E+00
 -2.86983978E-17  0.00000000E+00  0.00000000E+00  0.00000000E+00 -7.40989446E-18
  0.00000000E+00  0.00000000E+00 -1.14075825E-17  0.00000000E+00  0.00000000E+00
  0.00000000E+00 -2.94542515E-18  0.00000000E+00 -4.73944039E-01  0.00000000E+00
  0.00000000E+00 -1.18952192E-17  0.00000000E+00  0.00000000E+00  0.00000000E+00
  0.00000000E+00  0.00000000E+00  0.00000000E+00  0.00000000E+00  0.00000000E+00
  0.00000000E+00  0.00000000E+00  0.00000000E+00  0.00000000E+00  0.00000000E+00
  0.00000000E+00  0.00000000E+00  0.00000000E+00  0.00000000E+00  0.00000000E+00
  0.00000000E+00  0.00000000E+00  0.00000000E+00  0.00000000E+00  0.00000000E+00
  0.00000000E+00 -1.29499139E-01  0.00000000E+00  0.00000000E+00  0.00000000E+00
  0.00000000E+00 -4.12619765E-01  0.00000000E+00  0.00000000E+00  0.00000000E+00
  0.00000000E+00 -3.30529396E-01  0.00000000E+00  0.00000000E+00  0.00000000E+00
  0.00000000E+00 -1.00354314E-01  0.00000000E+00  0.00000000E+00  0.00000000E+00
  0.00000000E+00  0.00000000E+00  0.00000000E+00  2.63786404E-17  0.00000000E+00
  0.00000000E+00  0.00000000E+00  0.00000000E+00  0.00000000E+00  0.00000000E+00
  3.39564022E-17  0.00000000E+00  0.00000000E+00  0.00000000E+00  0.00000000E+00
  0.00000000E+00  0.00000000E+00  1.34976337E-17  0.00000000E+00  0.00000000E+00
  0.00000000E+00  0.00000000E+00  2.80389075E-01  0.00000000E+00  0.00000000E+00
  0.00000000E+00  0.00000000E+00  0.00000000E+00  0.00000000E+00  0.00000000E+00
  0.00000000E+00  0.00000000E+00  0.00000000E+00  0.00000000E+00 -1.71672239E-34
  0.00000000E+00  0.00000000E+00  9.65687750E-34  0.00000000E+00  0.00000000E+00
 -2.06693823E-34  0.00000000E+00  0.00000000E+00  8.79002552E-35  0.00000000E+00
  0.00000000E+00 -3.95711981E-35  0.00000000E+00  1.29499139E-01  0.00000000E+00
  0.00000000E+00  0.00000000E+00  0.00000000E+00  4.12619765E-01  0.00000000E+00
  0.00000000E+00  0.00000000E+00  0.00000000E+00  3.30529396E-01  0.00000000E+00
  0.00000000E+00  0.00000000E+00  0.00000000E+00  1.00354314E-01  0.00000000E+00
  0.00000000E+00  0.00000000E+00  2.65408848E-33  0.00000000E+00  0.00000000E+00
 -2.63786404E-17  0.00000000E+00  0.00000000E+00  0.00000000E+00  4.30470421E-33
  0.00000000E+00  0.00000000E+00 -3.39564022E-17  0.00000000E+00  0.00000000E+00
  0.00000000E+00 -3.25357199E-33  0.00000000E+00  0.00000000E+00 -1.34976337E-17
  0.00000000E+00  0.00000000E+00  0.00000000E+00  0.00000000E+00 -2.80389075E-01
  0.00000000E+00  0.00000000E+00  0.00000000E+00  1.19588897E-16  0.00000000E+00
  0.00000000E+00  0.00000000E+00  0.00000000E+00  0.00000000E+00  0.00000000E+00
  0.00000000E+00  0.00000000E+00  1.46225833E-33  0.00000000E+00  0.00000000E+00
 -1.56713025E-34  0.00000000E+00  0.00000000E+00  2.60240351E-34  0.00000000E+00
  0.00000000E+00  1.08698150E-33  0.00000000E+00  0.00000000E+00 -6.06093145E-34
  0.00000000E+00  0.00000000E+00  0.00000000E+00  0.00000000E+00  0.00000000E+00
 -1.83139438E-01  0.00000000E+00  0.00000000E+00  0.00000000E+00  0.00000000E+00
 -5.83532468E-01  0.00000000E+00  0.00000000E+00  0.00000000E+00  0.00000000E+00
 -4.67439154E-01  0.00000000E+00  0.00000000E+00  0.00000000E+00  0.00000000E+00
 -1.41922431E-01  0.00000000E+00  0.00000000E+00 -7.09831095E-34  0.00000000E+00
  0.00000000E+00  0.00000000E+00  3.04594302E-17  0.00000000E+00  0.00000000E+00
 -1.81689720E-33  0.00000000E+00  0.00000000E+00  0.00000000E+00  3.92094759E-17
  0.00000000E+00  0.00000000E+00 -1.93808498E-33  0.00000000E+00  0.00000000E+00
  0.00000000E+00  1.55857249E-17  0.00000000E+00  0.00000000E+00  0.00000000E+00
  0.00000000E+00  1.86926050E-01  0.00000000E+00  0.00000000E+00  0.00000000E+00
  2.78270118E-19  4.92834336E-19 -9.72903527E-18  4.05952247E-17 -1.77650322E-17
 -1.32067484E-17  2.90298909E-34  0.00000000E+00  0.00000000E+00  1.75291747E-33
  0.00000000E+00  0.00000000E+00  1.60097113E-33  0.00000000E+00  0.00000000E+00
 -8.97997274E-35  0.00000000E+00  0.00000000E+00 -3.24141784E-34  0.00000000E+00
  0.00000000E+00 -1.93975712E-18  0.00000000E+00  0.00000000E+00  1.83139438E-01
  0.00000000E+00 -2.08708280E-17  0.00000000E+00  0.00000000E+00  5.83532468E-01
  0.00000000E+00 -2.36208908E-20  0.00000000E+00  0.00000000E+00  4.67439154E-01
  0.00000000E+00 -5.69208877E-18  0.00000000E+00  0.00000000E+00  1.41922431E-01
  0.00000000E+00  0.00000000E+00 -3.53695727E-35  0.00000000E+00  0.00000000E+00
  0.00000000E+00 -3.04594302E-17  0.00000000E+00  0.00000000E+00 -4.25047223E-33
  0.00000000E+00  0.00000000E+00  0.00000000E+00 -3.92094759E-17  0.00000000E+00
  0.00000000E+00 -3.12826174E-34  0.00000000E+00  0.00000000E+00  0.00000000E+00
 -1.55857249E-17  0.00000000E+00 -6.87654365E-17  0.00000000E+00  0.00000000E+00
 -1.86926050E-01  0.00000000E+00  0.00000000E+00  0.00000000E+00 -1.16080666E-16
  0.00000000E+00  0.00000000E+00  0.00000000E+00  0.00000000E+00  0.00000000E+00
  0.00000000E+00  0.00000000E+00  0.00000000E+00  1.92592994E-34  0.00000000E+00
  0.00000000E+00 -7.70371978E-34  0.00000000E+00  0.00000000E+00  1.54074396E-32
  0.00000000E+00  0.00000000E+00  9.24446373E-33  0.00000000E+00  0.00000000E+00
  1.54074396E-33  0.00000000E+00  0.00000000E+00  0.00000000E+00  0.00000000E+00
  0.00000000E+00  1.00431590E-02  0.00000000E+00  0.00000000E+00  0.00000000E+00
  0.00000000E+00  9.96592109E-02  0.00000000E+00  0.00000000E+00  0.00000000E+00
  0.00000000E+00  2.47406953E-01  0.00000000E+00  0.00000000E+00  0.00000000E+00
  0.00000000E+00  1.56887518E-01  0.00000000E+00  0.00000000E+00  8.36313238E-18
  0.00000000E+00  0.00000000E+00  0.00000000E+00  2.72383256E-33  0.00000000E+00
  0.00000000E+00  3.64431140E-17  0.00000000E+00  0.00000000E+00  0.00000000E+00
 -1.12075061E-33  0.00000000E+00  0.00000000E+00  3.79502712E-17  0.00000000E+00
  0.00000000E+00  0.00000000E+00  5.01142087E-33  0.00000000E+00  0.00000000E+00
  0.00000000E+00  0.00000000E+00 -4.03606005E-01  0.00000000E+00  0.00000000E+00
  0.00000000E+00  4.06842754E-17  0.00000000E+00  0.00000000E+00  0.00000000E+00
  0.00000000E+00  0.00000000E+00  0.00000000E+00  0.00000000E+00  0.00000000E+00
  0.00000000E+00  0.00000000E+00  0.00000000E+00  0.00000000E+00  0.00000000E+00
  0.00000000E+00  0.00000000E+00  0.00000000E+00  0.00000000E+00  0.00000000E+00
  0.00000000E+00  0.00000000E+00  0.00000000E+00  0.00000000E+00  0.00000000E+00
  0.00000000E+00 -1.58796287E-02  0.00000000E+00  0.00000000E+00  0.00000000E+00
  0.00000000E+00 -1.57575048E-01  0.00000000E+00  0.00000000E+00  0.00000000E+00
  0.00000000E+00 -3.91184741E-01  0.00000000E+00  0.00000000E+00  0.00000000E+00
  0.00000000E+00 -2.48060947E-01  0.00000000E+00  0.00000000E+00  0.00000000E+00
  0.00000000E+00  0.00000000E+00  0.00000000E+00  4.18156619E-18  0.00000000E+00
  0.00000000E+00  0.00000000E+00  0.00000000E+00  0.00000000E+00  0.00000000E+00
  1.82215570E-17  0.00000000E+00  0.00000000E+00  0.00000000E+00  0.00000000E+00
  0.00000000E+00  0.00000000E+00  1.89751356E-17  0.00000000E+00  0.00000000E+00
  0.00000000E+00  0.00000000E+00  3.00830155E-01  0.00000000E+00  0.00000000E+00
  0.00000000E+00 -2.38776533E-01  0.00000000E+00  0.00000000E+00  0.00000000E+00
  0.00000000E+00  0.00000000E+00  0.00000000E+00  0.00000000E+00  0.00000000E+00
  0.00000000E+00  0.00000000E+00  0.00000000E+00  0.00000000E+00  8.41227760E-35
  0.00000000E+00  0.00000000E+00  3.34575761E-33  0.00000000E+00  0.00000000E+00
  7.02113290E-33  0.00000000E+00  0.00000000E+00  5.63374561E-33  0.00000000E+00
  0.00000000E+00  2.53705337E-33  0.00000000E+00 -1.58796287E-02  0.00000000E+00
  0.00000000E+00  0.00000000E+00  0.00000000E+00 -1.57575048E-01  0.00000000E+00
  0.00000000E+00  0.00000000E+00  0.00000000E+00 -3.91184741E-01  0.00000000E+00
  0.00000000E+00  0.00000000E+00  0.00000000E+00 -2.48060947E-01  0.00000000E+00
  0.00000000E+00  0.00000000E+00 -1.07967575E-17  0.00000000E+00  0.00000000E+00
 -4.18156619E-18  0.00000000E+00  0.00000000E+00  0.00000000E+00 -4.70478579E-17
  0.00000000E+00  0.00000000E+00 -1.82215570E-17  0.00000000E+00  0.00000000E+00
  0.00000000E+00 -4.89935895E-17  0.00000000E+00  0.00000000E+00 -1.89751356E-17
  0.00000000E+00  0.00000000E+00  0.00000000E+00  0.00000000E+00  3.00830155E-01
  0.00000000E+00  0.00000000E+00  0.00000000E+00  2.38776533E-01  0.00000000E+00
  0.00000000E+00  0.00000000E+00  0.00000000E+00  8.42318059E-01  0.00000000E+00
  0.00000000E+00  0.00000000E+00  0.00000000E+00  0.00000000E+00  0.00000000E+00
  0.00000000E+00  0.00000000E+00  3.14977407E-35  0.00000000E+00  0.00000000E+00
 -1.64482468E-33  0.00000000E+00  0.00000000E+00  3.96457147E-33  0.00000000E+00
  0.00000000E+00  1.13731745E-32  0.00000000E+00  0.00000000E+00 -1.88597789E-33
  0.00000000E+00  0.00000000E+00  0.00000000E+00  0.00000000E+00  0.00000000E+00
 -1.72066867E-18  0.00000000E+00  0.00000000E+00  0.00000000E+00  0.00000000E+00
 -3.39384678E-18  0.00000000E+00  0.00000000E+00  0.00000000E+00  0.00000000E+00
 -5.39318499E-18  0.00000000E+00  0.00000000E+00  0.00000000E+00  0.00000000E+00
  2.69464881E-17  0.00000000E+00  0.00000000E+00  9.35026626E-18  0.00000000E+00
  0.00000000E+00  0.00000000E+00  2.41422837E-18  0.00000000E+00  0.00000000E+00
  4.07446401E-17  0.00000000E+00  0.00000000E+00  0.00000000E+00  1.05202208E-17
  0.00000000E+00  0.00000000E+00  4.24296931E-17  0.00000000E+00  0.00000000E+00
  0.00000000E+00  1.09552996E-17  0.00000000E+00  0.00000000E+00  0.00000000E+00
  0.00000000E+00  3.06661976E-17  0.00000000E+00  0.00000000E+00  0.00000000E+00
 -1.59184355E-01  0.00000000E+00  0.00000000E+00  0.00000000E+00  0.00000000E+00
  4.10395404E-21  3.09733567E-19  1.17875462E-17 -6.92368748E-17 -2.26904827E-16
 -1.03253600E-16  1.15979696E-37  0.00000000E+00  0.00000000E+00 -1.44704619E-34
  0.00000000E+00  0.00000000E+00 -2.59625813E-33  0.00000000E+00  0.00000000E+00
  1.08029835E-32  0.00000000E+00  0.00000000E+00 -3.07715195E-34  0.00000000E+00
  0.00000000E+00  3.88969876E-02  0.00000000E+00  0.00000000E+00  8.20138239E-19
  0.00000000E+00  3.85978464E-01  0.00000000E+00  0.00000000E+00  2.61525712E-17
  0.00000000E+00  9.58203010E-01  0.00000000E+00  0.00000000E+00 -4.97895435E-17
  0.00000000E+00  6.07622746E-01  0.00000000E+00  0.00000000E+00  7.58839907E-17
  0.00000000E+00  0.00000000E+00 -9.35026626E-18  0.00000000E+00  0.00000000E+00
  0.00000000E+00 -2.41422837E-18  0.00000000E+00  0.00000000E+00 -4.07446401E-17
  0.00000000E+00  0.00000000E+00  0.00000000E+00 -1.05202208E-17  0.00000000E+00
  0.00000000E+00 -4.24296931E-17  0.00000000E+00  0.00000000E+00  0.00000000E+00
 -1.09552996E-17  0.00000000E+00 -4.03606005E-01  0.00000000E+00  0.00000000E+00
  1.97164521E-17  0.00000000E+00  0.00000000E+00  0.00000000E+00  1.59184355E-01
  0.00000000E+00 -1.13008826E+00  0.00000000E+00  0.00000000E+00  3.17407020E-17
  0.00000000E+00  0.00000000E+00  0.00000000E+00  0.00000000E+00  0.00000000E+00
  0.00000000E+00  0.00000000E+00  0.00000000E+00  0.00000000E+00  0.00000000E+00
  0.00000000E+00  0.00000000E+00  0.00000000E+00  0.00000000E+00  0.00000000E+00
  0.00000000E+00  0.00000000E+00  0.00000000E+00  0.00000000E+00  0.00000000E+00
  0.00000000E+00  0.00000000E+00  0.00000000E+00  0.00000000E+00 -4.20135484E-02
  0.00000000E+00  0.00000000E+00  0.00000000E+00  0.00000000E+00 -4.16904390E-01
  0.00000000E+00  0.00000000E+00  0.00000000E+00  0.00000000E+00 -1.03497754E+00
  0.00000000E+00  0.00000000E+00  0.00000000E+00  0.00000000E+00 -6.56307577E-01
  0.00000000E+00  0.00000000E+00  0.00000000E+00  0.00000000E+00  0.00000000E+00
  0.00000000E+00  1.10633842E-17  0.00000000E+00  0.00000000E+00  0.00000000E+00
  0.00000000E+00  0.00000000E+00  0.00000000E+00  4.82097083E-17  0.00000000E+00
  0.00000000E+00  0.00000000E+00  0.00000000E+00  0.00000000E+00  0.00000000E+00
  5.02034899E-17  0.00000000E+00  0.00000000E+00  0.00000000E+00  0.00000000E+00
  2.38776533E-01  0.00000000E+00  0.00000000E+00  0.00000000E+00 -1.71446097E-16
  0.00000000E+00  0.00000000E+00  0.00000000E+00  0.00000000E+00  6.68569233E-01
  0.00000000E+00  0.00000000E+00  0.00000000E+00  0.00000000E+00  0.00000000E+00
  0.00000000E+00  0.00000000E+00  0.00000000E+00  0.00000000E+00  0.00000000E+00
  0.00000000E+00 -4.48309306E-35  0.00000000E+00  0.00000000E+00  2.85984533E-34
  0.00000000E+00  0.00000000E+00 -3.07540631E-33  0.00000000E+00  0.00000000E+00
  8.43321652E-33  0.00000000E+00  0.00000000E+00  1.88906110E-33  0.00000000E+00
  4.20135484E-02  0.00000000E+00  0.00000000E+00  0.00000000E+00  0.00000000E+00
  4.16904390E-01  0.00000000E+00  0.00000000E+00  0.00000000E+00  0.00000000E+00
  1.03497754E+00  0.00000000E+00  0.00000000E+00  0.00000000E+00  0.00000000E+00
  6.56307577E-01  0.00000000E+00  0.00000000E+00  0.00000000E+00  3.83516850E-33
  0.00000000E+00  0.00000000E+00 -1.10633842E-17  0.00000000E+00  0.00000000E+00
  0.00000000E+00 -1.70691039E-33  0.00000000E+00  0.00000000E+00 -4.82097083E-17
  0.00000000E+00  0.00000000E+00  0.00000000E+00 -3.55842418E-33  0.00000000E+00
  0.00000000E+00 -5.02034899E-17  0.00000000E+00  0.00000000E+00  0.00000000E+00
  0.00000000E+00 -2.38776533E-01  0.00000000E+00  0.00000000E+00  0.00000000E+00
 -1.90635742E-16  0.00000000E+00  0.00000000E+00  0.00000000E+00  0.00000000E+00
 -6.68569233E-01  0.00000000E+00  0.00000000E+00  0.00000000E+00 -5.07771668E-17
  0.00000000E+00  0.00000000E+00  0.00000000E+00  0.00000000E+00  0.00000000E+00
  0.00000000E+00  0.00000000E+00  0.00000000E+00  5.95146553E-35  0.00000000E+00
  0.00000000E+00 -3.31647004E-33  0.00000000E+00  0.00000000E+00  1.17239712E-32
  0.00000000E+00  0.00000000E+00  1.77781276E-34  0.00000000E+00  0.00000000E+00
 -1.99961158E-33  0.00000000E+00  0.00000000E+00  0.00000000E+00  0.00000000E+00
  0.00000000E+00 -5.94161300E-02  0.00000000E+00  0.00000000E+00  0.00000000E+00
  0.00000000E+00 -5.89591843E-01  0.00000000E+00  0.00000000E+00  0.00000000E+00
  0.00000000E+00 -1.46367928E+00  0.00000000E+00  0.00000000E+00  0.00000000E+00
  0.00000000E+00 -9.28159076E-01  0.00000000E+00  0.00000000E+00  4.37042802E-33
  0.00000000E+00  0.00000000E+00  0.00000000E+00  1.27748957E-17  0.00000000E+00
  0.00000000E+00  2.56942101E-33  0.00000000E+00  0.00000000E+00  0.00000000E+00
  5.56677762E-17  0.00000000E+00  0.00000000E+00  5.41608840E-33  0.00000000E+00
  0.00000000E+00  0.00000000E+00  5.79699968E-17  0.00000000E+00  0.00000000E+00
  0.00000000E+00  0.00000000E+00  1.59184355E-01  0.00000000E+00  0.00000000E+00
  0.00000000E+00  5.67499506E-17  0.00000000E+00  0.00000000E+00  0.00000000E+00
  0.00000000E+00  4.45712822E-01  0.00000000E+00  0.00000000E+00  0.00000000E+00
  3.66597187E-20  1.33919484E-19 -1.24082630E-17 -3.12052643E-17  8.71531122E-17
 -7.29388660E-17 -6.71727446E-35  0.00000000E+00  0.00000000E+00  9.73156163E-34
  0.00000000E+00  0.00000000E+00  1.90418792E-33  0.00000000E+00  0.00000000E+00
 -9.18228285E-34  0.00000000E+00  0.00000000E+00  1.90600715E-34  0.00000000E+00
  0.00000000E+00 -4.28447820E-19  0.00000000E+00  0.00000000E+00  5.94161300E-02
  0.00000000E+00  4.60414434E-17  0.00000000E+00  0.00000000E+00  5.89591843E-01
  0.00000000E+00  6.84596596E-17  0.00000000E+00  0.00000000E+00  1.46367928E+00
  0.00000000E+00 -3.40700663E-17  0.00000000E+00  0.00000000E+00  9.28159076E-01
  0.00000000E+00  0.00000000E+00 -3.02801701E-34  0.00000000E+00  0.00000000E+00
  0.00000000E+00 -1.27748957E-17  0.00000000E+00  0.00000000E+00  9.47533428E-34
  0.00000000E+00  0.00000000E+00  0.00000000E+00 -5.56677762E-17  0.00000000E+00
  0.00000000E+00 -5.73437427E-34  0.00000000E+00  0.00000000E+00  0.00000000E+00
 -5.79699968E-17  0.00000000E+00 -1.02598884E-17  0.00000000E+00  0.00000000E+00
 -1.59184355E-01  0.00000000E+00  0.00000000E+00  0.00000000E+00  2.18143480E-17
  0.00000000E+00  2.59300079E-17  0.00000000E+00  0.00000000E+00 -4.45712822E-01
  0.00000000E+00  0.00000000E+00  0.00000000E+00  1.28118437E-17  0.00000000E+00
Multipole Matrix (0,2,0)                   R   N=        3240
  3.15567579E-02 -3.62245159E-02  4.24111737E-02  4.31826364E-02 -5.77268359E-02
  3.39904827E-01  2.86000600E-02 -3.91450018E-02  4.16814872E-01  8.60585198E-01
  1.58386575E-02 -2.19009406E-02  3.27749388E-01  1.05360030E+00  2.25022502E+00
  7.97455229E-03 -1.10718428E-02  1.93915591E-01  8.09722708E-01  2.75051117E+00
  6.03136309E+00  0.00000000E+00  0.00000000E+00  0.00000000E+00  0.00000000E+00
  0.00000000E+00  0.00000000E+00  8.73744832E-02  0.00000000E+00  0.00000000E+00
  0.00000000E+00  0.00000000E+00  0.00000000E+00  0.00000000E+00  0.00000000E+00
  2.62123449E-01  0.00000000E+00  0.00000000E+00  0.00000000E+00  0.00000000E+00
  0.00000000E+00  0.00000000E+00  0.00000000E+00  0.00000000E+00  8.73744832E-02
  0.00000000E+00  0.00000000E+00  0.00000000E+00  0.00000000E+00  0.00000000E+00
  0.00000000E+00  9.69782987E-02  0.00000000E+00  0.00000000E+00  3.07427447E-01
  0.00000000E+00  0.00000000E+00  0.00000000E+00  0.00000000E+00  0.00000000E+00
  0.00000000E+00  0.00000000E+00  2.90934896E-01  0.00000000E+00  0.00000000E+00
  9.22282341E-01  0.00000000E+00  0.00000000E+00  0.00000000E+00  0.00000000E+00
  0.00000000E+00  0.00000000E+00  0.00000000E+00  0.00000000E+00  9.69782987E-02
  0.00000000E+00  0.00000000E+00  3.07427447E-01  0.00000000E+00  0.00000000E+00
  0.00000000E+00  0.00000000E+00  0.00000000E+00  0.00000000E+00  4.94210922E-02
  0.00000000E+00  0.00000000E+00  3.29232414E-01  0.00000000E+00  0.00000000E+00
  8.65051903E-01  0.00000000E+00  0.00000000E+00  0.00000000E+00  0.00000000E+00
  0.00000000E+00  0.00000000E+00  0.00000000E+00  1.48263277E-01  0.00000000E+00
  0.00000000E+00  9.87697241E-01  0.00000000E+00  0.00000000E+00  2.59515571E+00
  0.00000000E+00  0.00000000E+00  0.00000000E+00  0.00000000E+00  0.00000000E+00
  0.00000000E+00  0.00000000E+00  0.00000000E+00  4.94210922E-02  0.00000000E+00
  0.00000000E+00  3.29232414E-01  0.00000000E+00  0.00000000E+00  8.65051903E-01
  0.00000000E+00  0.00000000E+00  0.00000000E+00  0.00000000E+00  0.00000000E+00
  0.00000000E+00  1.70519743E-02  0.00000000E+00  0.00000000E+00  1.69798236E-01
  0.00000000E+00  0.00000000E+00  9.20232813E-01  0.00000000E+00  0.00000000E+00
  2.48262165E+00  0.00000000E+00  0.00000000E+00  0.00000000E+00  0.00000000E+00
  0.00000000E+00  0.00000000E+00  0.00000000E+00  5.11559228E-02  0.00000000E+00
  0.00000000E+00  5.09394707E-01  0.00000000E+00  0.00000000E+00  2.76069844E+00
  0.00000000E+00  0.00000000E+00  7.44786495E+00  0.00000000E+00  0.00000000E+00
  0.00000000E+00  0.00000000E+00  0.00000000E+00  0.00000000E+00  0.00000000E+00
  0.00000000E+00  1.70519743E-02  0.00000000E+00  0.00000000E+00  1.69798236E-01
  0.00000000E+00  0.00000000E+00  9.20232813E-01  0.00000000E+00  0.00000000E+00
  2.48262165E+00  0.00000000E+00  0.00000000E+00  0.00000000E+00  0.00000000E+00
  0.00000000E+00  0.00000000E+00  4.51572766E-03  0.00000000E+00  0.00000000E+00
  5.35910621E-02  0.00000000E+00  0.00000000E+00  4.35040930E-01  0.00000000E+00
  0.00000000E+00  2.55685273E+00  0.00000000E+00  0.00000000E+00  7.76880050E+00
  0.00000000E+00  0.00000000E+00  0.00000000E+00  0.00000000E+00  0.00000000E+00
  0.00000000E+00  0.00000000E+00  1.35471830E-02  0.00000000E+00  0.00000000E+00
  1.60773186E-01  0.00000000E+00  0.00000000E+00  1.30512279E+00  0.00000000E+00
  0.00000000E+00  7.67055818E+00  0.00000000E+00  0.00000000E+00  2.33064015E+01
  0.00000000E+00  0.00000000E+00  0.00000000E+00  0.00000000E+00  0.00000000E+00
  0.00000000E+00  0.00000000E+00  0.00000000E+00  4.51572766E-03  0.00000000E+00
  0.00000000E+00  5.35910621E-02  0.00000000E+00  0.00000000E+00  4.35040930E-01
  0.00000000E+00  0.00000000E+00  2.55685273E+00  0.00000000E+00  0.00000000E+00
  7.76880050E+00 -1.79515838E-02  2.49226877E-02 -1.37062985E-01 -1.32339662E-01
 -8.74581399E-02 -4.73895185E-02  0.00000000E+00  0.00000000E+00  0.00000000E+00
  0.00000000E+00  0.00000000E+00  0.00000000E+00  0.00000000E+00  0.00000000E+00
  0.00000000E+00  0.00000000E+00  0.00000000E+00  0.00000000E+00  0.00000000E+00
  0.00000000E+00  0.00000000E+00  2.25468975E-01  0.00000000E+00  0.00000000E+00
  0.00000000E+00  0.00000000E+00  0.00000000E+00  0.00000000E+00  0.00000000E+00
  0.00000000E+00  0.00000000E+00  0.00000000E+00  0.00000000E+00  0.00000000E+00
  0.00000000E+00  0.00000000E+00  0.00000000E+00  0.00000000E+00  0.00000000E+00
  0.00000000E+00  0.00000000E+00  0.00000000E+00  0.00000000E+00  0.00000000E+00
  1.35281385E-01  0.00000000E+00  0.00000000E+00  0.00000000E+00  0.00000000E+00
  0.00000000E+00  0.00000000E+00  0.00000000E+00  0.00000000E+00  0.00000000E+00
  0.00000000E+00  0.00000000E+00  0.00000000E+00  0.00000000E+00  0.00000000E+00
  0.00000000E+00  0.00000000E+00  0.00000000E+00  0.00000000E+00  0.00000000E+00
  0.00000000E+00  0.00000000E+00  0.00000000E+00  0.00000000E+00  4.05844156E-01
 -3.10930552E-02  4.31673614E-02 -2.37400054E-01 -2.29219018E-01 -1.51481942E-01
 -8.20810538E-02  0.00000000E+00  0.00000000E+00  0.00000000E+00  0.00000000E+00
  0.00000000E+00  0.00000000E+00  0.00000000E+00  0.00000000E+00  0.00000000E+00
  0.00000000E+00  0.00000000E+00  0.00000000E+00  0.00000000E+00  0.00000000E+00
  0.00000000E+00  1.56209488E-01  0.00000000E+00  0.00000000E+00  4.05844156E-01
  0.00000000E+00  0.00000000E+00  0.00000000E+00  0.00000000E+00  0.00000000E+00
  0.00000000E+00  0.00000000E+00  0.00000000E+00  0.00000000E+00  0.00000000E+00
  0.00000000E+00  0.00000000E+00  0.00000000E+00  0.00000000E+00  0.00000000E+00
  0.00000000E+00  0.00000000E+00  0.00000000E+00  0.00000000E+00  0.00000000E+00
  0.00000000E+00  0.00000000E+00  0.00000000E+00  0.00000000E+00  0.00000000E+00
  4.05844156E-01 -7.53138165E-03  1.09669519E-02 -1.94905562E-01 -3.77253643E-01
 -3.85168326E-01 -2.57390888E-01  0.00000000E+00  0.00000000E+00  0.00000000E+00
  0.00000000E+00  0.00000000E+00  0.00000000E+00  0.00000000E+00  0.00000000E+00
  0.00000000E+00  0.00000000E+00  0.00000000E+00  0.00000000E+00  0.00000000E+00
  0.00000000E+00  0.00000000E+00  2.10958466E-01  0.00000000E+00  0.00000000E+00
  1.46156313E-01  0.00000000E+00  6.42013354E-01  0.00000000E+00  0.00000000E+00
  0.00000000E+00  0.00000000E+00  0.00000000E+00  0.00000000E+00  0.00000000E+00
  0.00000000E+00  0.00000000E+00  0.00000000E+00  0.00000000E+00  0.00000000E+00
  0.00000000E+00  0.00000000E+00  0.00000000E+00  0.00000000E+00  0.00000000E+00
  0.00000000E+00  0.00000000E+00  0.00000000E+00  0.00000000E+00  0.00000000E+00
  1.26575080E-01  0.00000000E+00  0.00000000E+00  0.00000000E+00  0.00000000E+00
  3.85208012E-01  0.00000000E+00  0.00000000E+00  0.00000000E+00  0.00000000E+00
  0.00000000E+00  0.00000000E+00  0.00000000E+00  0.00000000E+00  0.00000000E+00
  0.00000000E+00  0.00000000E+00  0.00000000E+00  0.00000000E+00  0.00000000E+00
  0.00000000E+00  0.00000000E+00  0.00000000E+00  0.00000000E+00  0.00000000E+00
  0.00000000E+00  0.00000000E+00  0.00000000E+00  0.00000000E+00  3.79725240E-01
  0.00000000E+00  0.00000000E+00  0.00000000E+00  0.00000000E+00  1.15562404E+00
 -1.30447357E-02  1.89953178E-02 -3.37586336E-01 -6.53422477E-01 -6.67131110E-01
 -4.45814095E-01  0.00000000E+00  0.00000000E+00  0.00000000E+00  0.00000000E+00
  0.00000000E+00  0.00000000E+00  0.00000000E+00  0.00000000E+00  0.00000000E+00
  0.00000000E+00  0.00000000E+00  0.00000000E+00  0.00000000E+00  0.00000000E+00
  0.00000000E+00  1.46156313E-01  0.00000000E+00  0.00000000E+00  3.79725240E-01
  0.00000000E+00  4.44799899E-01  0.00000000E+00  0.00000000E+00  1.15562404E+00
  0.00000000E+00  0.00000000E+00  0.00000000E+00  0.00000000E+00  0.00000000E+00
  0.00000000E+00  0.00000000E+00  0.00000000E+00  0.00000000E+00  0.00000000E+00
  0.00000000E+00  0.00000000E+00  0.00000000E+00  0.00000000E+00  0.00000000E+00
  0.00000000E+00  0.00000000E+00  0.00000000E+00  0.00000000E+00  0.00000000E+00
  0.00000000E+00  0.00000000E+00  0.00000000E+00  0.00000000E+00  0.00000000E+00
  3.79725240E-01  0.00000000E+00  0.00000000E+00  0.00000000E+00  0.00000000E+00
  1.15562404E+00 -1.87809277E-03  2.78357582E-03 -1.11128727E-01 -4.84294223E-01
 -1.04113879E+00 -1.11132246E+00  0.00000000E+00  0.00000000E+00  0.00000000E+00
  0.00000000E+00  0.00000000E+00  0.00000000E+00  0.00000000E+00  0.00000000E+00
  0.00000000E+00  0.00000000E+00  0.00000000E+00  0.00000000E+00  0.00000000E+00
  0.00000000E+00  0.00000000E+00  7.76274092E-02  0.00000000E+00  0.00000000E+00
  5.37818467E-02  0.00000000E+00  6.00813621E-01  0.00000000E+00  0.00000000E+00
  4.16255887E-01  0.00000000E+00  1.82748538E+00  0.00000000E+00  0.00000000E+00
  0.00000000E+00  0.00000000E+00  0.00000000E+00  0.00000000E+00  0.00000000E+00
  0.00000000E+00  0.00000000E+00  0.00000000E+00  0.00000000E+00  0.00000000E+00
  0.00000000E+00  0.00000000E+00  0.00000000E+00  0.00000000E+00  0.00000000E+00
  0.00000000E+00  0.00000000E+00  0.00000000E+00  0.00000000E+00  0.00000000E+00
  4.65764455E-02  0.00000000E+00  0.00000000E+00  0.00000000E+00  0.00000000E+00
  3.60488173E-01  0.00000000E+00  0.00000000E+00  0.00000000E+00  0.00000000E+00
  1.09649123E+00  0.00000000E+00  0.00000000E+00  0.00000000E+00  0.00000000E+00
  0.00000000E+00  0.00000000E+00  0.00000000E+00  0.00000000E+00  0.00000000E+00
  0.00000000E+00  0.00000000E+00  0.00000000E+00  0.00000000E+00  0.00000000E+00
  0.00000000E+00  0.00000000E+00  0.00000000E+00  0.00000000E+00  0.00000000E+00
  0.00000000E+00  0.00000000E+00  0.00000000E+00  0.00000000E+00  1.39729337E-01
  0.00000000E+00  0.00000000E+00  0.00000000E+00  0.00000000E+00  1.08146452E+00
  0.00000000E+00  0.00000000E+00  0.00000000E+00  0.00000000E+00  3.28947368E+00
 -3.25295211E-03  4.82129475E-03 -1.92480601E-01 -8.38822200E-01 -1.80330529E+00
 -1.92486697E+00  0.00000000E+00  0.00000000E+00  0.00000000E+00  0.00000000E+00
  0.00000000E+00  0.00000000E+00  0.00000000E+00  0.00000000E+00  0.00000000E+00
  0.00000000E+00  0.00000000E+00  0.00000000E+00  0.00000000E+00  0.00000000E+00
  0.00000000E+00  5.37818467E-02  0.00000000E+00  0.00000000E+00  1.39729337E-01
  0.00000000E+00  4.16255887E-01  0.00000000E+00  0.00000000E+00  1.08146452E+00
  0.00000000E+00  1.26611901E+00  0.00000000E+00  0.00000000E+00  3.28947368E+00
  0.00000000E+00  0.00000000E+00  0.00000000E+00  0.00000000E+00  0.00000000E+00
  0.00000000E+00  0.00000000E+00  0.00000000E+00  0.00000000E+00  0.00000000E+00
  0.00000000E+00  0.00000000E+00  0.00000000E+00  0.00000000E+00  0.00000000E+00
  0.00000000E+00  0.00000000E+00  0.00000000E+00  0.00000000E+00  0.00000000E+00
  0.00000000E+00  0.00000000E+00  0.00000000E+00  0.00000000E+00  0.00000000E+00
  1.39729337E-01  0.00000000E+00  0.00000000E+00  0.00000000E+00  0.00000000E+00
  1.08146452E+00  0.00000000E+00  0.00000000E+00  0.00000000E+00  0.00000000E+00
  3.28947368E+00 -3.32738204E-04  4.96289177E-04 -2.99701167E-02 -2.40435710E-01
 -1.22333472E+00 -2.96003703E+00  0.00000000E+00  0.00000000E+00  0.00000000E+00
  0.00000000E+00  0.00000000E+00  0.00000000E+00  0.00000000E+00  0.00000000E+00
  0.00000000E+00  0.00000000E+00  0.00000000E+00  0.00000000E+00  0.00000000E+00
  0.00000000E+00  0.00000000E+00  1.61815590E-02  0.00000000E+00  0.00000000E+00
  1.12109129E-02  0.00000000E+00  2.08984738E-01  0.00000000E+00  0.00000000E+00
  1.44788874E-01  0.00000000E+00  1.66504326E+00  0.00000000E+00  0.00000000E+00
  1.15357581E+00  0.00000000E+00  5.43951262E+00  0.00000000E+00  0.00000000E+00
  0.00000000E+00  0.00000000E+00  0.00000000E+00  0.00000000E+00  0.00000000E+00
  0.00000000E+00  0.00000000E+00  0.00000000E+00  0.00000000E+00  0.00000000E+00
  0.00000000E+00  0.00000000E+00  0.00000000E+00  0.00000000E+00  0.00000000E+00
  0.00000000E+00  0.00000000E+00  0.00000000E+00  0.00000000E+00  0.00000000E+00
  9.70893540E-03  0.00000000E+00  0.00000000E+00  0.00000000E+00  0.00000000E+00
  1.25390843E-01  0.00000000E+00  0.00000000E+00  0.00000000E+00  0.00000000E+00
  9.99025958E-01  0.00000000E+00  0.00000000E+00  0.00000000E+00  0.00000000E+00
  3.26370757E+00  0.00000000E+00  0.00000000E+00  0.00000000E+00  0.00000000E+00
  0.00000000E+00  0.00000000E+00  0.00000000E+00  0.00000000E+00  0.00000000E+00
  0.00000000E+00  0.00000000E+00  0.00000000E+00  0.00000000E+00  0.00000000E+00
  0.00000000E+00  0.00000000E+00  0.00000000E+00  0.00000000E+00  0.00000000E+00
  0.00000000E+00  0.00000000E+00  0.00000000E+00  0.00000000E+00  2.91268062E-02
  0.00000000E+00  0.00000000E+00  0.00000000E+00  0.00000000E+00  3.76172529E-01
  0.00000000E+00  0.00000000E+00  0.00000000E+00  0.00000000E+00  2.99707787E+00
  0.00000000E+00  0.00000000E+00  0.00000000E+00  0.00000000E+00  9.79112272E+00
 -5.76319474E-04  8.59598070E-04 -5.19097648E-02 -4.16446865E-01 -2.11887790E+00
 -5.12693453E+00  0.00000000E+00  0.00000000E+00  0.00000000E+00  0.00000000E+00
  0.00000000E+00  0.00000000E+00  0.00000000E+00  0.00000000E+00  0.00000000E+00
  0.00000000E+00  0.00000000E+00  0.00000000E+00  0.00000000E+00  0.00000000E+00
  0.00000000E+00  1.12109129E-02  0.00000000E+00  0.00000000E+00  2.91268062E-02
  0.00000000E+00  1.44788874E-01  0.00000000E+00  0.00000000E+00  3.76172529E-01
  0.00000000E+00  1.15357581E+00  0.00000000E+00  0.00000000E+00  2.99707787E+00
  0.00000000E+00  3.76860489E+00  0.00000000E+00  0.00000000E+00  9.79112272E+00
  0.00000000E+00  0.00000000E+00  0.00000000E+00  0.00000000E+00  0.00000000E+00
  0.00000000E+00  0.00000000E+00  0.00000000E+00  0.00000000E+00  0.00000000E+00
  0.00000000E+00  0.00000000E+00  0.00000000E+00  0.00000000E+00  0.00000000E+00
  0.00000000E+00  0.00000000E+00  0.00000000E+00  0.00000000E+00  0.00000000E+00
  0.00000000E+00  0.00000000E+00  0.00000000E+00  0.00000000E+00  0.00000000E+00
  2.91268062E-02  0.00000000E+00  0.00000000E+00  0.00000000E+00  0.00000000E+00
  3.76172529E-01  0.00000000E+00  0.00000000E+00  0.00000000E+00  0.00000000E+00
  2.99707787E+00  0.00000000E+00  0.00000000E+00  0.00000000E+00  0.00000000E+00
  9.79112272E+00  0.00000000E+00  0.00000000E+00  0.00000000E+00  0.00000000E+00
  0.00000000E+00  0.00000000E+00  0.00000000E+00  0.00000000E+00 -6.05130887E-02
  0.00000000E+00  0.00000000E+00 -2.00474320E-01  0.00000000E+00  0.00000000E+00
 -1.83458530E-01  0.00000000E+00  0.00000000E+00 -8.30782724E-02  0.00000000E+00
  0.00000000E+00 -2.45667538E-02  0.00000000E+00  0.00000000E+00  0.00000000E+00
  0.00000000E+00  0.00000000E+00  0.00000000E+00  0.00000000E+00  0.00000000E+00
  0.00000000E+00  0.00000000E+00  0.00000000E+00  0.00000000E+00  0.00000000E+00
  0.00000000E+00  0.00000000E+00  0.00000000E+00  0.00000000E+00  0.00000000E+00
  0.00000000E+00  0.00000000E+00  3.87596899E-01  0.00000000E+00  0.00000000E+00
  0.00000000E+00  0.00000000E+00  0.00000000E+00  0.00000000E+00 -2.47043650E-02
  0.00000000E+00  0.00000000E+00 -8.18432985E-02  0.00000000E+00  0.00000000E+00
 -7.48966312E-02  0.00000000E+00  0.00000000E+00 -3.39165627E-02  0.00000000E+00
  0.00000000E+00 -1.00293353E-02  0.00000000E+00  0.00000000E+00  0.00000000E+00
  0.00000000E+00  0.00000000E+00  0.00000000E+00  0.00000000E+00  0.00000000E+00
  0.00000000E+00  0.00000000E+00  0.00000000E+00  0.00000000E+00  0.00000000E+00
  0.00000000E+00  0.00000000E+00  0.00000000E+00  0.00000000E+00  0.00000000E+00
  0.00000000E+00  0.00000000E+00  0.00000000E+00  0.00000000E+00  0.00000000E+00
  2.11416490E-01  0.00000000E+00  0.00000000E+00  0.00000000E+00  0.00000000E+00
  0.00000000E+00  0.00000000E+00  0.00000000E+00 -7.41130950E-02  0.00000000E+00
  0.00000000E+00 -2.45529896E-01  0.00000000E+00  0.00000000E+00 -2.24689894E-01
  0.00000000E+00  0.00000000E+00 -1.01749688E-01  0.00000000E+00  0.00000000E+00
 -3.00880058E-02  0.00000000E+00  0.00000000E+00  0.00000000E+00  0.00000000E+00
  0.00000000E+00  0.00000000E+00  0.00000000E+00  0.00000000E+00  0.00000000E+00
  0.00000000E+00  0.00000000E+00  0.00000000E+00  0.00000000E+00  0.00000000E+00
  0.00000000E+00  0.00000000E+00  0.00000000E+00  0.00000000E+00  0.00000000E+00
  0.00000000E+00  0.00000000E+00  0.00000000E+00  0.00000000E+00  6.34249471E-01
  0.00000000E+00  0.00000000E+00  0.00000000E+00  0.00000000E+00  0.00000000E+00
  0.00000000E+00  0.00000000E+00  0.00000000E+00 -7.81220616E-02  0.00000000E+00
  0.00000000E+00 -2.58811235E-01  0.00000000E+00  0.00000000E+00 -2.36843944E-01
  0.00000000E+00  0.00000000E+00 -1.07253588E-01  0.00000000E+00  0.00000000E+00
 -3.17155428E-02  0.00000000E+00  0.00000000E+00  0.00000000E+00  0.00000000E+00
  0.00000000E+00  0.00000000E+00  0.00000000E+00  0.00000000E+00  0.00000000E+00
  0.00000000E+00  0.00000000E+00  0.00000000E+00  0.00000000E+00  0.00000000E+00
  0.00000000E+00  0.00000000E+00  0.00000000E+00  0.00000000E+00  0.00000000E+00
  0.00000000E+00  2.72937516E-01  0.00000000E+00  0.00000000E+00  5.28541226E-01
  0.00000000E+00  0.00000000E+00  0.00000000E+00  0.00000000E+00  0.00000000E+00
  0.00000000E+00  0.00000000E+00  0.00000000E+00  0.00000000E+00  0.00000000E+00
  0.00000000E+00  0.00000000E+00  0.00000000E+00  0.00000000E+00  0.00000000E+00
  0.00000000E+00  0.00000000E+00  0.00000000E+00  0.00000000E+00  0.00000000E+00
  0.00000000E+00  0.00000000E+00  0.00000000E+00  0.00000000E+00  0.00000000E+00
  0.00000000E+00  0.00000000E+00  0.00000000E+00  0.00000000E+00  0.00000000E+00
  0.00000000E+00  0.00000000E+00  0.00000000E+00  0.00000000E+00  0.00000000E+00
  0.00000000E+00  0.00000000E+00  0.00000000E+00  0.00000000E+00  0.00000000E+00
  0.00000000E+00  0.00000000E+00  0.00000000E+00  0.00000000E+00  0.00000000E+00
  5.28541226E-01  0.00000000E+00  0.00000000E+00  0.00000000E+00  0.00000000E+00
  0.00000000E+00  0.00000000E+00 -9.56795943E-02  0.00000000E+00  0.00000000E+00
 -3.16977732E-01  0.00000000E+00  0.00000000E+00 -2.90073405E-01  0.00000000E+00
  0.00000000E+00 -1.31358282E-01  0.00000000E+00  0.00000000E+00 -3.88434484E-02
  0.00000000E+00  0.00000000E+00  0.00000000E+00  0.00000000E+00  0.00000000E+00
  0.00000000E+00  0.00000000E+00  0.00000000E+00  0.00000000E+00  0.00000000E+00
  0.00000000E+00  0.00000000E+00  0.00000000E+00  0.00000000E+00  0.00000000E+00
  0.00000000E+00  0.00000000E+00  0.00000000E+00  0.00000000E+00  0.00000000E+00
  0.00000000E+00  0.00000000E+00  0.00000000E+00  1.36468758E-01  0.00000000E+00
  0.00000000E+00  0.00000000E+00  7.04721635E-01  0.00000000E+00  0.00000000E+00
  0.00000000E+00  0.00000000E+00  0.00000000E+00  0.00000000E+00  0.00000000E+00
 -9.56795943E-02  0.00000000E+00  0.00000000E+00 -3.16977732E-01  0.00000000E+00
  0.00000000E+00 -2.90073405E-01  0.00000000E+00  0.00000000E+00 -1.31358282E-01
  0.00000000E+00  0.00000000E+00 -3.88434484E-02  0.00000000E+00  0.00000000E+00
  0.00000000E+00  0.00000000E+00  0.00000000E+00  0.00000000E+00  0.00000000E+00
  0.00000000E+00  0.00000000E+00  0.00000000E+00  0.00000000E+00  0.00000000E+00
  0.00000000E+00  0.00000000E+00  0.00000000E+00  0.00000000E+00  0.00000000E+00
  0.00000000E+00  0.00000000E+00  0.00000000E+00  0.00000000E+00  0.00000000E+00
  0.00000000E+00  1.36468758E-01  0.00000000E+00  0.00000000E+00  0.00000000E+00
  7.04721635E-01  0.00000000E+00  0.00000000E+00  0.00000000E+00  0.00000000E+00
  0.00000000E+00  0.00000000E+00  0.00000000E+00  0.00000000E+00 -1.91250636E-02
  0.00000000E+00  0.00000000E+00 -2.05248039E-01  0.00000000E+00  0.00000000E+00
 -5.77241447E-01  0.00000000E+00  0.00000000E+00 -5.41773622E-01  0.00000000E+00
  0.00000000E+00 -2.27858024E-01  0.00000000E+00  0.00000000E+00  0.00000000E+00
  0.00000000E+00  0.00000000E+00  0.00000000E+00  0.00000000E+00  0.00000000E+00
  0.00000000E+00  0.00000000E+00  0.00000000E+00  0.00000000E+00  0.00000000E+00
  0.00000000E+00  0.00000000E+00  0.00000000E+00  0.00000000E+00  0.00000000E+00
  0.00000000E+00  0.00000000E+00  3.10984523E-01  0.00000000E+00  0.00000000E+00
  2.18988705E-01  0.00000000E+00  0.00000000E+00  0.00000000E+00  1.13402062E+00
  0.00000000E+00  0.00000000E+00  0.00000000E+00  0.00000000E+00  0.00000000E+00
  0.00000000E+00 -7.80777451E-03  0.00000000E+00  0.00000000E+00 -8.37921612E-02
  0.00000000E+00  0.00000000E+00 -2.35657834E-01  0.00000000E+00  0.00000000E+00
 -2.21178155E-01  0.00000000E+00  0.00000000E+00 -9.30226490E-02  0.00000000E+00
  0.00000000E+00  0.00000000E+00  0.00000000E+00  0.00000000E+00  0.00000000E+00
  0.00000000E+00  0.00000000E+00  0.00000000E+00  0.00000000E+00  0.00000000E+00
  0.00000000E+00  0.00000000E+00  0.00000000E+00  0.00000000E+00  0.00000000E+00
  0.00000000E+00  0.00000000E+00  0.00000000E+00  0.00000000E+00  0.00000000E+00
  0.00000000E+00  0.00000000E+00  1.69627921E-01  0.00000000E+00  0.00000000E+00
  0.00000000E+00  1.09494352E-01  0.00000000E+00  0.00000000E+00  6.18556701E-01
  0.00000000E+00  0.00000000E+00  0.00000000E+00  0.00000000E+00  0.00000000E+00
  0.00000000E+00  0.00000000E+00 -2.34233235E-02  0.00000000E+00  0.00000000E+00
 -2.51376484E-01  0.00000000E+00  0.00000000E+00 -7.06973502E-01  0.00000000E+00
  0.00000000E+00 -6.63534465E-01  0.00000000E+00  0.00000000E+00 -2.79067947E-01
  0.00000000E+00  0.00000000E+00  0.00000000E+00  0.00000000E+00  0.00000000E+00
  0.00000000E+00  0.00000000E+00  0.00000000E+00  0.00000000E+00  0.00000000E+00
  0.00000000E+00  0.00000000E+00  0.00000000E+00  0.00000000E+00  0.00000000E+00
  0.00000000E+00  0.00000000E+00  0.00000000E+00  0.00000000E+00  0.00000000E+00
  0.00000000E+00  0.00000000E+00  0.00000000E+00  5.08883764E-01  0.00000000E+00
  0.00000000E+00  0.00000000E+00  1.09494352E-01  0.00000000E+00  0.00000000E+00
  1.85567010E+00  0.00000000E+00  0.00000000E+00  0.00000000E+00  0.00000000E+00
  0.00000000E+00  0.00000000E+00  0.00000000E+00  0.00000000E+00 -2.46903509E-02
  0.00000000E+00  0.00000000E+00 -2.64974079E-01  0.00000000E+00  0.00000000E+00
 -7.45215503E-01  0.00000000E+00  0.00000000E+00 -6.99426739E-01  0.00000000E+00
  0.00000000E+00 -2.94163445E-01  0.00000000E+00  0.00000000E+00  0.00000000E+00
  0.00000000E+00  0.00000000E+00  0.00000000E+00  0.00000000E+00  0.00000000E+00
  0.00000000E+00  0.00000000E+00  0.00000000E+00  0.00000000E+00  0.00000000E+00
  0.00000000E+00  0.00000000E+00  0.00000000E+00  0.00000000E+00  0.00000000E+00
  0.00000000E+00  0.00000000E+00  2.18988705E-01  0.00000000E+00  0.00000000E+00
  4.24069803E-01  0.00000000E+00  0.00000000E+00  0.00000000E+00  7.98553267E-01
  0.00000000E+00  0.00000000E+00  1.54639175E+00  0.00000000E+00  0.00000000E+00
  0.00000000E+00  0.00000000E+00  0.00000000E+00  0.00000000E+00  0.00000000E+00
  0.00000000E+00  0.00000000E+00  0.00000000E+00  0.00000000E+00  0.00000000E+00
  0.00000000E+00  0.00000000E+00  0.00000000E+00  0.00000000E+00  0.00000000E+00
  0.00000000E+00  0.00000000E+00  0.00000000E+00  0.00000000E+00  0.00000000E+00
  0.00000000E+00  0.00000000E+00  0.00000000E+00  0.00000000E+00  0.00000000E+00
  0.00000000E+00  0.00000000E+00  0.00000000E+00  0.00000000E+00  0.00000000E+00
  0.00000000E+00  0.00000000E+00  0.00000000E+00  0.00000000E+00  0.00000000E+00
  0.00000000E+00  0.00000000E+00  0.00000000E+00  0.00000000E+00  0.00000000E+00
  0.00000000E+00  0.00000000E+00  0.00000000E+00  4.24069803E-01  0.00000000E+00
  0.00000000E+00  0.00000000E+00  0.00000000E+00  0.00000000E+00  0.00000000E+00
  1.54639175E+00  0.00000000E+00  0.00000000E+00  0.00000000E+00  0.00000000E+00
  0.00000000E+00  0.00000000E+00 -3.02393807E-02  0.00000000E+00  0.00000000E+00
 -3.24525645E-01  0.00000000E+00  0.00000000E+00 -9.12698866E-01  0.00000000E+00
  0.00000000E+00 -8.56619311E-01  0.00000000E+00  0.00000000E+00 -3.60275170E-01
  0.00000000E+00  0.00000000E+00  0.00000000E+00  0.00000000E+00  0.00000000E+00
  0.00000000E+00  0.00000000E+00  0.00000000E+00  0.00000000E+00  0.00000000E+00
  0.00000000E+00  0.00000000E+00  0.00000000E+00  0.00000000E+00  0.00000000E+00
  0.00000000E+00  0.00000000E+00  0.00000000E+00  0.00000000E+00  0.00000000E+00
  0.00000000E+00  0.00000000E+00  0.00000000E+00  1.09494352E-01  0.00000000E+00
  0.00000000E+00  0.00000000E+00  5.65426405E-01  0.00000000E+00  0.00000000E+00
  3.99276634E-01  0.00000000E+00  0.00000000E+00  0.00000000E+00  2.06185567E+00
  0.00000000E+00  0.00000000E+00  0.00000000E+00  0.00000000E+00  0.00000000E+00
  0.00000000E+00  0.00000000E+00 -3.02393807E-02  0.00000000E+00  0.00000000E+00
 -3.24525645E-01  0.00000000E+00  0.00000000E+00 -9.12698866E-01  0.00000000E+00
  0.00000000E+00 -8.56619311E-01  0.00000000E+00  0.00000000E+00 -3.60275170E-01
  0.00000000E+00  0.00000000E+00  0.00000000E+00  0.00000000E+00  0.00000000E+00
  0.00000000E+00  0.00000000E+00  0.00000000E+00  0.00000000E+00  0.00000000E+00
  0.00000000E+00  0.00000000E+00  0.00000000E+00  0.00000000E+00  0.00000000E+00
  0.00000000E+00  0.00000000E+00  0.00000000E+00  0.00000000E+00  0.00000000E+00
  0.00000000E+00  0.00000000E+00  0.00000000E+00  1.09494352E-01  0.00000000E+00
  0.00000000E+00  0.00000000E+00  5.65426405E-01  0.00000000E+00  0.00000000E+00
  3.99276634E-01  0.00000000E+00  0.00000000E+00  0.00000000E+00  2.06185567E+00
  0.00000000E+00  0.00000000E+00  0.00000000E+00  0.00000000E+00  0.00000000E+00
  0.00000000E+00  0.00000000E+00  0.00000000E+00 -3.67144444E-03  0.00000000E+00
  0.00000000E+00 -7.77409987E-02  0.00000000E+00  0.00000000E+00 -6.02816658E-01
  0.00000000E+00  0.00000000E+00 -1.55543436E+00  0.00000000E+00  0.00000000E+00
 -1.27107924E+00  0.00000000E+00  0.00000000E+00  0.00000000E+00  0.00000000E+00
  0.00000000E+00  0.00000000E+00  0.00000000E+00  0.00000000E+00  0.00000000E+00
  0.00000000E+00  0.00000000E+00  0.00000000E+00  0.00000000E+00  0.00000000E+00
  0.00000000E+00  0.00000000E+00  0.00000000E+00  0.00000000E+00  0.00000000E+00
  0.00000000E+00  9.29033116E-02  0.00000000E+00  0.00000000E+00  6.54205416E-02
  0.00000000E+00  0.00000000E+00  0.00000000E+00  1.00013630E+00  0.00000000E+00
  0.00000000E+00  7.04274770E-01  0.00000000E+00  0.00000000E+00  0.00000000E+00
  2.94117647E+00  0.00000000E+00  0.00000000E+00  0.00000000E+00  0.00000000E+00
  0.00000000E+00  0.00000000E+00 -1.49886092E-03  0.00000000E+00  0.00000000E+00
 -3.17376298E-02  0.00000000E+00  0.00000000E+00 -2.46098870E-01  0.00000000E+00
  0.00000000E+00 -6.35003419E-01  0.00000000E+00  0.00000000E+00 -5.18915929E-01
  0.00000000E+00  0.00000000E+00  0.00000000E+00  0.00000000E+00  0.00000000E+00
  0.00000000E+00  0.00000000E+00  0.00000000E+00  0.00000000E+00  0.00000000E+00
  0.00000000E+00  0.00000000E+00  0.00000000E+00  0.00000000E+00  0.00000000E+00
  0.00000000E+00  0.00000000E+00  0.00000000E+00  0.00000000E+00  0.00000000E+00
  0.00000000E+00  0.00000000E+00  0.00000000E+00  5.06745336E-02  0.00000000E+00
  0.00000000E+00  0.00000000E+00  3.27102708E-02  0.00000000E+00  0.00000000E+00
  5.45528891E-01  0.00000000E+00  0.00000000E+00  0.00000000E+00  3.52137385E-01
  0.00000000E+00  0.00000000E+00  1.60427807E+00  0.00000000E+00  0.00000000E+00
  0.00000000E+00  0.00000000E+00  0.00000000E+00  0.00000000E+00  0.00000000E+00
 -4.49658275E-03  0.00000000E+00  0.00000000E+00 -9.52128895E-02  0.00000000E+00
  0.00000000E+00 -7.38296611E-01  0.00000000E+00  0.00000000E+00 -1.90501026E+00
  0.00000000E+00  0.00000000E+00 -1.55674779E+00  0.00000000E+00  0.00000000E+00
  0.00000000E+00  0.00000000E+00  0.00000000E+00  0.00000000E+00  0.00000000E+00
  0.00000000E+00  0.00000000E+00  0.00000000E+00  0.00000000E+00  0.00000000E+00
  0.00000000E+00  0.00000000E+00  0.00000000E+00  0.00000000E+00  0.00000000E+00
  0.00000000E+00  0.00000000E+00  0.00000000E+00  0.00000000E+00  0.00000000E+00
  0.00000000E+00  1.52023601E-01  0.00000000E+00  0.00000000E+00  0.00000000E+00
  3.27102708E-02  0.00000000E+00  0.00000000E+00  1.63658667E+00  0.00000000E+00
  0.00000000E+00  0.00000000E+00  3.52137385E-01  0.00000000E+00  0.00000000E+00
  4.81283422E+00  0.00000000E+00  0.00000000E+00  0.00000000E+00  0.00000000E+00
  0.00000000E+00  0.00000000E+00  0.00000000E+00  0.00000000E+00 -4.73981439E-03
  0.00000000E+00  0.00000000E+00 -1.00363198E-01  0.00000000E+00  0.00000000E+00
 -7.78232960E-01  0.00000000E+00  0.00000000E+00 -2.00805713E+00  0.00000000E+00
  0.00000000E+00 -1.64095625E+00  0.00000000E+00  0.00000000E+00  0.00000000E+00
  0.00000000E+00  0.00000000E+00  0.00000000E+00  0.00000000E+00  0.00000000E+00
  0.00000000E+00  0.00000000E+00  0.00000000E+00  0.00000000E+00  0.00000000E+00
  0.00000000E+00  0.00000000E+00  0.00000000E+00  0.00000000E+00  0.00000000E+00
  0.00000000E+00  0.00000000E+00  6.54205416E-02  0.00000000E+00  0.00000000E+00
  1.26686334E-01  0.00000000E+00  0.00000000E+00  0.00000000E+00  7.04274770E-01
  0.00000000E+00  0.00000000E+00  1.36382223E+00  0.00000000E+00  0.00000000E+00
  0.00000000E+00  2.07111409E+00  0.00000000E+00  0.00000000E+00  4.01069519E+00
  0.00000000E+00  0.00000000E+00  0.00000000E+00  0.00000000E+00  0.00000000E+00
  0.00000000E+00  0.00000000E+00  0.00000000E+00  0.00000000E+00  0.00000000E+00
  0.00000000E+00  0.00000000E+00  0.00000000E+00  0.00000000E+00  0.00000000E+00
  0.00000000E+00  0.00000000E+00  0.00000000E+00  0.00000000E+00  0.00000000E+00
  0.00000000E+00  0.00000000E+00  0.00000000E+00  0.00000000E+00  0.00000000E+00
  0.00000000E+00  0.00000000E+00  0.00000000E+00  0.00000000E+00  0.00000000E+00
  0.00000000E+00  0.00000000E+00  0.00000000E+00  0.00000000E+00  0.00000000E+00
  0.00000000E+00  0.00000000E+00  0.00000000E+00  0.00000000E+00  0.00000000E+00
  0.00000000E+00  0.00000000E+00  0.00000000E+00  0.00000000E+00  0.00000000E+00
  1.26686334E-01  0.00000000E+00  0.00000000E+00  0.00000000E+00  0.00000000E+00
  0.00000000E+00  0.00000000E+00  1.36382223E+00  0.00000000E+00  0.00000000E+00
  0.00000000E+00  0.00000000E+00  0.00000000E+00  0.00000000E+00  4.01069519E+00
  0.00000000E+00  0.00000000E+00  0.00000000E+00  0.00000000E+00  0.00000000E+00
  0.00000000E+00 -5.80506337E-03  0.00000000E+00  0.00000000E+00 -1.22919312E-01
  0.00000000E+00  0.00000000E+00 -9.53136826E-01  0.00000000E+00  0.00000000E+00
 -2.45935767E+00  0.00000000E+00  0.00000000E+00 -2.00975275E+00  0.00000000E+00
  0.00000000E+00  0.00000000E+00  0.00000000E+00  0.00000000E+00  0.00000000E+00
  0.00000000E+00  0.00000000E+00  0.00000000E+00  0.00000000E+00  0.00000000E+00
  0.00000000E+00  0.00000000E+00  0.00000000E+00  0.00000000E+00  0.00000000E+00
  0.00000000E+00  0.00000000E+00  0.00000000E+00  0.00000000E+00  0.00000000E+00
  0.00000000E+00  0.00000000E+00  3.27102708E-02  0.00000000E+00  0.00000000E+00
  0.00000000E+00  1.68915112E-01  0.00000000E+00  0.00000000E+00  3.52137385E-01
  0.00000000E+00  0.00000000E+00  0.00000000E+00  1.81842964E+00  0.00000000E+00
  0.00000000E+00  1.03555704E+00  0.00000000E+00  0.00000000E+00  0.00000000E+00
  5.34759358E+00  0.00000000E+00  0.00000000E+00  0.00000000E+00  0.00000000E+00
  0.00000000E+00  0.00000000E+00  0.00000000E+00 -5.80506337E-03  0.00000000E+00
  0.00000000E+00 -1.22919312E-01  0.00000000E+00  0.00000000E+00 -9.53136826E-01
  0.00000000E+00  0.00000000E+00 -2.45935767E+00  0.00000000E+00  0.00000000E+00
 -2.00975275E+00  0.00000000E+00  0.00000000E+00  0.00000000E+00  0.00000000E+00
  0.00000000E+00  0.00000000E+00  0.00000000E+00  0.00000000E+00  0.00000000E+00
  0.00000000E+00  0.00000000E+00  0.00000000E+00  0.00000000E+00  0.00000000E+00
  0.00000000E+00  0.00000000E+00  0.00000000E+00  0.00000000E+00  0.00000000E+00
  0.00000000E+00  0.00000000E+00  0.00000000E+00  0.00000000E+00  3.27102708E-02
  0.00000000E+00  0.00000000E+00  0.00000000E+00  1.68915112E-01  0.00000000E+00
  0.00000000E+00  3.52137385E-01  0.00000000E+00  0.00000000E+00  0.00000000E+00
  1.81842964E+00  0.00000000E+00  0.00000000E+00  1.03555704E+00  0.00000000E+00
  0.00000000E+00  0.00000000E+00  5.34759358E+00  8.67361738E-19  1.73472348E-18
 -6.93889390E-17 -1.11022302E-16 -2.77555756E-17 -1.38777878E-17  0.00000000E+00
  0.00000000E+00  0.00000000E+00  0.00000000E+00  0.00000000E+00  0.00000000E+00
  0.00000000E+00  0.00000000E+00  0.00000000E+00  0.00000000E+00  0.00000000E+00
  0.00000000E+00  0.00000000E+00  0.00000000E+00  0.00000000E+00 -1.07235475E-01
  0.00000000E+00  0.00000000E+00 -3.09562151E-02  0.00000000E+00 -3.41681627E-01
  0.00000000E+00  0.00000000E+00 -9.86349896E-02  0.00000000E+00 -2.73704343E-01
  0.00000000E+00  0.00000000E+00 -7.90116380E-02  0.00000000E+00 -8.31012667E-02
  0.00000000E+00  0.00000000E+00 -2.39892694E-02  0.00000000E+00  0.00000000E+00
  0.00000000E+00  0.00000000E+00  0.00000000E+00  0.00000000E+00  0.00000000E+00
  0.00000000E+00  0.00000000E+00  0.00000000E+00  0.00000000E+00  0.00000000E+00
  0.00000000E+00  0.00000000E+00  0.00000000E+00  0.00000000E+00  0.00000000E+00
  0.00000000E+00  0.00000000E+00  0.00000000E+00  0.00000000E+00  0.00000000E+00
  6.71188357E-01  0.00000000E+00  0.00000000E+00  0.00000000E+00  0.00000000E+00
  0.00000000E+00  0.00000000E+00  0.00000000E+00  0.00000000E+00  0.00000000E+00
  0.00000000E+00  0.00000000E+00  0.00000000E+00  0.00000000E+00  0.00000000E+00
  0.00000000E+00  0.00000000E+00  0.00000000E+00  0.00000000E+00  0.00000000E+00
  0.00000000E+00  0.00000000E+00  0.00000000E+00 -4.89460737E-02  0.00000000E+00
  0.00000000E+00  0.00000000E+00  0.00000000E+00 -1.55955612E-01  0.00000000E+00
  0.00000000E+00  0.00000000E+00  0.00000000E+00 -1.24928369E-01  0.00000000E+00
  0.00000000E+00  0.00000000E+00  0.00000000E+00 -3.79303653E-02  0.00000000E+00
  0.00000000E+00  0.00000000E+00  0.00000000E+00  0.00000000E+00  0.00000000E+00
  0.00000000E+00  0.00000000E+00  0.00000000E+00  0.00000000E+00  0.00000000E+00
  0.00000000E+00  0.00000000E+00  0.00000000E+00  0.00000000E+00  0.00000000E+00
  0.00000000E+00  0.00000000E+00  0.00000000E+00  0.00000000E+00  0.00000000E+00
  0.00000000E+00  0.00000000E+00  0.00000000E+00  0.00000000E+00  3.53257030E-01
  0.00000000E+00  0.00000000E+00  0.00000000E+00  0.00000000E+00  0.00000000E+00
  0.00000000E+00  0.00000000E+00  0.00000000E+00  0.00000000E+00  0.00000000E+00
  0.00000000E+00  0.00000000E+00  0.00000000E+00  0.00000000E+00  0.00000000E+00
  0.00000000E+00  0.00000000E+00  0.00000000E+00  0.00000000E+00  0.00000000E+00
  0.00000000E+00  0.00000000E+00  0.00000000E+00 -1.46838221E-01  0.00000000E+00
  0.00000000E+00  0.00000000E+00  0.00000000E+00 -4.67866836E-01  0.00000000E+00
  0.00000000E+00  0.00000000E+00  0.00000000E+00 -3.74785106E-01  0.00000000E+00
  0.00000000E+00  0.00000000E+00  0.00000000E+00 -1.13791096E-01  0.00000000E+00
  0.00000000E+00  0.00000000E+00  0.00000000E+00  0.00000000E+00  0.00000000E+00
  0.00000000E+00  0.00000000E+00  0.00000000E+00  0.00000000E+00  0.00000000E+00
  0.00000000E+00  0.00000000E+00  0.00000000E+00  0.00000000E+00  0.00000000E+00
  0.00000000E+00  0.00000000E+00  0.00000000E+00  0.00000000E+00  0.00000000E+00
  0.00000000E+00  0.00000000E+00  0.00000000E+00  0.00000000E+00  1.05977109E+00
  8.35131083E-19 -2.39539383E-18 -7.18290269E-17  5.41391795E-17  6.11758783E-17
  1.39843031E-16  0.00000000E+00  0.00000000E+00  0.00000000E+00  0.00000000E+00
  0.00000000E+00  0.00000000E+00  0.00000000E+00  0.00000000E+00  0.00000000E+00
  0.00000000E+00  0.00000000E+00  0.00000000E+00  0.00000000E+00  0.00000000E+00
  0.00000000E+00 -1.19892905E-01  0.00000000E+00  0.00000000E+00 -6.92202013E-02
  0.00000000E+00 -3.82011672E-01  0.00000000E+00  0.00000000E+00 -2.20554542E-01
  0.00000000E+00 -3.06010758E-01  0.00000000E+00  0.00000000E+00 -1.76675393E-01
  0.00000000E+00 -9.29100407E-02  0.00000000E+00  0.00000000E+00 -5.36416370E-02
  0.00000000E+00  0.00000000E+00  0.00000000E+00  0.00000000E+00  0.00000000E+00
  0.00000000E+00  0.00000000E+00  0.00000000E+00  0.00000000E+00  0.00000000E+00
  0.00000000E+00  0.00000000E+00  0.00000000E+00  0.00000000E+00  0.00000000E+00
  0.00000000E+00  0.00000000E+00  0.00000000E+00  0.00000000E+00  0.00000000E+00
  0.00000000E+00  0.00000000E+00  4.73944039E-01  0.00000000E+00  0.00000000E+00
  8.12491169E-01  0.00000000E+00  0.00000000E+00  0.00000000E+00  0.00000000E+00
  0.00000000E+00  0.00000000E+00  0.00000000E+00  0.00000000E+00  0.00000000E+00
  0.00000000E+00  0.00000000E+00  0.00000000E+00  0.00000000E+00  0.00000000E+00
  0.00000000E+00  0.00000000E+00  0.00000000E+00  0.00000000E+00  0.00000000E+00
  0.00000000E+00  0.00000000E+00  0.00000000E+00  0.00000000E+00  0.00000000E+00
  0.00000000E+00 -6.92202013E-02  0.00000000E+00  0.00000000E+00  0.00000000E+00
  0.00000000E+00 -2.20554542E-01  0.00000000E+00  0.00000000E+00  0.00000000E+00
  0.00000000E+00 -1.76675393E-01  0.00000000E+00  0.00000000E+00  0.00000000E+00
  0.00000000E+00 -5.36416370E-02  0.00000000E+00  0.00000000E+00  0.00000000E+00
  0.00000000E+00  0.00000000E+00  0.00000000E+00  0.00000000E+00  0.00000000E+00
  0.00000000E+00  0.00000000E+00  0.00000000E+00  0.00000000E+00  0.00000000E+00
  0.00000000E+00  0.00000000E+00  0.00000000E+00  0.00000000E+00  0.00000000E+00
  0.00000000E+00  0.00000000E+00  0.00000000E+00  0.00000000E+00  0.00000000E+00
  0.00000000E+00  0.00000000E+00  8.12491169E-01  0.00000000E+00  0.00000000E+00
  0.00000000E+00  0.00000000E+00  0.00000000E+00  0.00000000E+00  0.00000000E+00
  0.00000000E+00  0.00000000E+00  0.00000000E+00  0.00000000E+00  0.00000000E+00
  0.00000000E+00  0.00000000E+00  0.00000000E+00  0.00000000E+00  0.00000000E+00
  0.00000000E+00  0.00000000E+00  0.00000000E+00  0.00000000E+00  0.00000000E+00
 -1.29499139E-01  0.00000000E+00  0.00000000E+00  0.00000000E+00  0.00000000E+00
 -4.12619765E-01  0.00000000E+00  0.00000000E+00  0.00000000E+00  0.00000000E+00
 -3.30529396E-01  0.00000000E+00  0.00000000E+00  0.00000000E+00  0.00000000E+00
 -1.00354314E-01  0.00000000E+00  0.00000000E+00  0.00000000E+00  0.00000000E+00
  0.00000000E+00  0.00000000E+00  0.00000000E+00  0.00000000E+00  0.00000000E+00
  0.00000000E+00  0.00000000E+00  0.00000000E+00  0.00000000E+00  0.00000000E+00
  0.00000000E+00  0.00000000E+00  0.00000000E+00  0.00000000E+00  0.00000000E+00
  0.00000000E+00  0.00000000E+00  0.00000000E+00  0.00000000E+00  0.00000000E+00
  0.00000000E+00  2.80389075E-01  0.00000000E+00  0.00000000E+00  0.00000000E+00
  9.89119683E-01  0.00000000E+00  0.00000000E+00  0.00000000E+00  0.00000000E+00
  0.00000000E+00  0.00000000E+00  0.00000000E+00  0.00000000E+00  0.00000000E+00
  0.00000000E+00  0.00000000E+00  0.00000000E+00  0.00000000E+00  0.00000000E+00
  0.00000000E+00  0.00000000E+00  0.00000000E+00  0.00000000E+00  0.00000000E+00
  0.00000000E+00  0.00000000E+00  0.00000000E+00  0.00000000E+00 -1.29499139E-01
  0.00000000E+00  0.00000000E+00  0.00000000E+00  0.00000000E+00 -4.12619765E-01
  0.00000000E+00  0.00000000E+00  0.00000000E+00  0.00000000E+00 -3.30529396E-01
  0.00000000E+00  0.00000000E+00  0.00000000E+00  0.00000000E+00 -1.00354314E-01
  0.00000000E+00  0.00000000E+00  0.00000000E+00  0.00000000E+00  0.00000000E+00
  0.00000000E+00  0.00000000E+00  0.00000000E+00  0.00000000E+00  0.00000000E+00
  0.00000000E+00  0.00000000E+00  0.00000000E+00  0.00000000E+00  0.00000000E+00
  0.00000000E+00  0.00000000E+00  0.00000000E+00  0.00000000E+00  0.00000000E+00
  0.00000000E+00  0.00000000E+00  0.00000000E+00  0.00000000E+00  0.00000000E+00
  2.80389075E-01  0.00000000E+00  0.00000000E+00  0.00000000E+00  9.89119683E-01
 -2.58928535E-18 -1.45780567E-19 -5.23589353E-17 -7.54324043E-17  6.53119362E-17
  8.61217483E-17  0.00000000E+00  0.00000000E+00  0.00000000E+00  0.00000000E+00
  0.00000000E+00  0.00000000E+00  0.00000000E+00  0.00000000E+00  0.00000000E+00
  0.00000000E+00  0.00000000E+00  0.00000000E+00  0.00000000E+00  0.00000000E+00
  0.00000000E+00 -3.59846918E-17  0.00000000E+00  0.00000000E+00 -1.83139438E-01
  0.00000000E+00 -1.76429178E-17  0.00000000E+00  0.00000000E+00 -5.83532468E-01
  0.00000000E+00 -1.24682260E-16  0.00000000E+00  0.00000000E+00 -4.67439154E-01
  0.00000000E+00  1.42063230E-17  0.00000000E+00  0.00000000E+00 -1.41922431E-01
  0.00000000E+00  0.00000000E+00  0.00000000E+00  0.00000000E+00  0.00000000E+00
  0.00000000E+00  0.00000000E+00  0.00000000E+00  0.00000000E+00  0.00000000E+00
  0.00000000E+00  0.00000000E+00  0.00000000E+00  0.00000000E+00  0.00000000E+00
  0.00000000E+00  0.00000000E+00  0.00000000E+00  0.00000000E+00  0.00000000E+00
  0.00000000E+00  0.00000000E+00 -1.87298034E-16  0.00000000E+00  0.00000000E+00
  1.86926050E-01  0.00000000E+00  0.00000000E+00  0.00000000E+00  1.23639960E+00
  0.00000000E+00  0.00000000E+00  0.00000000E+00  0.00000000E+00  0.00000000E+00
  0.00000000E+00  0.00000000E+00  0.00000000E+00  0.00000000E+00  0.00000000E+00
  0.00000000E+00  0.00000000E+00  0.00000000E+00  0.00000000E+00  0.00000000E+00
  0.00000000E+00  0.00000000E+00  0.00000000E+00  0.00000000E+00  0.00000000E+00
  0.00000000E+00  0.00000000E+00  0.00000000E+00  0.00000000E+00  0.00000000E+00
 -1.83139438E-01  0.00000000E+00  0.00000000E+00  0.00000000E+00  0.00000000E+00
 -5.83532468E-01  0.00000000E+00  0.00000000E+00  0.00000000E+00  0.00000000E+00
 -4.67439154E-01  0.00000000E+00  0.00000000E+00  0.00000000E+00  0.00000000E+00
 -1.41922431E-01  0.00000000E+00  0.00000000E+00  0.00000000E+00  0.00000000E+00
  0.00000000E+00  0.00000000E+00  0.00000000E+00  0.00000000E+00  0.00000000E+00
  0.00000000E+00  0.00000000E+00  0.00000000E+00  0.00000000E+00  0.00000000E+00
  0.00000000E+00  0.00000000E+00  0.00000000E+00  0.00000000E+00  0.00000000E+00
  0.00000000E+00  0.00000000E+00  0.00000000E+00  0.00000000E+00  0.00000000E+00
  0.00000000E+00  1.86926050E-01  0.00000000E+00  0.00000000E+00  0.00000000E+00
  1.23639960E+00 -2.16840434E-19  5.42101086E-19 -2.77555756E-17  2.22044605E-16
  1.11022302E-16 -5.55111512E-17  0.00000000E+00  0.00000000E+00  0.00000000E+00
  0.00000000E+00  0.00000000E+00  0.00000000E+00  0.00000000E+00  0.00000000E+00
  0.00000000E+00  0.00000000E+00  0.00000000E+00  0.00000000E+00  0.00000000E+00
  0.00000000E+00  0.00000000E+00 -3.47905234E-02  0.00000000E+00  0.00000000E+00
 -1.00431590E-02  0.00000000E+00 -3.45229634E-01  0.00000000E+00  0.00000000E+00
 -9.96592109E-02  0.00000000E+00 -8.57042827E-01  0.00000000E+00  0.00000000E+00
 -2.47406953E-01  0.00000000E+00 -5.43474306E-01  0.00000000E+00  0.00000000E+00
 -1.56887518E-01  0.00000000E+00  0.00000000E+00  0.00000000E+00  0.00000000E+00
  0.00000000E+00  0.00000000E+00  0.00000000E+00  0.00000000E+00  0.00000000E+00
  0.00000000E+00  0.00000000E+00  0.00000000E+00  0.00000000E+00  0.00000000E+00
  0.00000000E+00  0.00000000E+00  0.00000000E+00  0.00000000E+00  0.00000000E+00
  0.00000000E+00  0.00000000E+00  0.00000000E+00  5.71577294E-01  0.00000000E+00
  0.00000000E+00  4.03606005E-01  0.00000000E+00  0.00000000E+00  0.00000000E+00
  9.14735112E-17  0.00000000E+00  1.60040431E+00  0.00000000E+00  0.00000000E+00
  0.00000000E+00  0.00000000E+00  0.00000000E+00  0.00000000E+00  0.00000000E+00
  0.00000000E+00  0.00000000E+00  0.00000000E+00  0.00000000E+00  0.00000000E+00
  0.00000000E+00  0.00000000E+00  0.00000000E+00  0.00000000E+00  0.00000000E+00
  0.00000000E+00  0.00000000E+00  0.00000000E+00  0.00000000E+00  0.00000000E+00
 -1.58796287E-02  0.00000000E+00  0.00000000E+00  0.00000000E+00  0.00000000E+00
 -1.57575048E-01  0.00000000E+00  0.00000000E+00  0.00000000E+00  0.00000000E+00
 -3.91184741E-01  0.00000000E+00  0.00000000E+00  0.00000000E+00  0.00000000E+00
 -2.48060947E-01  0.00000000E+00  0.00000000E+00  0.00000000E+00  0.00000000E+00
  0.00000000E+00  0.00000000E+00  0.00000000E+00  0.00000000E+00  0.00000000E+00
  0.00000000E+00  0.00000000E+00  0.00000000E+00  0.00000000E+00  0.00000000E+00
  0.00000000E+00  0.00000000E+00  0.00000000E+00  0.00000000E+00  0.00000000E+00
  0.00000000E+00  0.00000000E+00  0.00000000E+00  0.00000000E+00  0.00000000E+00
  0.00000000E+00  3.00830155E-01  0.00000000E+00  0.00000000E+00  0.00000000E+00
  2.38776533E-01  0.00000000E+00  0.00000000E+00  0.00000000E+00  0.00000000E+00
  8.42318059E-01  0.00000000E+00  0.00000000E+00  0.00000000E+00  0.00000000E+00
  0.00000000E+00  0.00000000E+00  0.00000000E+00  0.00000000E+00  0.00000000E+00
  0.00000000E+00  0.00000000E+00  0.00000000E+00  0.00000000E+00  0.00000000E+00
  0.00000000E+00  0.00000000E+00  0.00000000E+00  0.00000000E+00  0.00000000E+00
  0.00000000E+00  0.00000000E+00  0.00000000E+00  0.00000000E+00 -4.76388861E-02
  0.00000000E+00  0.00000000E+00  0.00000000E+00  0.00000000E+00 -4.72725145E-01
  0.00000000E+00  0.00000000E+00  0.00000000E+00  0.00000000E+00 -1.17355422E+00
  0.00000000E+00  0.00000000E+00  0.00000000E+00  0.00000000E+00 -7.44182842E-01
  0.00000000E+00  0.00000000E+00  0.00000000E+00  0.00000000E+00  0.00000000E+00
  0.00000000E+00  0.00000000E+00  0.00000000E+00  0.00000000E+00  0.00000000E+00
  0.00000000E+00  0.00000000E+00  0.00000000E+00  0.00000000E+00  0.00000000E+00
  0.00000000E+00  0.00000000E+00  0.00000000E+00  0.00000000E+00  0.00000000E+00
  0.00000000E+00  0.00000000E+00  0.00000000E+00  0.00000000E+00  0.00000000E+00
  9.02490464E-01  0.00000000E+00  0.00000000E+00  0.00000000E+00  2.38776533E-01
  0.00000000E+00  0.00000000E+00  0.00000000E+00  0.00000000E+00  2.52695418E+00
  1.65337792E-19  1.04240448E-19  2.73374593E-17  2.72074526E-16  1.62578780E-16
 -2.19597161E-16  0.00000000E+00  0.00000000E+00  0.00000000E+00  0.00000000E+00
  0.00000000E+00  0.00000000E+00  0.00000000E+00  0.00000000E+00  0.00000000E+00
  0.00000000E+00  0.00000000E+00  0.00000000E+00  0.00000000E+00  0.00000000E+00
  0.00000000E+00 -3.88969876E-02  0.00000000E+00  0.00000000E+00 -2.24571863E-02
  0.00000000E+00 -3.85978464E-01  0.00000000E+00  0.00000000E+00 -2.22844770E-01
  0.00000000E+00 -9.58203010E-01  0.00000000E+00  0.00000000E+00 -5.53218766E-01
  0.00000000E+00 -6.07622746E-01  0.00000000E+00  0.00000000E+00 -3.50811156E-01
  0.00000000E+00  0.00000000E+00  0.00000000E+00  0.00000000E+00  0.00000000E+00
  0.00000000E+00  0.00000000E+00  0.00000000E+00  0.00000000E+00  0.00000000E+00
  0.00000000E+00  0.00000000E+00  0.00000000E+00  0.00000000E+00  0.00000000E+00
  0.00000000E+00  0.00000000E+00  0.00000000E+00  0.00000000E+00  0.00000000E+00
  0.00000000E+00  0.00000000E+00  4.03606005E-01  0.00000000E+00  0.00000000E+00
  6.91909356E-01  0.00000000E+00  0.00000000E+00  0.00000000E+00  1.59184355E-01
  0.00000000E+00  1.13008826E+00  0.00000000E+00  0.00000000E+00  1.93733154E+00
  0.00000000E+00  0.00000000E+00  0.00000000E+00  0.00000000E+00  0.00000000E+00
  0.00000000E+00  0.00000000E+00  0.00000000E+00  0.00000000E+00  0.00000000E+00
  0.00000000E+00  0.00000000E+00  0.00000000E+00  0.00000000E+00  0.00000000E+00
  0.00000000E+00  0.00000000E+00  0.00000000E+00  0.00000000E+00  0.00000000E+00
  0.00000000E+00  0.00000000E+00  0.00000000E+00  0.00000000E+00  0.00000000E+00
 -2.24571863E-02  0.00000000E+00  0.00000000E+00  0.00000000E+00  0.00000000E+00
 -2.22844770E-01  0.00000000E+00  0.00000000E+00  0.00000000E+00  0.00000000E+00
 -5.53218766E-01  0.00000000E+00  0.00000000E+00  0.00000000E+00  0.00000000E+00
 -3.50811156E-01  0.00000000E+00  0.00000000E+00  0.00000000E+00  0.00000000E+00
  0.00000000E+00  0.00000000E+00  0.00000000E+00  0.00000000E+00  0.00000000E+00
  0.00000000E+00  0.00000000E+00  0.00000000E+00  0.00000000E+00  0.00000000E+00
  0.00000000E+00  0.00000000E+00  0.00000000E+00  0.00000000E+00  0.00000000E+00
  0.00000000E+00  0.00000000E+00  0.00000000E+00  0.00000000E+00  0.00000000E+00
  0.00000000E+00  6.91909356E-01  0.00000000E+00  0.00000000E+00  0.00000000E+00
  1.59184355E-01  0.00000000E+00  0.00000000E+00  0.00000000E+00  0.00000000E+00
  1.93733154E+00  0.00000000E+00  0.00000000E+00  0.00000000E+00  0.00000000E+00
  0.00000000E+00  0.00000000E+00  0.00000000E+00  0.00000000E+00  0.00000000E+00
  0.00000000E+00  0.00000000E+00  0.00000000E+00  0.00000000E+00  0.00000000E+00
  0.00000000E+00  0.00000000E+00  0.00000000E+00  0.00000000E+00  0.00000000E+00
  0.00000000E+00  0.00000000E+00  0.00000000E+00 -4.20135484E-02  0.00000000E+00
  0.00000000E+00  0.00000000E+00  0.00000000E+00 -4.16904390E-01  0.00000000E+00
  0.00000000E+00  0.00000000E+00  0.00000000E+00 -1.03497754E+00  0.00000000E+00
  0.00000000E+00  0.00000000E+00  0.00000000E+00 -6.56307577E-01  0.00000000E+00
  0.00000000E+00  0.00000000E+00  0.00000000E+00  0.00000000E+00  0.00000000E+00
  0.00000000E+00  0.00000000E+00  0.00000000E+00  0.00000000E+00  0.00000000E+00
  0.00000000E+00  0.00000000E+00  0.00000000E+00  0.00000000E+00  0.00000000E+00
  0.00000000E+00  0.00000000E+00  0.00000000E+00  0.00000000E+00  0.00000000E+00
  0.00000000E+00  0.00000000E+00  0.00000000E+00  0.00000000E+00  2.38776533E-01
  0.00000000E+00  0.00000000E+00  0.00000000E+00  8.42324433E-01  0.00000000E+00
  0.00000000E+00  0.00000000E+00  0.00000000E+00  6.68569233E-01  0.00000000E+00
  0.00000000E+00  0.00000000E+00  2.35849057E+00  0.00000000E+00  0.00000000E+00
  0.00000000E+00  0.00000000E+00  0.00000000E+00  0.00000000E+00  0.00000000E+00
  0.00000000E+00  0.00000000E+00  0.00000000E+00  0.00000000E+00  0.00000000E+00
  0.00000000E+00  0.00000000E+00  0.00000000E+00  0.00000000E+00  0.00000000E+00
  0.00000000E+00  0.00000000E+00  0.00000000E+00  0.00000000E+00  0.00000000E+00
  0.00000000E+00 -4.20135484E-02  0.00000000E+00  0.00000000E+00  0.00000000E+00
  0.00000000E+00 -4.16904390E-01  0.00000000E+00  0.00000000E+00  0.00000000E+00
  0.00000000E+00 -1.03497754E+00  0.00000000E+00  0.00000000E+00  0.00000000E+00
  0.00000000E+00 -6.56307577E-01  0.00000000E+00  0.00000000E+00  0.00000000E+00
  0.00000000E+00  0.00000000E+00  0.00000000E+00  0.00000000E+00  0.00000000E+00
  0.00000000E+00  0.00000000E+00  0.00000000E+00  0.00000000E+00  0.00000000E+00
  0.00000000E+00  0.00000000E+00  0.00000000E+00  0.00000000E+00  0.00000000E+00
  0.00000000E+00  0.00000000E+00  0.00000000E+00  0.00000000E+00  0.00000000E+00
  0.00000000E+00  0.00000000E+00  2.38776533E-01  0.00000000E+00  0.00000000E+00
  0.00000000E+00  8.42324433E-01  0.00000000E+00  0.00000000E+00  0.00000000E+00
  0.00000000E+00  6.68569233E-01  0.00000000E+00  0.00000000E+00  0.00000000E+00
  2.35849057E+00 -6.76381701E-20 -7.43999518E-20  9.22307115E-19  1.73899319E-16
  2.84779595E-16 -1.00544191E-16  0.00000000E+00  0.00000000E+00  0.00000000E+00
  0.00000000E+00  0.00000000E+00  0.00000000E+00  0.00000000E+00  0.00000000E+00
  0.00000000E+00  0.00000000E+00  0.00000000E+00  0.00000000E+00  0.00000000E+00
  0.00000000E+00  0.00000000E+00 -2.94852026E-18  0.00000000E+00  0.00000000E+00
 -5.94161300E-02  0.00000000E+00  2.40248911E-17  0.00000000E+00  0.00000000E+00
 -5.89591843E-01  0.00000000E+00  2.12828151E-16  0.00000000E+00  0.00000000E+00
 -1.46367928E+00  0.00000000E+00 -3.92940770E-18  0.00000000E+00  0.00000000E+00
 -9.28159076E-01  0.00000000E+00  0.00000000E+00  0.00000000E+00  0.00000000E+00
  0.00000000E+00  0.00000000E+00  0.00000000E+00  0.00000000E+00  0.00000000E+00
  0.00000000E+00  0.00000000E+00  0.00000000E+00  0.00000000E+00  0.00000000E+00
  0.00000000E+00  0.00000000E+00  0.00000000E+00  0.00000000E+00  0.00000000E+00
  0.00000000E+00  0.00000000E+00  0.00000000E+00  1.37049960E-16  0.00000000E+00
  0.00000000E+00  1.59184355E-01  0.00000000E+00  0.00000000E+00  0.00000000E+00
  1.05290554E+00  0.00000000E+00  4.41456095E-16  0.00000000E+00  0.00000000E+00
  4.45712822E-01  0.00000000E+00  0.00000000E+00  0.00000000E+00  2.94811321E+00
  0.00000000E+00  0.00000000E+00  0.00000000E+00  0.00000000E+00  0.00000000E+00
  0.00000000E+00  0.00000000E+00  0.00000000E+00  0.00000000E+00  0.00000000E+00
  0.00000000E+00  0.00000000E+00  0.00000000E+00  0.00000000E+00  0.00000000E+00
  0.00000000E+00  0.00000000E+00  0.00000000E+00  0.00000000E+00  0.00000000E+00
  0.00000000E+00  0.00000000E+00  0.00000000E+00  0.00000000E+00  0.00000000E+00
 -5.94161300E-02  0.00000000E+00  0.00000000E+00  0.00000000E+00  0.00000000E+00
 -5.89591843E-01  0.00000000E+00  0.00000000E+00  0.00000000E+00  0.00000000E+00
 -1.46367928E+00  0.00000000E+00  0.00000000E+00  0.00000000E+00  0.00000000E+00
 -9.28159076E-01  0.00000000E+00  0.00000000E+00  0.00000000E+00  0.00000000E+00
  0.00000000E+00  0.00000000E+00  0.00000000E+00  0.00000000E+00  0.00000000E+00
  0.00000000E+00  0.00000000E+00  0.00000000E+00  0.00000000E+00  0.00000000E+00
  0.00000000E+00  0.00000000E+00  0.00000000E+00  0.00000000E+00  0.00000000E+00
  0.00000000E+00  0.00000000E+00  0.00000000E+00  0.00000000E+00  0.00000000E+00
  0.00000000E+00  1.59184355E-01  0.00000000E+00  0.00000000E+00  0.00000000E+00
  1.05290554E+00  0.00000000E+00  0.00000000E+00  0.00000000E+00  0.00000000E+00
  4.45712822E-01  0.00000000E+00  0.00000000E+00  0.00000000E+00  2.94811321E+00
Multipole Matrix (1,0,1)                   R   N=        3240
  0.00000000E+00  0.00000000E+00  0.00000000E+00  0.00000000E+00  0.00000000E+00
  0.00000000E+00  0.00000000E+00  0.00000000E+00  0.00000000E+00  0.00000000E+00
  0.00000000E+00  0.00000000E+00  0.00000000E+00  0.00000000E+00  0.00000000E+00
  0.00000000E+00  0.00000000E+00  0.00000000E+00  0.00000000E+00  0.00000000E+00
  0.00000000E+00  0.00000000E+00  0.00000000E+00  0.00000000E+00  0.00000000E+00
  0.00000000E+00  0.00000000E+00  0.00000000E+00  0.00000000E+00  0.00000000E+00
  0.00000000E+00  0.00000000E+00  0.00000000E+00  0.00000000E+00  0.00000000E+00
  0.00000000E+00 -9.11488620E-18  1.10549305E-17 -1.97710653E-17 -1.42299406E-17
 -8.17977070E-18 -4.18119275E-18  8.73744832E-02  0.00000000E+00  0.00000000E+00
  0.00000000E+00  0.00000000E+00  0.00000000E+00  0.00000000E+00  0.00000000E+00
  0.00000000E+00  0.00000000E+00  0.00000000E+00  9.69782987E-02  0.00000000E+00
  0.00000000E+00  0.00000000E+00  0.00000000E+00  0.00000000E+00  0.00000000E+00
  0.00000000E+00  0.00000000E+00  0.00000000E+00  0.00000000E+00  0.00000000E+00
  0.00000000E+00 -4.45590950E-18  5.93370032E-18 -3.22619566E-17 -3.74890069E-17
 -2.84069824E-17 -1.64947067E-17  9.69782987E-02  0.00000000E+00  0.00000000E+00
  3.07427447E-01  0.00000000E+00  0.00000000E+00  0.00000000E+00  0.00000000E+00
  0.00000000E+00  0.00000000E+00  0.00000000E+00  0.00000000E+00  0.00000000E+00
  0.00000000E+00  4.94210922E-02  0.00000000E+00  0.00000000E+00  3.29232414E-01
  0.00000000E+00  0.00000000E+00  0.00000000E+00  0.00000000E+00  0.00000000E+00
  0.00000000E+00  0.00000000E+00  0.00000000E+00  0.00000000E+00  0.00000000E+00
  0.00000000E+00  0.00000000E+00  0.00000000E+00  0.00000000E+00  0.00000000E+00
 -1.70213538E-18  2.32991363E-18 -2.48716520E-17 -5.14960044E-17 -6.32283279E-17
 -4.86885165E-17  4.94210922E-02  0.00000000E+00  0.00000000E+00  3.29232414E-01
  0.00000000E+00  0.00000000E+00  8.65051903E-01  0.00000000E+00  0.00000000E+00
  0.00000000E+00  0.00000000E+00  0.00000000E+00  0.00000000E+00  0.00000000E+00
  0.00000000E+00  0.00000000E+00  0.00000000E+00  1.70519743E-02  0.00000000E+00
  0.00000000E+00  1.69798236E-01  0.00000000E+00  0.00000000E+00  9.20232813E-01
  0.00000000E+00  0.00000000E+00  0.00000000E+00  0.00000000E+00  0.00000000E+00
  0.00000000E+00  0.00000000E+00  0.00000000E+00  0.00000000E+00  0.00000000E+00
  0.00000000E+00  0.00000000E+00  0.00000000E+00  0.00000000E+00  0.00000000E+00
  0.00000000E+00  0.00000000E+00  0.00000000E+00 -5.22441664E-19  7.22844214E-19
 -1.10630192E-17 -3.68192174E-17 -8.30199984E-17 -1.07396050E-16  1.70519743E-02
  0.00000000E+00  0.00000000E+00  1.69798236E-01  0.00000000E+00  0.00000000E+00
  9.20232813E-01  0.00000000E+00  0.00000000E+00  2.48262165E+00  0.00000000E+00
  0.00000000E+00  0.00000000E+00  0.00000000E+00  0.00000000E+00  0.00000000E+00
  0.00000000E+00  0.00000000E+00  0.00000000E+00  0.00000000E+00  4.51572766E-03
  0.00000000E+00  0.00000000E+00  5.35910621E-02  0.00000000E+00  0.00000000E+00
  4.35040930E-01  0.00000000E+00  0.00000000E+00  2.55685273E+00  0.00000000E+00
  0.00000000E+00  0.00000000E+00  0.00000000E+00  0.00000000E+00  0.00000000E+00
  0.00000000E+00  0.00000000E+00  0.00000000E+00  0.00000000E+00  0.00000000E+00
  0.00000000E+00  0.00000000E+00  0.00000000E+00  0.00000000E+00  0.00000000E+00
  0.00000000E+00  0.00000000E+00  0.00000000E+00  0.00000000E+00  0.00000000E+00
 -1.32309084E-19  1.83797968E-19 -3.29150273E-18 -1.43165132E-17 -5.29943280E-17
 -1.33633141E-16  4.51572766E-03  0.00000000E+00  0.00000000E+00  5.35910621E-02
  0.00000000E+00  0.00000000E+00  4.35040930E-01  0.00000000E+00  0.00000000E+00
  2.55685273E+00  0.00000000E+00  0.00000000E+00  7.76880050E+00  0.00000000E+00
  0.00000000E+00  0.00000000E+00  0.00000000E+00  0.00000000E+00  0.00000000E+00
  0.00000000E+00  0.00000000E+00  0.00000000E+00  0.00000000E+00 -1.80653877E-17
  0.00000000E+00  0.00000000E+00 -2.66764752E-17  0.00000000E+00  0.00000000E+00
 -1.57746419E-17  0.00000000E+00  0.00000000E+00 -5.83220020E-18  0.00000000E+00
  0.00000000E+00 -1.58831846E-18  0.00000000E+00  3.10930552E-02 -4.31673614E-02
  2.37400054E-01  2.29219018E-01  1.51481942E-01  8.20810538E-02 -1.56450847E-17
  0.00000000E+00  0.00000000E+00 -2.31025052E-17  0.00000000E+00  0.00000000E+00
 -1.36612406E-17  0.00000000E+00  0.00000000E+00 -5.05083354E-18  0.00000000E+00
  0.00000000E+00 -1.37552413E-18  0.00000000E+00  0.00000000E+00  7.81047442E-02
  0.00000000E+00  0.00000000E+00  0.00000000E+00  0.00000000E+00  0.00000000E+00
  0.00000000E+00  0.00000000E+00  0.00000000E+00 -1.56450847E-17  0.00000000E+00
  0.00000000E+00 -2.31025052E-17  0.00000000E+00  0.00000000E+00 -1.36612406E-17
  0.00000000E+00  0.00000000E+00 -5.05083354E-18  0.00000000E+00  0.00000000E+00
 -1.37552413E-18  0.00000000E+00  0.00000000E+00  0.00000000E+00  0.00000000E+00
  0.00000000E+00  0.00000000E+00  0.00000000E+00  0.00000000E+00  0.00000000E+00
  0.00000000E+00  0.00000000E+00  0.00000000E+00 -2.31747490E-34  0.00000000E+00
  0.00000000E+00  4.32219985E-34  0.00000000E+00  0.00000000E+00  1.51131322E-34
  0.00000000E+00  0.00000000E+00  1.42662965E-34  0.00000000E+00  0.00000000E+00
 -1.72942546E-35  0.00000000E+00  1.35281385E-01  0.00000000E+00  0.00000000E+00
  0.00000000E+00  0.00000000E+00  0.00000000E+00  0.00000000E+00  0.00000000E+00
  0.00000000E+00  0.00000000E+00  0.00000000E+00  0.00000000E+00  0.00000000E+00
  0.00000000E+00  0.00000000E+00  0.00000000E+00  0.00000000E+00  0.00000000E+00
  0.00000000E+00  0.00000000E+00  0.00000000E+00  0.00000000E+00  0.00000000E+00
  0.00000000E+00  0.00000000E+00  0.00000000E+00  1.35281385E-01  0.00000000E+00
  0.00000000E+00  0.00000000E+00  0.00000000E+00  0.00000000E+00  0.00000000E+00
  0.00000000E+00  0.00000000E+00  0.00000000E+00  0.00000000E+00 -9.06135373E-18
  0.00000000E+00  0.00000000E+00 -3.47596820E-17  0.00000000E+00  0.00000000E+00
 -4.51092057E-17  0.00000000E+00  0.00000000E+00 -2.64565592E-17  0.00000000E+00
  0.00000000E+00 -8.89034781E-18  0.00000000E+00  7.30781564E-02  0.00000000E+00
  0.00000000E+00  0.00000000E+00  0.00000000E+00  1.30447357E-02 -1.89953178E-02
  3.37586336E-01  6.53422477E-01  6.67131110E-01  4.45814095E-01 -7.84736252E-18
  0.00000000E+00  0.00000000E+00 -3.01027677E-17  0.00000000E+00  0.00000000E+00
 -3.90657181E-17  0.00000000E+00  0.00000000E+00 -2.29120524E-17  0.00000000E+00
  0.00000000E+00 -7.69926705E-18  0.00000000E+00  0.00000000E+00  7.30781564E-02
  0.00000000E+00  0.00000000E+00  1.26575080E-01  0.00000000E+00  2.22399950E-01
  0.00000000E+00  0.00000000E+00  0.00000000E+00  0.00000000E+00  0.00000000E+00
  0.00000000E+00  0.00000000E+00  0.00000000E+00 -7.84736252E-18  0.00000000E+00
  0.00000000E+00 -3.01027677E-17  0.00000000E+00  0.00000000E+00 -3.90657181E-17
  0.00000000E+00  0.00000000E+00 -2.29120524E-17  0.00000000E+00  0.00000000E+00
 -7.69926705E-18  0.00000000E+00  0.00000000E+00  0.00000000E+00  0.00000000E+00
  0.00000000E+00  1.26575080E-01  0.00000000E+00  0.00000000E+00  0.00000000E+00
  0.00000000E+00  0.00000000E+00  0.00000000E+00  0.00000000E+00  0.00000000E+00
  0.00000000E+00  0.00000000E+00  0.00000000E+00  1.61595814E-35  0.00000000E+00
  0.00000000E+00 -9.24098280E-35  0.00000000E+00  0.00000000E+00  1.35174530E-34
  0.00000000E+00  0.00000000E+00 -1.30316039E-34  0.00000000E+00  0.00000000E+00
 -2.84738454E-34  0.00000000E+00  1.26575080E-01  0.00000000E+00  0.00000000E+00
  0.00000000E+00  0.00000000E+00  3.85208012E-01  0.00000000E+00  0.00000000E+00
  0.00000000E+00  0.00000000E+00  0.00000000E+00  0.00000000E+00  0.00000000E+00
  0.00000000E+00  0.00000000E+00  0.00000000E+00  0.00000000E+00  0.00000000E+00
  0.00000000E+00  0.00000000E+00  0.00000000E+00  0.00000000E+00  0.00000000E+00
  0.00000000E+00  0.00000000E+00  0.00000000E+00  0.00000000E+00  0.00000000E+00
  0.00000000E+00  0.00000000E+00  0.00000000E+00  1.26575080E-01  0.00000000E+00
  0.00000000E+00  0.00000000E+00  0.00000000E+00  3.85208012E-01  0.00000000E+00
  0.00000000E+00  0.00000000E+00  0.00000000E+00  0.00000000E+00  0.00000000E+00
  0.00000000E+00  0.00000000E+00  0.00000000E+00  0.00000000E+00 -2.43696953E-18
  0.00000000E+00  0.00000000E+00 -1.82889060E-17  0.00000000E+00  0.00000000E+00
 -5.81722654E-17  0.00000000E+00  0.00000000E+00 -7.59973498E-17  0.00000000E+00
  0.00000000E+00 -4.13841882E-17  0.00000000E+00  2.68909234E-02  0.00000000E+00
  0.00000000E+00  0.00000000E+00  0.00000000E+00  2.08127944E-01  0.00000000E+00
  0.00000000E+00  0.00000000E+00  0.00000000E+00  3.25295211E-03 -4.82129475E-03
  1.92480601E-01  8.38822200E-01  1.80330529E+00  1.92486697E+00 -2.11047752E-18
  0.00000000E+00  0.00000000E+00 -1.58386572E-17  0.00000000E+00  0.00000000E+00
 -5.03786596E-17  0.00000000E+00  0.00000000E+00 -6.58156356E-17  0.00000000E+00
  0.00000000E+00 -3.58397583E-17  0.00000000E+00  0.00000000E+00  2.68909234E-02
  0.00000000E+00  0.00000000E+00  4.65764455E-02  0.00000000E+00  2.08127944E-01
  0.00000000E+00  0.00000000E+00  3.60488173E-01  0.00000000E+00  6.33059506E-01
  0.00000000E+00  0.00000000E+00  0.00000000E+00  0.00000000E+00  0.00000000E+00
  0.00000000E+00  0.00000000E+00  0.00000000E+00 -2.11047752E-18  0.00000000E+00
  0.00000000E+00 -1.58386572E-17  0.00000000E+00  0.00000000E+00 -5.03786596E-17
  0.00000000E+00  0.00000000E+00 -6.58156356E-17  0.00000000E+00  0.00000000E+00
 -3.58397583E-17  0.00000000E+00  0.00000000E+00  0.00000000E+00  0.00000000E+00
  0.00000000E+00  4.65764455E-02  0.00000000E+00  0.00000000E+00  0.00000000E+00
  0.00000000E+00  3.60488173E-01  0.00000000E+00  0.00000000E+00  0.00000000E+00
  0.00000000E+00  0.00000000E+00  0.00000000E+00  0.00000000E+00  0.00000000E+00
  0.00000000E+00  0.00000000E+00  0.00000000E+00 -5.49048179E-35  0.00000000E+00
  0.00000000E+00 -6.90142505E-35  0.00000000E+00  0.00000000E+00  5.87395141E-34
  0.00000000E+00  0.00000000E+00  2.55136600E-33  0.00000000E+00  0.00000000E+00
 -1.15346092E-33  0.00000000E+00  4.65764455E-02  0.00000000E+00  0.00000000E+00
  0.00000000E+00  0.00000000E+00  3.60488173E-01  0.00000000E+00  0.00000000E+00
  0.00000000E+00  0.00000000E+00  1.09649123E+00  0.00000000E+00  0.00000000E+00
  0.00000000E+00  0.00000000E+00  0.00000000E+00  0.00000000E+00  0.00000000E+00
  0.00000000E+00  0.00000000E+00  0.00000000E+00  0.00000000E+00  0.00000000E+00
  0.00000000E+00  0.00000000E+00  0.00000000E+00  0.00000000E+00  0.00000000E+00
  0.00000000E+00  0.00000000E+00  0.00000000E+00  0.00000000E+00  0.00000000E+00
  0.00000000E+00  0.00000000E+00  0.00000000E+00  4.65764455E-02  0.00000000E+00
  0.00000000E+00  0.00000000E+00  0.00000000E+00  3.60488173E-01  0.00000000E+00
  0.00000000E+00  0.00000000E+00  0.00000000E+00  1.09649123E+00  0.00000000E+00
  0.00000000E+00  0.00000000E+00  0.00000000E+00  0.00000000E+00  0.00000000E+00
  0.00000000E+00  0.00000000E+00  0.00000000E+00  0.00000000E+00 -4.44622932E-19
  0.00000000E+00  0.00000000E+00 -4.69946312E-18  0.00000000E+00  0.00000000E+00
 -2.90018423E-17  0.00000000E+00  0.00000000E+00 -9.77532493E-17  0.00000000E+00
  0.00000000E+00 -1.29833211E-16  0.00000000E+00  5.60545647E-03  0.00000000E+00
  0.00000000E+00  0.00000000E+00  0.00000000E+00  7.23944370E-02  0.00000000E+00
  0.00000000E+00  0.00000000E+00  0.00000000E+00  5.76787906E-01  0.00000000E+00
  0.00000000E+00  0.00000000E+00  0.00000000E+00  5.76319474E-04 -8.59598070E-04
  5.19097648E-02  4.16446865E-01  2.11887790E+00  5.12693453E+00 -3.85054754E-19
  0.00000000E+00  0.00000000E+00 -4.06985445E-18  0.00000000E+00  0.00000000E+00
 -2.51163322E-17  0.00000000E+00  0.00000000E+00 -8.46567972E-17  0.00000000E+00
  0.00000000E+00 -1.12438859E-16  0.00000000E+00  0.00000000E+00  5.60545647E-03
  0.00000000E+00  0.00000000E+00  9.70893540E-03  0.00000000E+00  7.23944370E-02
  0.00000000E+00  0.00000000E+00  1.25390843E-01  0.00000000E+00  5.76787906E-01
  0.00000000E+00  0.00000000E+00  9.99025958E-01  0.00000000E+00  1.88430245E+00
  0.00000000E+00  0.00000000E+00  0.00000000E+00  0.00000000E+00  0.00000000E+00
  0.00000000E+00  0.00000000E+00  0.00000000E+00 -3.85054754E-19  0.00000000E+00
  0.00000000E+00 -4.06985445E-18  0.00000000E+00  0.00000000E+00 -2.51163322E-17
  0.00000000E+00  0.00000000E+00 -8.46567972E-17  0.00000000E+00  0.00000000E+00
 -1.12438859E-16  0.00000000E+00  0.00000000E+00  0.00000000E+00  0.00000000E+00
  0.00000000E+00  9.70893540E-03  0.00000000E+00  0.00000000E+00  0.00000000E+00
  0.00000000E+00  1.25390843E-01  0.00000000E+00  0.00000000E+00  0.00000000E+00
  0.00000000E+00  9.99025958E-01  0.00000000E+00  0.00000000E+00  0.00000000E+00
  0.00000000E+00  0.00000000E+00  0.00000000E+00  0.00000000E+00  0.00000000E+00
  0.00000000E+00  0.00000000E+00  0.00000000E+00 -5.98389695E-36  0.00000000E+00
  0.00000000E+00 -1.54336172E-34  0.00000000E+00  0.00000000E+00 -2.11958692E-34
  0.00000000E+00  0.00000000E+00  4.40540344E-34  0.00000000E+00  0.00000000E+00
  2.52616991E-33  0.00000000E+00  9.70893540E-03  0.00000000E+00  0.00000000E+00
  0.00000000E+00  0.00000000E+00  1.25390843E-01  0.00000000E+00  0.00000000E+00
  0.00000000E+00  0.00000000E+00  9.99025958E-01  0.00000000E+00  0.00000000E+00
  0.00000000E+00  0.00000000E+00  3.26370757E+00  0.00000000E+00  0.00000000E+00
  0.00000000E+00  0.00000000E+00  0.00000000E+00  0.00000000E+00  0.00000000E+00
  0.00000000E+00  0.00000000E+00  0.00000000E+00  0.00000000E+00  0.00000000E+00
  0.00000000E+00  0.00000000E+00  0.00000000E+00  0.00000000E+00  0.00000000E+00
  0.00000000E+00  0.00000000E+00  0.00000000E+00  0.00000000E+00  0.00000000E+00
  0.00000000E+00  0.00000000E+00  0.00000000E+00  9.70893540E-03  0.00000000E+00
  0.00000000E+00  0.00000000E+00  0.00000000E+00  1.25390843E-01  0.00000000E+00
  0.00000000E+00  0.00000000E+00  0.00000000E+00  9.99025958E-01  0.00000000E+00
  0.00000000E+00  0.00000000E+00  0.00000000E+00  3.26370757E+00  0.00000000E+00
  0.00000000E+00  0.00000000E+00 -7.70371978E-34  1.23259516E-32  0.00000000E+00
  0.00000000E+00  0.00000000E+00 -6.05130887E-02  0.00000000E+00  0.00000000E+00
 -2.00474320E-01  0.00000000E+00  0.00000000E+00 -1.83458530E-01  0.00000000E+00
  0.00000000E+00 -8.30782724E-02  0.00000000E+00  0.00000000E+00 -2.45667538E-02
  0.00000000E+00  0.00000000E+00 -2.63414209E-17  0.00000000E+00  0.00000000E+00
 -1.56012958E-33  0.00000000E+00 -3.30394399E-17  0.00000000E+00  0.00000000E+00
  2.72751356E-34  0.00000000E+00 -1.47518554E-17  0.00000000E+00  0.00000000E+00
  4.72305594E-34  0.00000000E+00 -3.37530213E-18  0.00000000E+00  0.00000000E+00
 -9.31433372E-36  0.00000000E+00  0.00000000E+00  0.00000000E+00  0.00000000E+00
  0.00000000E+00  0.00000000E+00  0.00000000E+00  0.00000000E+00  0.00000000E+00
  0.00000000E+00  9.88174600E-02  0.00000000E+00  0.00000000E+00  3.27373194E-01
  0.00000000E+00  0.00000000E+00  2.99586525E-01  0.00000000E+00  0.00000000E+00
  1.35666251E-01  0.00000000E+00  0.00000000E+00  4.01173410E-02  0.00000000E+00
 -2.48349298E-17  0.00000000E+00  0.00000000E+00  0.00000000E+00  0.00000000E+00
 -3.11498826E-17  0.00000000E+00  0.00000000E+00  0.00000000E+00  0.00000000E+00
 -1.39081827E-17  0.00000000E+00  0.00000000E+00  0.00000000E+00  0.00000000E+00
 -3.18226537E-18  0.00000000E+00  0.00000000E+00  0.00000000E+00  8.63104208E-02
  0.00000000E+00  0.00000000E+00  0.00000000E+00  0.00000000E+00  0.00000000E+00
  0.00000000E+00  0.00000000E+00  0.00000000E+00  0.00000000E+00  0.00000000E+00
  0.00000000E+00  0.00000000E+00  0.00000000E+00  0.00000000E+00  0.00000000E+00
  0.00000000E+00  0.00000000E+00  0.00000000E+00  0.00000000E+00  0.00000000E+00
  0.00000000E+00  0.00000000E+00  0.00000000E+00  0.00000000E+00 -2.48349298E-17
  0.00000000E+00  0.00000000E+00  0.00000000E+00  0.00000000E+00 -3.11498826E-17
  0.00000000E+00  0.00000000E+00  0.00000000E+00  0.00000000E+00 -1.39081827E-17
  0.00000000E+00  0.00000000E+00  0.00000000E+00  0.00000000E+00 -3.18226537E-18
  0.00000000E+00  0.00000000E+00  0.00000000E+00  0.00000000E+00  0.00000000E+00
  1.66886257E-34  1.06857177E-34 -6.31751279E-34  1.43433906E-33 -5.53139656E-34
  2.23085047E-34  7.81220616E-02  0.00000000E+00  0.00000000E+00  2.58811235E-01
  0.00000000E+00  0.00000000E+00  2.36843944E-01  0.00000000E+00  0.00000000E+00
  1.07253588E-01  0.00000000E+00  0.00000000E+00  3.17155428E-02  0.00000000E+00
  0.00000000E+00  2.43238801E-34  0.00000000E+00  0.00000000E+00 -1.96337359E-17
  0.00000000E+00  4.78150273E-34  0.00000000E+00  0.00000000E+00 -2.46261445E-17
  0.00000000E+00 -8.55132012E-35  0.00000000E+00  0.00000000E+00 -1.09953838E-17
  0.00000000E+00 -3.32684665E-35  0.00000000E+00  0.00000000E+00 -2.51580167E-18
  0.00000000E+00  0.00000000E+00  1.67139411E-01  0.00000000E+00  0.00000000E+00
  0.00000000E+00  0.00000000E+00  0.00000000E+00  0.00000000E+00  0.00000000E+00
  0.00000000E+00  0.00000000E+00  7.81220616E-02  0.00000000E+00  0.00000000E+00
  2.58811235E-01  0.00000000E+00  0.00000000E+00  2.36843944E-01  0.00000000E+00
  0.00000000E+00  1.07253588E-01  0.00000000E+00  0.00000000E+00  3.17155428E-02
  0.00000000E+00  0.00000000E+00  0.00000000E+00  0.00000000E+00  0.00000000E+00
 -1.96337359E-17  0.00000000E+00  0.00000000E+00  0.00000000E+00  0.00000000E+00
 -2.46261445E-17  0.00000000E+00  0.00000000E+00  0.00000000E+00  0.00000000E+00
 -1.09953838E-17  0.00000000E+00  0.00000000E+00  0.00000000E+00  0.00000000E+00
 -2.51580167E-18  0.00000000E+00  0.00000000E+00  1.67139411E-01  0.00000000E+00
  0.00000000E+00  0.00000000E+00  0.00000000E+00  0.00000000E+00  0.00000000E+00
  0.00000000E+00  0.00000000E+00  0.00000000E+00  0.00000000E+00  1.04619844E-17
  0.00000000E+00  0.00000000E+00  1.63937692E-17  0.00000000E+00  0.00000000E+00
  1.60689245E-17  0.00000000E+00  0.00000000E+00  1.16271496E-17  0.00000000E+00
  0.00000000E+00  1.09700802E-18  0.00000000E+00  2.28004402E-33  0.00000000E+00
  0.00000000E+00  0.00000000E+00  0.00000000E+00 -2.93970720E-33  0.00000000E+00
  0.00000000E+00  0.00000000E+00  0.00000000E+00  1.77550744E-34  0.00000000E+00
  0.00000000E+00  0.00000000E+00  0.00000000E+00  2.02357234E-34  0.00000000E+00
  0.00000000E+00  0.00000000E+00  8.75797541E-17  0.00000000E+00  0.00000000E+00
  2.15776052E-01  0.00000000E+00  0.00000000E+00  0.00000000E+00  0.00000000E+00
  0.00000000E+00  0.00000000E+00  0.00000000E+00  0.00000000E+00  0.00000000E+00
  0.00000000E+00  0.00000000E+00  0.00000000E+00  0.00000000E+00  0.00000000E+00
  0.00000000E+00  0.00000000E+00  0.00000000E+00  0.00000000E+00  0.00000000E+00
  0.00000000E+00  0.00000000E+00  0.00000000E+00  0.00000000E+00  0.00000000E+00
  0.00000000E+00 -1.21111731E-33  0.00000000E+00  0.00000000E+00  0.00000000E+00
  0.00000000E+00  4.25378682E-33  0.00000000E+00  0.00000000E+00  0.00000000E+00
  0.00000000E+00 -4.10444922E-35  0.00000000E+00  0.00000000E+00  0.00000000E+00
  0.00000000E+00 -1.40675117E-34  0.00000000E+00  0.00000000E+00  0.00000000E+00
  0.00000000E+00  0.00000000E+00  0.00000000E+00  2.15776052E-01  0.00000000E+00
  0.00000000E+00  0.00000000E+00 -9.62964972E-35  0.00000000E+00  6.16297582E-33
  1.23259516E-32  6.16297582E-33 -1.91250636E-02  0.00000000E+00  0.00000000E+00
 -2.05248039E-01  0.00000000E+00  0.00000000E+00 -5.77241447E-01  0.00000000E+00
  0.00000000E+00 -5.41773622E-01  0.00000000E+00  0.00000000E+00 -2.27858024E-01
  0.00000000E+00  0.00000000E+00 -1.07066228E-17  0.00000000E+00  0.00000000E+00
 -2.04852358E-34  0.00000000E+00 -4.40767797E-17  0.00000000E+00  0.00000000E+00
  1.76119460E-33  0.00000000E+00 -5.70195101E-17  0.00000000E+00  0.00000000E+00
  1.23046464E-33  0.00000000E+00 -2.47467849E-17  0.00000000E+00  0.00000000E+00
  8.45541859E-34  0.00000000E+00  0.00000000E+00  6.92503089E-02  0.00000000E+00
  0.00000000E+00  0.00000000E+00  1.19064713E-17  0.00000000E+00  0.00000000E+00
  0.00000000E+00  0.00000000E+00  0.00000000E+00  0.00000000E+00  0.00000000E+00
  0.00000000E+00  0.00000000E+00  0.00000000E+00  3.12310981E-02  0.00000000E+00
  0.00000000E+00  3.35168645E-01  0.00000000E+00  0.00000000E+00  9.42631335E-01
  0.00000000E+00  0.00000000E+00  8.84712620E-01  0.00000000E+00  0.00000000E+00
  3.72090596E-01  0.00000000E+00 -1.00943007E-17  0.00000000E+00  0.00000000E+00
  0.00000000E+00  0.00000000E+00 -4.15559865E-17  0.00000000E+00  0.00000000E+00
  0.00000000E+00  0.00000000E+00 -5.37585096E-17  0.00000000E+00  0.00000000E+00
  0.00000000E+00  0.00000000E+00 -2.33314926E-17  0.00000000E+00  0.00000000E+00
  0.00000000E+00  6.92503089E-02  0.00000000E+00  0.00000000E+00  1.34102647E-01
  0.00000000E+00  0.00000000E+00  0.00000000E+00  2.52524716E-01  0.00000000E+00
  0.00000000E+00  0.00000000E+00  0.00000000E+00  0.00000000E+00  0.00000000E+00
  0.00000000E+00  0.00000000E+00  0.00000000E+00  0.00000000E+00  0.00000000E+00
  0.00000000E+00  0.00000000E+00  0.00000000E+00  0.00000000E+00  0.00000000E+00
  0.00000000E+00  0.00000000E+00  0.00000000E+00  0.00000000E+00  0.00000000E+00
  0.00000000E+00  0.00000000E+00  0.00000000E+00 -1.00943007E-17  0.00000000E+00
  0.00000000E+00  0.00000000E+00  0.00000000E+00 -4.15559865E-17  0.00000000E+00
  0.00000000E+00  0.00000000E+00  0.00000000E+00 -5.37585096E-17  0.00000000E+00
  0.00000000E+00  0.00000000E+00  0.00000000E+00 -2.33314926E-17  0.00000000E+00
  0.00000000E+00  0.00000000E+00  0.00000000E+00  0.00000000E+00  0.00000000E+00
  1.34102647E-01  0.00000000E+00  0.00000000E+00  0.00000000E+00  0.00000000E+00
  0.00000000E+00  6.09449948E-37 -2.42968106E-37  2.23258008E-34  1.88621113E-33
 -8.44956805E-34  4.04281844E-34  2.46903509E-02  0.00000000E+00  0.00000000E+00
  2.64974079E-01  0.00000000E+00  0.00000000E+00  7.45215503E-01  0.00000000E+00
  0.00000000E+00  6.99426739E-01  0.00000000E+00  0.00000000E+00  2.94163445E-01
  0.00000000E+00  0.00000000E+00 -1.07173654E-34  0.00000000E+00  0.00000000E+00
 -7.98024543E-18  0.00000000E+00 -2.38539310E-34  0.00000000E+00  0.00000000E+00
 -3.28528919E-17  0.00000000E+00 -3.01301987E-34  0.00000000E+00  0.00000000E+00
 -4.24998335E-17  0.00000000E+00 -1.13430711E-34  0.00000000E+00  0.00000000E+00
 -1.84451645E-17  0.00000000E+00  0.00000000E+00  1.34102647E-01  0.00000000E+00
  0.00000000E+00  0.00000000E+00  1.73125772E-01  0.00000000E+00  0.00000000E+00
  4.89012009E-01  0.00000000E+00  0.00000000E+00  0.00000000E+00  0.00000000E+00
  0.00000000E+00  0.00000000E+00  0.00000000E+00  0.00000000E+00  0.00000000E+00
  2.46903509E-02  0.00000000E+00  0.00000000E+00  2.64974079E-01  0.00000000E+00
  0.00000000E+00  7.45215503E-01  0.00000000E+00  0.00000000E+00  6.99426739E-01
  0.00000000E+00  0.00000000E+00  2.94163445E-01  0.00000000E+00  0.00000000E+00
  0.00000000E+00  0.00000000E+00  0.00000000E+00 -7.98024543E-18  0.00000000E+00
  0.00000000E+00  0.00000000E+00  0.00000000E+00 -3.28528919E-17  0.00000000E+00
  0.00000000E+00  0.00000000E+00  0.00000000E+00 -4.24998335E-17  0.00000000E+00
  0.00000000E+00  0.00000000E+00  0.00000000E+00 -1.84451645E-17  0.00000000E+00
  0.00000000E+00  1.34102647E-01  0.00000000E+00  0.00000000E+00  0.00000000E+00
  1.73125772E-01  0.00000000E+00  0.00000000E+00  4.89012009E-01  0.00000000E+00
  0.00000000E+00  0.00000000E+00  0.00000000E+00  0.00000000E+00  0.00000000E+00
  0.00000000E+00  0.00000000E+00  0.00000000E+00  0.00000000E+00  4.26480149E-18
  0.00000000E+00  0.00000000E+00  1.61945369E-17  0.00000000E+00  0.00000000E+00
  6.81690241E-17  0.00000000E+00  0.00000000E+00  2.80906753E-17  0.00000000E+00
  0.00000000E+00  1.98502502E-17  0.00000000E+00 -2.79047018E-34  0.00000000E+00
  0.00000000E+00  0.00000000E+00  0.00000000E+00  6.33756666E-34  0.00000000E+00
  0.00000000E+00  0.00000000E+00  0.00000000E+00  2.28133980E-34  0.00000000E+00
  0.00000000E+00  0.00000000E+00  0.00000000E+00  3.46428592E-33  0.00000000E+00
  0.00000000E+00  0.00000000E+00 -1.21601899E-17  0.00000000E+00  0.00000000E+00
  1.73125772E-01  0.00000000E+00  0.00000000E+00  0.00000000E+00 -3.68341087E-17
  0.00000000E+00  0.00000000E+00  6.31311789E-01  0.00000000E+00  0.00000000E+00
  0.00000000E+00  0.00000000E+00  0.00000000E+00  0.00000000E+00  0.00000000E+00
  0.00000000E+00  0.00000000E+00  0.00000000E+00  0.00000000E+00  0.00000000E+00
  0.00000000E+00  0.00000000E+00  0.00000000E+00  0.00000000E+00  0.00000000E+00
  0.00000000E+00  0.00000000E+00  0.00000000E+00  0.00000000E+00  0.00000000E+00
  0.00000000E+00  0.00000000E+00  0.00000000E+00 -1.96163715E-35  0.00000000E+00
  0.00000000E+00  0.00000000E+00  0.00000000E+00 -1.12737668E-33  0.00000000E+00
  0.00000000E+00  0.00000000E+00  0.00000000E+00  4.39583575E-34  0.00000000E+00
  0.00000000E+00  0.00000000E+00  0.00000000E+00 -2.31658482E-33  0.00000000E+00
  0.00000000E+00  0.00000000E+00  0.00000000E+00  0.00000000E+00  0.00000000E+00
  1.73125772E-01  0.00000000E+00  0.00000000E+00  0.00000000E+00  0.00000000E+00
  0.00000000E+00  0.00000000E+00  6.31311789E-01  0.00000000E+00  0.00000000E+00
  0.00000000E+00  0.00000000E+00  0.00000000E+00  6.16297582E-33  1.23259516E-32
  1.23259516E-32 -3.67144444E-03  0.00000000E+00  0.00000000E+00 -7.77409987E-02
  0.00000000E+00  0.00000000E+00 -6.02816658E-01  0.00000000E+00  0.00000000E+00
 -1.55543436E+00  0.00000000E+00  0.00000000E+00 -1.27107924E+00  0.00000000E+00
  0.00000000E+00 -2.31981668E-18  0.00000000E+00  0.00000000E+00  6.95223197E-35
  0.00000000E+00 -2.03594039E-17  0.00000000E+00  0.00000000E+00  1.74201211E-34
  0.00000000E+00 -7.62842065E-17  0.00000000E+00  0.00000000E+00 -2.42754149E-34
  0.00000000E+00 -8.71788441E-17  0.00000000E+00  0.00000000E+00 -7.27613684E-34
  0.00000000E+00  0.00000000E+00  2.06877917E-02  0.00000000E+00  0.00000000E+00
  0.00000000E+00  3.09304715E-18  0.00000000E+00  0.00000000E+00  2.22711237E-01
  0.00000000E+00  0.00000000E+00  0.00000000E+00 -3.25155701E-17  0.00000000E+00
  0.00000000E+00  0.00000000E+00  0.00000000E+00  0.00000000E+00  0.00000000E+00
  0.00000000E+00  0.00000000E+00  0.00000000E+00  0.00000000E+00  5.99544367E-03
  0.00000000E+00  0.00000000E+00  1.26950519E-01  0.00000000E+00  0.00000000E+00
  9.84395481E-01  0.00000000E+00  0.00000000E+00  2.54001368E+00  0.00000000E+00
  0.00000000E+00  2.07566371E+00  0.00000000E+00 -2.18714414E-18  0.00000000E+00
  0.00000000E+00  0.00000000E+00  0.00000000E+00 -1.91950300E-17  0.00000000E+00
  0.00000000E+00  0.00000000E+00  0.00000000E+00 -7.19214396E-17  0.00000000E+00
  0.00000000E+00  0.00000000E+00  0.00000000E+00 -8.21930025E-17  0.00000000E+00
  0.00000000E+00  0.00000000E+00  2.06877917E-02  0.00000000E+00  0.00000000E+00
  4.00617364E-02  0.00000000E+00  0.00000000E+00  0.00000000E+00  2.22711237E-01
  0.00000000E+00  0.00000000E+00  4.31278456E-01  0.00000000E+00  0.00000000E+00
  0.00000000E+00  6.54943781E-01  0.00000000E+00  0.00000000E+00  0.00000000E+00
  0.00000000E+00  0.00000000E+00  0.00000000E+00  0.00000000E+00  0.00000000E+00
  0.00000000E+00  0.00000000E+00  0.00000000E+00  0.00000000E+00  0.00000000E+00
  0.00000000E+00  0.00000000E+00  0.00000000E+00  0.00000000E+00  0.00000000E+00
  0.00000000E+00  0.00000000E+00  0.00000000E+00  0.00000000E+00  0.00000000E+00
  0.00000000E+00 -2.18714414E-18  0.00000000E+00  0.00000000E+00  0.00000000E+00
  0.00000000E+00 -1.91950300E-17  0.00000000E+00  0.00000000E+00  0.00000000E+00
  0.00000000E+00 -7.19214396E-17  0.00000000E+00  0.00000000E+00  0.00000000E+00
  0.00000000E+00 -8.21930025E-17  0.00000000E+00  0.00000000E+00  0.00000000E+00
  0.00000000E+00  0.00000000E+00  0.00000000E+00  4.00617364E-02  0.00000000E+00
  0.00000000E+00  0.00000000E+00  0.00000000E+00  0.00000000E+00  0.00000000E+00
  4.31278456E-01  0.00000000E+00  0.00000000E+00  0.00000000E+00  0.00000000E+00
  0.00000000E+00 -2.99774236E-36  3.50357735E-37  2.76078706E-34  5.37600718E-35
 -1.48620881E-33 -1.68449165E-33  4.73981439E-03  0.00000000E+00  0.00000000E+00
  1.00363198E-01  0.00000000E+00  0.00000000E+00  7.78232960E-01  0.00000000E+00
  0.00000000E+00  2.00805713E+00  0.00000000E+00  0.00000000E+00  1.64095625E+00
  0.00000000E+00  0.00000000E+00 -3.88377492E-36  0.00000000E+00  0.00000000E+00
 -1.72908927E-18  0.00000000E+00 -1.87365890E-34  0.00000000E+00  0.00000000E+00
 -1.51750037E-17  0.00000000E+00  4.69738443E-34  0.00000000E+00  0.00000000E+00
 -5.68588905E-17  0.00000000E+00  1.18652211E-33  0.00000000E+00  0.00000000E+00
 -6.49792739E-17  0.00000000E+00  0.00000000E+00  4.00617364E-02  0.00000000E+00
  0.00000000E+00  0.00000000E+00  5.17194793E-02  0.00000000E+00  0.00000000E+00
  4.31278456E-01  0.00000000E+00  0.00000000E+00  0.00000000E+00  5.56778093E-01
  0.00000000E+00  0.00000000E+00  1.26829318E+00  0.00000000E+00  0.00000000E+00
  0.00000000E+00  0.00000000E+00  0.00000000E+00  0.00000000E+00  0.00000000E+00
  0.00000000E+00  0.00000000E+00  4.73981439E-03  0.00000000E+00  0.00000000E+00
  1.00363198E-01  0.00000000E+00  0.00000000E+00  7.78232960E-01  0.00000000E+00
  0.00000000E+00  2.00805713E+00  0.00000000E+00  0.00000000E+00  1.64095625E+00
  0.00000000E+00  0.00000000E+00  0.00000000E+00  0.00000000E+00  0.00000000E+00
 -1.72908927E-18  0.00000000E+00  0.00000000E+00  0.00000000E+00  0.00000000E+00
 -1.51750037E-17  0.00000000E+00  0.00000000E+00  0.00000000E+00  0.00000000E+00
 -5.68588905E-17  0.00000000E+00  0.00000000E+00  0.00000000E+00  0.00000000E+00
 -6.49792739E-17  0.00000000E+00  0.00000000E+00  4.00617364E-02  0.00000000E+00
  0.00000000E+00  0.00000000E+00  5.17194793E-02  0.00000000E+00  0.00000000E+00
  4.31278456E-01  0.00000000E+00  0.00000000E+00  0.00000000E+00  5.56778093E-01
  0.00000000E+00  0.00000000E+00  1.26829318E+00  0.00000000E+00  0.00000000E+00
  0.00000000E+00  0.00000000E+00  0.00000000E+00  0.00000000E+00  0.00000000E+00
  0.00000000E+00  0.00000000E+00  0.00000000E+00  2.53751132E-19  0.00000000E+00
  0.00000000E+00  3.63030452E-18  0.00000000E+00  0.00000000E+00  9.38335208E-17
  0.00000000E+00  0.00000000E+00 -2.90703193E-17  0.00000000E+00  0.00000000E+00
  1.22523542E-16  0.00000000E+00 -2.10995341E-35  0.00000000E+00  0.00000000E+00
  0.00000000E+00  0.00000000E+00 -6.60504095E-34  0.00000000E+00  0.00000000E+00
  0.00000000E+00  0.00000000E+00 -8.69424779E-33  0.00000000E+00  0.00000000E+00
  0.00000000E+00  0.00000000E+00 -5.44924611E-33  0.00000000E+00  0.00000000E+00
  0.00000000E+00 -2.41744532E-18  0.00000000E+00  0.00000000E+00  5.17194793E-02
  0.00000000E+00  0.00000000E+00  0.00000000E+00 -6.66431993E-17  0.00000000E+00
  0.00000000E+00  5.56778093E-01  0.00000000E+00  0.00000000E+00  0.00000000E+00
  1.66980932E-16  0.00000000E+00  0.00000000E+00  1.63735945E+00  0.00000000E+00
  0.00000000E+00  0.00000000E+00  0.00000000E+00  0.00000000E+00  0.00000000E+00
  0.00000000E+00  0.00000000E+00  0.00000000E+00  0.00000000E+00  0.00000000E+00
  0.00000000E+00  0.00000000E+00  0.00000000E+00  0.00000000E+00  0.00000000E+00
  0.00000000E+00  0.00000000E+00  0.00000000E+00  0.00000000E+00  0.00000000E+00
  0.00000000E+00  0.00000000E+00  0.00000000E+00  0.00000000E+00 -3.55468556E-35
  0.00000000E+00  0.00000000E+00  0.00000000E+00  0.00000000E+00  2.09792731E-35
  0.00000000E+00  0.00000000E+00  0.00000000E+00  0.00000000E+00  3.55144657E-33
  0.00000000E+00  0.00000000E+00  0.00000000E+00  0.00000000E+00  3.36187071E-33
  0.00000000E+00  0.00000000E+00  0.00000000E+00  0.00000000E+00  0.00000000E+00
  0.00000000E+00  5.17194793E-02  0.00000000E+00  0.00000000E+00  0.00000000E+00
  0.00000000E+00  0.00000000E+00  0.00000000E+00  5.56778093E-01  0.00000000E+00
  0.00000000E+00  0.00000000E+00  0.00000000E+00  0.00000000E+00  0.00000000E+00
  1.63735945E+00  0.00000000E+00  0.00000000E+00  0.00000000E+00  0.00000000E+00
  0.00000000E+00  0.00000000E+00  0.00000000E+00  0.00000000E+00  0.00000000E+00
  0.00000000E+00  1.54074396E-33  0.00000000E+00  0.00000000E+00 -1.23259516E-32
  0.00000000E+00  0.00000000E+00  1.23259516E-32  0.00000000E+00  0.00000000E+00
  1.23259516E-32  0.00000000E+00  0.00000000E+00 -1.54074396E-33  0.00000000E+00
 -1.23824860E-01  0.00000000E+00  0.00000000E+00  0.00000000E+00  0.00000000E+00
 -3.94539958E-01  0.00000000E+00  0.00000000E+00  0.00000000E+00  0.00000000E+00
 -3.16046552E-01  0.00000000E+00  0.00000000E+00  0.00000000E+00  0.00000000E+00
 -9.59570774E-02  0.00000000E+00  0.00000000E+00  0.00000000E+00 -3.25625006E-17
  0.00000000E+00  0.00000000E+00 -2.19516378E-34  0.00000000E+00  0.00000000E+00
  0.00000000E+00 -4.19166929E-17  0.00000000E+00  0.00000000E+00 -2.47314950E-33
  0.00000000E+00  0.00000000E+00  0.00000000E+00 -1.66618407E-17  0.00000000E+00
  0.00000000E+00  1.64771798E-33  0.00000000E+00  0.00000000E+00  0.00000000E+00
  0.00000000E+00  6.09203657E-19  3.33081910E-18 -3.39585692E-17 -1.05316240E-16
  4.26148584E-18 -2.21398610E-17  5.51945192E-34  0.00000000E+00  0.00000000E+00
  5.87221552E-33  0.00000000E+00  0.00000000E+00  6.03589148E-33  0.00000000E+00
  0.00000000E+00 -2.59452519E-33  0.00000000E+00  0.00000000E+00  1.75774686E-33
  0.00000000E+00  0.00000000E+00  1.69554173E-01  0.00000000E+00  0.00000000E+00
 -4.89460737E-02  0.00000000E+00  5.40246088E-01  0.00000000E+00  0.00000000E+00
 -1.55955612E-01  0.00000000E+00  4.32764564E-01  0.00000000E+00  0.00000000E+00
 -1.24928369E-01  0.00000000E+00  1.31394640E-01  0.00000000E+00  0.00000000E+00
 -3.79303653E-02  0.00000000E+00  0.00000000E+00 -3.15285056E-17  0.00000000E+00
  0.00000000E+00  0.00000000E+00  3.84283371E-33  0.00000000E+00  0.00000000E+00
 -4.05856634E-17  0.00000000E+00  0.00000000E+00  0.00000000E+00 -4.33761365E-33
  0.00000000E+00  0.00000000E+00 -1.61327579E-17  0.00000000E+00  0.00000000E+00
  0.00000000E+00  2.20590568E-33  0.00000000E+00  1.11709681E-01  0.00000000E+00
  0.00000000E+00  0.00000000E+00  0.00000000E+00  0.00000000E+00  0.00000000E+00
  0.00000000E+00  0.00000000E+00  5.51945192E-34  0.00000000E+00  0.00000000E+00
  5.87221552E-33  0.00000000E+00  0.00000000E+00  6.03589148E-33  0.00000000E+00
  0.00000000E+00 -2.59452519E-33  0.00000000E+00  0.00000000E+00  2.52811883E-33
  0.00000000E+00  0.00000000E+00  0.00000000E+00  0.00000000E+00  0.00000000E+00
 -4.89460737E-02  0.00000000E+00  0.00000000E+00  0.00000000E+00  0.00000000E+00
 -1.55955612E-01  0.00000000E+00  0.00000000E+00  0.00000000E+00  0.00000000E+00
 -1.24928369E-01  0.00000000E+00  0.00000000E+00  0.00000000E+00  0.00000000E+00
 -3.79303653E-02  0.00000000E+00  0.00000000E+00 -3.15285056E-17  0.00000000E+00
  0.00000000E+00  0.00000000E+00 -3.10206982E-33  0.00000000E+00  0.00000000E+00
 -4.05856634E-17  0.00000000E+00  0.00000000E+00  0.00000000E+00  1.59621493E-34
  0.00000000E+00  0.00000000E+00 -1.61327579E-17  0.00000000E+00  0.00000000E+00
  0.00000000E+00 -2.62495449E-33  0.00000000E+00  0.00000000E+00  0.00000000E+00
  0.00000000E+00  0.00000000E+00  0.00000000E+00  0.00000000E+00  0.00000000E+00
  0.00000000E+00  0.00000000E+00  0.00000000E+00  5.10896066E-35  0.00000000E+00
  0.00000000E+00  2.61562702E-33  0.00000000E+00  0.00000000E+00 -1.24010661E-33
  0.00000000E+00  0.00000000E+00  3.78574926E-34  0.00000000E+00  0.00000000E+00
  3.06953977E-34  0.00000000E+00  1.38440403E-01  0.00000000E+00  0.00000000E+00
  0.00000000E+00  0.00000000E+00  4.41109083E-01  0.00000000E+00  0.00000000E+00
  0.00000000E+00  0.00000000E+00  3.53350787E-01  0.00000000E+00  0.00000000E+00
  0.00000000E+00  0.00000000E+00  1.07283274E-01  0.00000000E+00  0.00000000E+00
  0.00000000E+00  5.70045535E-33  0.00000000E+00  0.00000000E+00 -2.81999527E-17
  0.00000000E+00  0.00000000E+00  0.00000000E+00 -6.38272578E-34  0.00000000E+00
  0.00000000E+00 -3.63009209E-17  0.00000000E+00  0.00000000E+00  0.00000000E+00
  1.10792542E-34  0.00000000E+00  0.00000000E+00 -1.44295774E-17  0.00000000E+00
  0.00000000E+00  0.00000000E+00  0.00000000E+00  2.24811397E-01  0.00000000E+00
  0.00000000E+00  0.00000000E+00  0.00000000E+00  0.00000000E+00  0.00000000E+00
  0.00000000E+00  0.00000000E+00  0.00000000E+00  0.00000000E+00  0.00000000E+00
  0.00000000E+00  0.00000000E+00  0.00000000E+00  0.00000000E+00  0.00000000E+00
  0.00000000E+00  0.00000000E+00  0.00000000E+00  0.00000000E+00  0.00000000E+00
  0.00000000E+00  0.00000000E+00  0.00000000E+00  0.00000000E+00  1.38440403E-01
  0.00000000E+00  0.00000000E+00  0.00000000E+00  0.00000000E+00  4.41109083E-01
  0.00000000E+00  0.00000000E+00  0.00000000E+00  0.00000000E+00  3.53350787E-01
  0.00000000E+00  0.00000000E+00  0.00000000E+00  0.00000000E+00  1.07283274E-01
  0.00000000E+00  0.00000000E+00  0.00000000E+00  0.00000000E+00  0.00000000E+00
  0.00000000E+00 -2.81999527E-17  0.00000000E+00  0.00000000E+00  0.00000000E+00
  0.00000000E+00  0.00000000E+00  0.00000000E+00 -3.63009209E-17  0.00000000E+00
  0.00000000E+00  0.00000000E+00  0.00000000E+00  0.00000000E+00  0.00000000E+00
 -1.44295774E-17  0.00000000E+00  0.00000000E+00  0.00000000E+00  0.00000000E+00
  2.24811397E-01  0.00000000E+00  0.00000000E+00 -1.11012062E-19  1.19470196E-19
  7.59703433E-18 -5.08732739E-17  6.12400747E-17  2.24918662E-17 -1.34158722E-34
  0.00000000E+00  0.00000000E+00  8.66218426E-34  0.00000000E+00  0.00000000E+00
  1.47097618E-33  0.00000000E+00  0.00000000E+00 -2.49352284E-34  0.00000000E+00
  0.00000000E+00  1.31474896E-34  0.00000000E+00  0.00000000E+00  7.49652442E-18
  0.00000000E+00  0.00000000E+00  1.29499139E-01  0.00000000E+00 -5.88784672E-17
  0.00000000E+00  0.00000000E+00  4.12619765E-01  0.00000000E+00  0.00000000E+00
  0.00000000E+00  0.00000000E+00  3.30529396E-01  0.00000000E+00  0.00000000E+00
  0.00000000E+00  0.00000000E+00  1.00354314E-01  0.00000000E+00  0.00000000E+00
  4.86254776E-33  0.00000000E+00  0.00000000E+00  0.00000000E+00 -2.15380697E-17
  0.00000000E+00  0.00000000E+00 -6.49114973E-33  0.00000000E+00  0.00000000E+00
  0.00000000E+00 -2.77252863E-17  0.00000000E+00  0.00000000E+00  1.14288980E-33
  0.00000000E+00  0.00000000E+00  0.00000000E+00 -1.10207718E-17  0.00000000E+00
 -1.83643865E-16  0.00000000E+00  0.00000000E+00  3.30441694E-01  0.00000000E+00
  0.00000000E+00  0.00000000E+00  0.00000000E+00  0.00000000E+00  0.00000000E+00
  0.00000000E+00  0.00000000E+00  0.00000000E+00 -1.71672239E-34  0.00000000E+00
  0.00000000E+00  9.65687750E-34  0.00000000E+00  0.00000000E+00 -2.06693823E-34
  0.00000000E+00  0.00000000E+00  8.79002552E-35  0.00000000E+00  0.00000000E+00
 -3.95711981E-35  0.00000000E+00  0.00000000E+00  0.00000000E+00  0.00000000E+00
  0.00000000E+00  1.29499139E-01  0.00000000E+00  0.00000000E+00  0.00000000E+00
  0.00000000E+00  4.12619765E-01  0.00000000E+00  0.00000000E+00  0.00000000E+00
  0.00000000E+00  3.30529396E-01  0.00000000E+00  0.00000000E+00  0.00000000E+00
  0.00000000E+00  1.00354314E-01  0.00000000E+00  0.00000000E+00 -4.16090297E-33
  0.00000000E+00  0.00000000E+00  0.00000000E+00 -2.15380697E-17  0.00000000E+00
  0.00000000E+00  5.08468838E-33  0.00000000E+00  0.00000000E+00  0.00000000E+00
 -2.77252863E-17  0.00000000E+00  0.00000000E+00 -2.44751304E-33  0.00000000E+00
  0.00000000E+00  0.00000000E+00 -1.10207718E-17  0.00000000E+00  0.00000000E+00
  0.00000000E+00  0.00000000E+00  3.30441694E-01  0.00000000E+00  0.00000000E+00
  0.00000000E+00  0.00000000E+00  0.00000000E+00  0.00000000E+00  0.00000000E+00
  0.00000000E+00  0.00000000E+00  0.00000000E+00 -1.56971244E-35  0.00000000E+00
  0.00000000E+00 -1.55915660E-33  0.00000000E+00  0.00000000E+00 -4.16640095E-34
  0.00000000E+00  0.00000000E+00 -1.21587308E-33  0.00000000E+00  0.00000000E+00
 -1.21218629E-34  0.00000000E+00  1.31227923E-17  0.00000000E+00  0.00000000E+00
  0.00000000E+00  0.00000000E+00  1.59635776E-16  0.00000000E+00  0.00000000E+00
  0.00000000E+00  0.00000000E+00 -2.99967074E-18  0.00000000E+00  0.00000000E+00
  0.00000000E+00  0.00000000E+00  8.41655826E-18  0.00000000E+00  0.00000000E+00
  0.00000000E+00  1.58583259E-33  0.00000000E+00  0.00000000E+00  9.78191270E-34
  0.00000000E+00  0.00000000E+00  0.00000000E+00  3.24341887E-33  0.00000000E+00
  0.00000000E+00 -8.76190831E-34  0.00000000E+00  0.00000000E+00  0.00000000E+00
  3.20353990E-33  0.00000000E+00  0.00000000E+00 -1.88470480E-34  0.00000000E+00
  0.00000000E+00  0.00000000E+00  0.00000000E+00  2.23360839E-17  0.00000000E+00
  0.00000000E+00  0.00000000E+00  3.49706618E-01  0.00000000E+00  0.00000000E+00
  0.00000000E+00  0.00000000E+00  0.00000000E+00  0.00000000E+00  0.00000000E+00
  0.00000000E+00  0.00000000E+00  0.00000000E+00  0.00000000E+00  0.00000000E+00
  0.00000000E+00  0.00000000E+00  0.00000000E+00  0.00000000E+00  0.00000000E+00
  0.00000000E+00  0.00000000E+00  0.00000000E+00  0.00000000E+00  0.00000000E+00
  0.00000000E+00  0.00000000E+00  0.00000000E+00  1.71794957E-18  0.00000000E+00
  0.00000000E+00  0.00000000E+00  0.00000000E+00  1.39352222E-17  0.00000000E+00
  0.00000000E+00  0.00000000E+00  0.00000000E+00  4.16149604E-18  0.00000000E+00
  0.00000000E+00  0.00000000E+00  0.00000000E+00 -1.82538239E-18  0.00000000E+00
  0.00000000E+00  0.00000000E+00  0.00000000E+00  0.00000000E+00  0.00000000E+00
  6.26681404E-34  0.00000000E+00  0.00000000E+00  0.00000000E+00  0.00000000E+00
  0.00000000E+00  0.00000000E+00 -2.96941073E-34  0.00000000E+00  0.00000000E+00
  0.00000000E+00  0.00000000E+00  0.00000000E+00  0.00000000E+00 -4.92985713E-34
  0.00000000E+00  0.00000000E+00  0.00000000E+00  0.00000000E+00  2.83876581E-17
  0.00000000E+00  0.00000000E+00  0.00000000E+00  3.49706618E-01  0.00000000E+00
  0.00000000E+00  0.00000000E+00  0.00000000E+00  0.00000000E+00  0.00000000E+00
  0.00000000E+00  0.00000000E+00  0.00000000E+00  0.00000000E+00  3.85185989E-34
  0.00000000E+00  0.00000000E+00  3.08148791E-33  0.00000000E+00  0.00000000E+00
  0.00000000E+00  0.00000000E+00  0.00000000E+00  0.00000000E+00  0.00000000E+00
  0.00000000E+00  6.16297582E-33  0.00000000E+00 -4.01726361E-02  0.00000000E+00
  0.00000000E+00  0.00000000E+00  0.00000000E+00 -3.98636844E-01  0.00000000E+00
  0.00000000E+00  0.00000000E+00  0.00000000E+00 -9.89627814E-01  0.00000000E+00
  0.00000000E+00  0.00000000E+00  0.00000000E+00 -6.27550074E-01  0.00000000E+00
  0.00000000E+00  0.00000000E+00 -1.36569380E-17  0.00000000E+00  0.00000000E+00
  1.75170557E-34  0.00000000E+00  0.00000000E+00  0.00000000E+00 -5.95113560E-17
  0.00000000E+00  0.00000000E+00 -1.02122371E-33  0.00000000E+00  0.00000000E+00
  0.00000000E+00 -6.19725334E-17  0.00000000E+00  0.00000000E+00 -1.14486418E-32
  0.00000000E+00  0.00000000E+00  0.00000000E+00  0.00000000E+00  9.51308478E-02
  0.00000000E+00  0.00000000E+00  0.00000000E+00 -7.14622354E-19  0.00000000E+00
  0.00000000E+00  0.00000000E+00  0.00000000E+00  5.16142321E-20 -5.56764879E-19
  3.91369539E-18  1.71794512E-16 -7.32104926E-16 -1.00243727E-20  8.41227760E-35
  0.00000000E+00  0.00000000E+00  3.34575761E-33  0.00000000E+00  0.00000000E+00
  7.02113290E-33  0.00000000E+00  0.00000000E+00  5.63374561E-33  0.00000000E+00
  0.00000000E+00  2.53705337E-33  0.00000000E+00  0.00000000E+00  5.50086474E-02
  0.00000000E+00  0.00000000E+00 -1.58796287E-02  0.00000000E+00  5.45855979E-01
  0.00000000E+00  0.00000000E+00 -1.57575048E-01  0.00000000E+00  1.35510369E+00
  0.00000000E+00  0.00000000E+00 -3.91184741E-01  0.00000000E+00  8.59308328E-01
  0.00000000E+00  0.00000000E+00 -2.48060947E-01  0.00000000E+00  0.00000000E+00
 -1.32232734E-17  0.00000000E+00  0.00000000E+00  0.00000000E+00 -3.91888682E-34
  0.00000000E+00  0.00000000E+00 -5.76216226E-17  0.00000000E+00  0.00000000E+00
  0.00000000E+00  1.08285430E-33  0.00000000E+00  0.00000000E+00 -6.00046474E-17
  0.00000000E+00  0.00000000E+00  0.00000000E+00  1.07281795E-33  0.00000000E+00
  9.51308478E-02  0.00000000E+00  0.00000000E+00  1.91447138E-01  0.00000000E+00
  0.00000000E+00  0.00000000E+00  5.85597861E-17  0.00000000E+00  2.66364358E-01
  0.00000000E+00  0.00000000E+00  0.00000000E+00  0.00000000E+00  0.00000000E+00
  0.00000000E+00  0.00000000E+00  0.00000000E+00  8.41227760E-35  0.00000000E+00
  0.00000000E+00  3.34575761E-33  0.00000000E+00  0.00000000E+00  7.02113290E-33
  0.00000000E+00  0.00000000E+00  5.63374561E-33  0.00000000E+00  0.00000000E+00
  2.53705337E-33  0.00000000E+00  0.00000000E+00  0.00000000E+00  0.00000000E+00
  0.00000000E+00 -1.58796287E-02  0.00000000E+00  0.00000000E+00  0.00000000E+00
  0.00000000E+00 -1.57575048E-01  0.00000000E+00  0.00000000E+00  0.00000000E+00
  0.00000000E+00 -3.91184741E-01  0.00000000E+00  0.00000000E+00  0.00000000E+00
  0.00000000E+00 -2.48060947E-01  0.00000000E+00  0.00000000E+00 -1.32232734E-17
  0.00000000E+00  0.00000000E+00  0.00000000E+00  1.84839618E-34  0.00000000E+00
  0.00000000E+00 -5.76216226E-17  0.00000000E+00  0.00000000E+00  0.00000000E+00
  2.10670444E-33  0.00000000E+00  0.00000000E+00 -6.00046474E-17  0.00000000E+00
  0.00000000E+00  0.00000000E+00 -1.17213244E-33  0.00000000E+00  0.00000000E+00
  0.00000000E+00  0.00000000E+00  1.91447138E-01  0.00000000E+00  0.00000000E+00
  0.00000000E+00  6.26072319E-18  0.00000000E+00  0.00000000E+00  0.00000000E+00
  0.00000000E+00  0.00000000E+00  0.00000000E+00  0.00000000E+00  0.00000000E+00
  0.00000000E+00  0.00000000E+00  0.00000000E+00  3.14977407E-35  0.00000000E+00
  0.00000000E+00  1.49219008E-33  0.00000000E+00  0.00000000E+00  3.96457147E-33
  0.00000000E+00  0.00000000E+00 -7.30669742E-34  0.00000000E+00  0.00000000E+00
  1.19551002E-33  0.00000000E+00  4.49143725E-02  0.00000000E+00  0.00000000E+00
  0.00000000E+00  0.00000000E+00  4.45689540E-01  0.00000000E+00  0.00000000E+00
  0.00000000E+00  0.00000000E+00  1.10643753E+00  0.00000000E+00  0.00000000E+00
  0.00000000E+00  0.00000000E+00  7.01622312E-01  0.00000000E+00  0.00000000E+00
  0.00000000E+00 -1.62486775E-34  0.00000000E+00  0.00000000E+00 -1.18272552E-17
  0.00000000E+00  0.00000000E+00  0.00000000E+00  7.95166018E-35  0.00000000E+00
  0.00000000E+00 -5.15383461E-17  0.00000000E+00  0.00000000E+00  0.00000000E+00
 -3.52369486E-34  0.00000000E+00  0.00000000E+00 -5.36697882E-17  0.00000000E+00
  0.00000000E+00  0.00000000E+00  0.00000000E+00  1.91447138E-01  0.00000000E+00
  0.00000000E+00  0.00000000E+00  2.81400843E-01  0.00000000E+00  0.00000000E+00
  0.00000000E+00  0.00000000E+00  5.36047930E-01  0.00000000E+00  0.00000000E+00
  0.00000000E+00  0.00000000E+00  0.00000000E+00  0.00000000E+00  0.00000000E+00
  0.00000000E+00  0.00000000E+00  0.00000000E+00  0.00000000E+00  0.00000000E+00
  0.00000000E+00  0.00000000E+00  0.00000000E+00  0.00000000E+00  0.00000000E+00
  0.00000000E+00  0.00000000E+00  0.00000000E+00  0.00000000E+00  0.00000000E+00
  0.00000000E+00  0.00000000E+00  0.00000000E+00  4.49143725E-02  0.00000000E+00
  0.00000000E+00  0.00000000E+00  0.00000000E+00  4.45689540E-01  0.00000000E+00
  0.00000000E+00  0.00000000E+00  0.00000000E+00  1.10643753E+00  0.00000000E+00
  0.00000000E+00  0.00000000E+00  0.00000000E+00  7.01622312E-01  0.00000000E+00
  0.00000000E+00  0.00000000E+00  0.00000000E+00  0.00000000E+00  0.00000000E+00
 -1.18272552E-17  0.00000000E+00  0.00000000E+00  0.00000000E+00  0.00000000E+00
  0.00000000E+00  0.00000000E+00 -5.15383461E-17  0.00000000E+00  0.00000000E+00
  0.00000000E+00  0.00000000E+00  0.00000000E+00  0.00000000E+00 -5.36697882E-17
  0.00000000E+00  0.00000000E+00  0.00000000E+00  0.00000000E+00  1.91447138E-01
  0.00000000E+00  0.00000000E+00  0.00000000E+00  2.81400843E-01  0.00000000E+00
  0.00000000E+00  0.00000000E+00  0.00000000E+00  5.36047930E-01  0.00000000E+00
  0.00000000E+00 -1.04300438E-19 -1.20054464E-20  3.90286404E-18  1.51533710E-18
  2.09306854E-16  5.08574691E-17  3.15170240E-35  0.00000000E+00  0.00000000E+00
  2.25979521E-34  0.00000000E+00  0.00000000E+00  1.60030459E-33  0.00000000E+00
  0.00000000E+00 -3.88573294E-33  0.00000000E+00  0.00000000E+00 -1.66177782E-33
  0.00000000E+00  0.00000000E+00 -7.35980840E-18  0.00000000E+00  0.00000000E+00
  4.20135484E-02  0.00000000E+00  1.61642353E-16  0.00000000E+00  0.00000000E+00
  4.16904390E-01  0.00000000E+00  5.99721954E-17  0.00000000E+00  0.00000000E+00
  1.03497754E+00  0.00000000E+00  0.00000000E+00  0.00000000E+00  0.00000000E+00
  6.56307577E-01  0.00000000E+00  0.00000000E+00 -1.89709052E-33  0.00000000E+00
  0.00000000E+00  0.00000000E+00 -9.03321540E-18  0.00000000E+00  0.00000000E+00
 -3.15153643E-33  0.00000000E+00  0.00000000E+00  0.00000000E+00 -3.93630620E-17
  0.00000000E+00  0.00000000E+00 -4.65348242E-33  0.00000000E+00  0.00000000E+00
  0.00000000E+00 -4.09909778E-17  0.00000000E+00  7.58286495E-18  0.00000000E+00
  0.00000000E+00  2.81400843E-01  0.00000000E+00  0.00000000E+00  0.00000000E+00
  2.97806659E-01  0.00000000E+00 -2.32776837E-16  0.00000000E+00  0.00000000E+00
  7.87916397E-01  0.00000000E+00  0.00000000E+00  0.00000000E+00  0.00000000E+00
  0.00000000E+00  0.00000000E+00  0.00000000E+00  0.00000000E+00  0.00000000E+00
 -4.48309306E-35  0.00000000E+00  0.00000000E+00  2.85984533E-34  0.00000000E+00
  0.00000000E+00 -3.07540631E-33  0.00000000E+00  0.00000000E+00  8.43321652E-33
  0.00000000E+00  0.00000000E+00  1.88906110E-33  0.00000000E+00  0.00000000E+00
  0.00000000E+00  0.00000000E+00  0.00000000E+00  4.20135484E-02  0.00000000E+00
  0.00000000E+00  0.00000000E+00  0.00000000E+00  4.16904390E-01  0.00000000E+00
  0.00000000E+00  0.00000000E+00  0.00000000E+00  1.03497754E+00  0.00000000E+00
  0.00000000E+00  0.00000000E+00  0.00000000E+00  6.56307577E-01  0.00000000E+00
  0.00000000E+00  1.22017922E-33  0.00000000E+00  0.00000000E+00  0.00000000E+00
 -9.03321540E-18  0.00000000E+00  0.00000000E+00  5.15884005E-33  0.00000000E+00
  0.00000000E+00  0.00000000E+00 -3.93630620E-17  0.00000000E+00  0.00000000E+00
  9.08086052E-33  0.00000000E+00  0.00000000E+00  0.00000000E+00 -4.09909778E-17
  0.00000000E+00  0.00000000E+00  0.00000000E+00  0.00000000E+00  2.81400843E-01
  0.00000000E+00  0.00000000E+00  0.00000000E+00  2.97806659E-01  0.00000000E+00
  0.00000000E+00  0.00000000E+00  0.00000000E+00  7.87916397E-01  0.00000000E+00
  0.00000000E+00  0.00000000E+00  0.00000000E+00  0.00000000E+00  0.00000000E+00
  0.00000000E+00  0.00000000E+00  0.00000000E+00  0.00000000E+00  2.86538028E-35
  0.00000000E+00  0.00000000E+00 -8.63968226E-34  0.00000000E+00  0.00000000E+00
  1.90196599E-33  0.00000000E+00  0.00000000E+00 -4.72135507E-33  0.00000000E+00
  0.00000000E+00 -3.99922316E-34  0.00000000E+00  9.57735267E-18  0.00000000E+00
  0.00000000E+00  0.00000000E+00  0.00000000E+00 -3.91899414E-17  0.00000000E+00
  0.00000000E+00  0.00000000E+00  0.00000000E+00  2.30926130E-16  0.00000000E+00
  0.00000000E+00  0.00000000E+00  0.00000000E+00 -6.67267624E-17  0.00000000E+00
  0.00000000E+00  0.00000000E+00 -1.84082605E-33  0.00000000E+00  0.00000000E+00
 -2.83936722E-34  0.00000000E+00  0.00000000E+00  0.00000000E+00 -7.69591653E-33
  0.00000000E+00  0.00000000E+00 -2.35846450E-33  0.00000000E+00  0.00000000E+00
  0.00000000E+00 -2.58264231E-33  0.00000000E+00  0.00000000E+00 -1.98719633E-33
  0.00000000E+00  0.00000000E+00  0.00000000E+00  0.00000000E+00  5.46932794E-17
  0.00000000E+00  0.00000000E+00  0.00000000E+00  2.97806659E-01  0.00000000E+00
  0.00000000E+00  0.00000000E+00  0.00000000E+00 -3.03400329E-16  0.00000000E+00
  0.00000000E+00  0.00000000E+00  8.33852336E-01  0.00000000E+00  0.00000000E+00
  0.00000000E+00  0.00000000E+00  0.00000000E+00  0.00000000E+00  0.00000000E+00
  0.00000000E+00  0.00000000E+00  0.00000000E+00  0.00000000E+00  0.00000000E+00
  0.00000000E+00  0.00000000E+00  0.00000000E+00  0.00000000E+00  0.00000000E+00
  0.00000000E+00  0.00000000E+00  0.00000000E+00  0.00000000E+00  0.00000000E+00
  0.00000000E+00  0.00000000E+00  0.00000000E+00 -1.59954710E-18  0.00000000E+00
  0.00000000E+00  0.00000000E+00  0.00000000E+00  1.10005442E-17  0.00000000E+00
  0.00000000E+00  0.00000000E+00  0.00000000E+00  7.94216709E-18  0.00000000E+00
  0.00000000E+00  0.00000000E+00  0.00000000E+00 -2.49885365E-17  0.00000000E+00
  0.00000000E+00  0.00000000E+00  0.00000000E+00  0.00000000E+00  0.00000000E+00
  1.80681909E-34  0.00000000E+00  0.00000000E+00  0.00000000E+00  0.00000000E+00
  0.00000000E+00  0.00000000E+00  2.05222478E-33  0.00000000E+00  0.00000000E+00
  0.00000000E+00  0.00000000E+00  0.00000000E+00  0.00000000E+00 -2.90201859E-33
  0.00000000E+00  0.00000000E+00  0.00000000E+00  0.00000000E+00  5.74527990E-17
  0.00000000E+00  0.00000000E+00  0.00000000E+00  2.97806659E-01  0.00000000E+00
  0.00000000E+00  0.00000000E+00  0.00000000E+00 -6.62944551E-17  0.00000000E+00
  0.00000000E+00  0.00000000E+00  8.33852336E-01  0.00000000E+00  0.00000000E+00
Multipole Matrix (0,1,1)                   R   N=        3240
  0.00000000E+00  0.00000000E+00  0.00000000E+00  0.00000000E+00  0.00000000E+00
  0.00000000E+00  0.00000000E+00  0.00000000E+00  0.00000000E+00  0.00000000E+00
  0.00000000E+00  0.00000000E+00  0.00000000E+00  0.00000000E+00  0.00000000E+00
  0.00000000E+00  0.00000000E+00  0.00000000E+00  0.00000000E+00  0.00000000E+00
  0.00000000E+00  0.00000000E+00  0.00000000E+00  0.00000000E+00  0.00000000E+00
  0.00000000E+00  0.00000000E+00  0.00000000E+00  0.00000000E+00  0.00000000E+00
  0.00000000E+00  0.00000000E+00  0.00000000E+00  0.00000000E+00  0.00000000E+00
  0.00000000E+00  0.00000000E+00  0.00000000E+00  0.00000000E+00  0.00000000E+00
  0.00000000E+00  0.00000000E+00  0.00000000E+00  8.73744832E-02  0.00000000E+00
  0.00000000E+00  0.00000000E+00  0.00000000E+00  0.00000000E+00  0.00000000E+00
  0.00000000E+00  0.00000000E+00  0.00000000E+00  0.00000000E+00  0.00000000E+00
  0.00000000E+00  0.00000000E+00  0.00000000E+00  0.00000000E+00  0.00000000E+00
  0.00000000E+00  0.00000000E+00  0.00000000E+00  9.69782987E-02  0.00000000E+00
  0.00000000E+00  0.00000000E+00  0.00000000E+00  0.00000000E+00  0.00000000E+00
  0.00000000E+00  0.00000000E+00  0.00000000E+00  9.69782987E-02  0.00000000E+00
  0.00000000E+00  3.07427447E-01  0.00000000E+00  0.00000000E+00  0.00000000E+00
  0.00000000E+00  0.00000000E+00  0.00000000E+00  0.00000000E+00  0.00000000E+00
  0.00000000E+00  0.00000000E+00  0.00000000E+00  0.00000000E+00  0.00000000E+00
  0.00000000E+00  0.00000000E+00  0.00000000E+00  0.00000000E+00  0.00000000E+00
  0.00000000E+00  0.00000000E+00  0.00000000E+00  0.00000000E+00  4.94210922E-02
  0.00000000E+00  0.00000000E+00  3.29232414E-01  0.00000000E+00  0.00000000E+00
  0.00000000E+00  0.00000000E+00  0.00000000E+00  0.00000000E+00  0.00000000E+00
  0.00000000E+00  0.00000000E+00  4.94210922E-02  0.00000000E+00  0.00000000E+00
  3.29232414E-01  0.00000000E+00  0.00000000E+00  8.65051903E-01  0.00000000E+00
  0.00000000E+00  0.00000000E+00  0.00000000E+00  0.00000000E+00  0.00000000E+00
  0.00000000E+00  0.00000000E+00  0.00000000E+00  0.00000000E+00  0.00000000E+00
  0.00000000E+00  0.00000000E+00  0.00000000E+00  0.00000000E+00  0.00000000E+00
  0.00000000E+00  0.00000000E+00  0.00000000E+00  0.00000000E+00  0.00000000E+00
  0.00000000E+00  0.00000000E+00  0.00000000E+00  0.00000000E+00  1.70519743E-02
  0.00000000E+00  0.00000000E+00  1.69798236E-01  0.00000000E+00  0.00000000E+00
  9.20232813E-01  0.00000000E+00  0.00000000E+00  0.00000000E+00  0.00000000E+00
  0.00000000E+00  0.00000000E+00  0.00000000E+00  0.00000000E+00  0.00000000E+00
  1.70519743E-02  0.00000000E+00  0.00000000E+00  1.69798236E-01  0.00000000E+00
  0.00000000E+00  9.20232813E-01  0.00000000E+00  0.00000000E+00  2.48262165E+00
  0.00000000E+00  0.00000000E+00  0.00000000E+00  0.00000000E+00  0.00000000E+00
  0.00000000E+00  0.00000000E+00  0.00000000E+00  0.00000000E+00  0.00000000E+00
  0.00000000E+00  0.00000000E+00  0.00000000E+00  0.00000000E+00  0.00000000E+00
  0.00000000E+00  0.00000000E+00  0.00000000E+00  0.00000000E+00  0.00000000E+00
  0.00000000E+00  0.00000000E+00  0.00000000E+00  0.00000000E+00  0.00000000E+00
  0.00000000E+00  0.00000000E+00  0.00000000E+00  4.51572766E-03  0.00000000E+00
  0.00000000E+00  5.35910621E-02  0.00000000E+00  0.00000000E+00  4.35040930E-01
  0.00000000E+00  0.00000000E+00  2.55685273E+00  0.00000000E+00  0.00000000E+00
  0.00000000E+00  0.00000000E+00  0.00000000E+00  0.00000000E+00  0.00000000E+00
  0.00000000E+00  0.00000000E+00  4.51572766E-03  0.00000000E+00  0.00000000E+00
  5.35910621E-02  0.00000000E+00  0.00000000E+00  4.35040930E-01  0.00000000E+00
  0.00000000E+00  2.55685273E+00  0.00000000E+00  0.00000000E+00  7.76880050E+00
  0.00000000E+00  0.00000000E+00  0.00000000E+00  0.00000000E+00  0.00000000E+00
  0.00000000E+00  0.00000000E+00  0.00000000E+00  0.00000000E+00  0.00000000E+00
  0.00000000E+00  0.00000000E+00  0.00000000E+00  0.00000000E+00  0.00000000E+00
  0.00000000E+00  0.00000000E+00  0.00000000E+00  0.00000000E+00  0.00000000E+00
  0.00000000E+00  0.00000000E+00  0.00000000E+00  0.00000000E+00  0.00000000E+00
  0.00000000E+00  0.00000000E+00  0.00000000E+00  0.00000000E+00  0.00000000E+00
  0.00000000E+00  0.00000000E+00  0.00000000E+00  0.00000000E+00  0.00000000E+00
  0.00000000E+00  0.00000000E+00  0.00000000E+00  0.00000000E+00  0.00000000E+00
  0.00000000E+00  0.00000000E+00  0.00000000E+00  0.00000000E+00  0.00000000E+00
  0.00000000E+00  3.10930552E-02 -4.31673614E-02  2.37400054E-01  2.29219018E-01
  1.51481942E-01  8.20810538E-02  0.00000000E+00  0.00000000E+00  0.00000000E+00
  0.00000000E+00  0.00000000E+00  0.00000000E+00  0.00000000E+00  0.00000000E+00
  0.00000000E+00  0.00000000E+00  0.00000000E+00  0.00000000E+00  0.00000000E+00
  0.00000000E+00  0.00000000E+00  7.81047442E-02  0.00000000E+00  0.00000000E+00
  0.00000000E+00  0.00000000E+00  0.00000000E+00  0.00000000E+00  0.00000000E+00
  0.00000000E+00  0.00000000E+00  0.00000000E+00  0.00000000E+00  0.00000000E+00
  0.00000000E+00  0.00000000E+00  0.00000000E+00  0.00000000E+00  0.00000000E+00
  0.00000000E+00  0.00000000E+00  0.00000000E+00  0.00000000E+00  0.00000000E+00
  0.00000000E+00  0.00000000E+00  0.00000000E+00 -1.35281385E-01  0.00000000E+00
  0.00000000E+00  0.00000000E+00  0.00000000E+00  0.00000000E+00  0.00000000E+00
  0.00000000E+00  0.00000000E+00  0.00000000E+00  0.00000000E+00  0.00000000E+00
  0.00000000E+00  0.00000000E+00  0.00000000E+00  0.00000000E+00  0.00000000E+00
  0.00000000E+00  0.00000000E+00  0.00000000E+00  0.00000000E+00  0.00000000E+00
  0.00000000E+00  0.00000000E+00  1.35281385E-01  0.00000000E+00  0.00000000E+00
  0.00000000E+00  0.00000000E+00  0.00000000E+00  0.00000000E+00  0.00000000E+00
  0.00000000E+00  0.00000000E+00  0.00000000E+00  0.00000000E+00  0.00000000E+00
  0.00000000E+00  0.00000000E+00  0.00000000E+00  0.00000000E+00  0.00000000E+00
  0.00000000E+00  0.00000000E+00  0.00000000E+00  0.00000000E+00  0.00000000E+00
  0.00000000E+00  0.00000000E+00  0.00000000E+00  0.00000000E+00  7.30781564E-02
  0.00000000E+00  0.00000000E+00  0.00000000E+00  0.00000000E+00  0.00000000E+00
  0.00000000E+00  0.00000000E+00  0.00000000E+00  0.00000000E+00  0.00000000E+00
  0.00000000E+00  0.00000000E+00  0.00000000E+00  0.00000000E+00  0.00000000E+00
  0.00000000E+00  0.00000000E+00  0.00000000E+00  0.00000000E+00  0.00000000E+00
  0.00000000E+00  0.00000000E+00  0.00000000E+00  0.00000000E+00  0.00000000E+00
  0.00000000E+00  0.00000000E+00  0.00000000E+00  1.26575080E-01  0.00000000E+00
  0.00000000E+00  1.30447357E-02 -1.89953178E-02  3.37586336E-01  6.53422477E-01
  6.67131110E-01  4.45814095E-01  0.00000000E+00  0.00000000E+00  0.00000000E+00
  0.00000000E+00  0.00000000E+00  0.00000000E+00  0.00000000E+00  0.00000000E+00
  0.00000000E+00  0.00000000E+00  0.00000000E+00  0.00000000E+00  0.00000000E+00
  0.00000000E+00  0.00000000E+00  7.30781564E-02  0.00000000E+00  0.00000000E+00
 -1.26575080E-01  0.00000000E+00  2.22399950E-01  0.00000000E+00  0.00000000E+00
  0.00000000E+00  0.00000000E+00  0.00000000E+00  0.00000000E+00  0.00000000E+00
  0.00000000E+00  0.00000000E+00  0.00000000E+00  0.00000000E+00  0.00000000E+00
  0.00000000E+00  0.00000000E+00  0.00000000E+00  0.00000000E+00  0.00000000E+00
  0.00000000E+00  0.00000000E+00  0.00000000E+00  0.00000000E+00  0.00000000E+00
  0.00000000E+00  0.00000000E+00  0.00000000E+00 -1.26575080E-01  0.00000000E+00
  0.00000000E+00  0.00000000E+00  0.00000000E+00 -3.85208012E-01  0.00000000E+00
  0.00000000E+00  0.00000000E+00  0.00000000E+00  0.00000000E+00  0.00000000E+00
  0.00000000E+00  0.00000000E+00  0.00000000E+00  0.00000000E+00  0.00000000E+00
  0.00000000E+00  0.00000000E+00  0.00000000E+00  0.00000000E+00  0.00000000E+00
  0.00000000E+00  0.00000000E+00  0.00000000E+00  0.00000000E+00  0.00000000E+00
  0.00000000E+00  0.00000000E+00  1.26575080E-01  0.00000000E+00  0.00000000E+00
  0.00000000E+00  0.00000000E+00  3.85208012E-01  0.00000000E+00  0.00000000E+00
  0.00000000E+00  0.00000000E+00  0.00000000E+00  0.00000000E+00  0.00000000E+00
  0.00000000E+00  0.00000000E+00  0.00000000E+00  0.00000000E+00  0.00000000E+00
  0.00000000E+00  0.00000000E+00  0.00000000E+00  0.00000000E+00  0.00000000E+00
  0.00000000E+00  0.00000000E+00  0.00000000E+00  0.00000000E+00  0.00000000E+00
  0.00000000E+00  0.00000000E+00  0.00000000E+00  0.00000000E+00  2.68909234E-02
  0.00000000E+00  0.00000000E+00  0.00000000E+00  0.00000000E+00  2.08127944E-01
  0.00000000E+00  0.00000000E+00  0.00000000E+00  0.00000000E+00  0.00000000E+00
  0.00000000E+00  0.00000000E+00  0.00000000E+00  0.00000000E+00  0.00000000E+00
  0.00000000E+00  0.00000000E+00  0.00000000E+00  0.00000000E+00  0.00000000E+00
  0.00000000E+00  0.00000000E+00  0.00000000E+00  0.00000000E+00  0.00000000E+00
  0.00000000E+00  0.00000000E+00  0.00000000E+00  0.00000000E+00  0.00000000E+00
  0.00000000E+00  0.00000000E+00  0.00000000E+00  4.65764455E-02  0.00000000E+00
  0.00000000E+00  0.00000000E+00  0.00000000E+00  3.60488173E-01  0.00000000E+00
  0.00000000E+00  3.25295211E-03 -4.82129475E-03  1.92480601E-01  8.38822200E-01
  1.80330529E+00  1.92486697E+00  0.00000000E+00  0.00000000E+00  0.00000000E+00
  0.00000000E+00  0.00000000E+00  0.00000000E+00  0.00000000E+00  0.00000000E+00
  0.00000000E+00  0.00000000E+00  0.00000000E+00  0.00000000E+00  0.00000000E+00
  0.00000000E+00  0.00000000E+00  2.68909234E-02  0.00000000E+00  0.00000000E+00
 -4.65764455E-02  0.00000000E+00  2.08127944E-01  0.00000000E+00  0.00000000E+00
 -3.60488173E-01  0.00000000E+00  6.33059506E-01  0.00000000E+00  0.00000000E+00
  0.00000000E+00  0.00000000E+00  0.00000000E+00  0.00000000E+00  0.00000000E+00
  0.00000000E+00  0.00000000E+00  0.00000000E+00  0.00000000E+00  0.00000000E+00
  0.00000000E+00  0.00000000E+00  0.00000000E+00  0.00000000E+00  0.00000000E+00
  0.00000000E+00  0.00000000E+00  0.00000000E+00  0.00000000E+00  0.00000000E+00
  0.00000000E+00  0.00000000E+00  0.00000000E+00 -4.65764455E-02  0.00000000E+00
  0.00000000E+00  0.00000000E+00  0.00000000E+00 -3.60488173E-01  0.00000000E+00
  0.00000000E+00  0.00000000E+00  0.00000000E+00 -1.09649123E+00  0.00000000E+00
  0.00000000E+00  0.00000000E+00  0.00000000E+00  0.00000000E+00  0.00000000E+00
  0.00000000E+00  0.00000000E+00  0.00000000E+00  0.00000000E+00  0.00000000E+00
  0.00000000E+00  0.00000000E+00  0.00000000E+00  0.00000000E+00  0.00000000E+00
  0.00000000E+00  0.00000000E+00  0.00000000E+00  0.00000000E+00  0.00000000E+00
  0.00000000E+00  0.00000000E+00  4.65764455E-02  0.00000000E+00  0.00000000E+00
  0.00000000E+00  0.00000000E+00  3.60488173E-01  0.00000000E+00  0.00000000E+00
  0.00000000E+00  0.00000000E+00  1.09649123E+00  0.00000000E+00  0.00000000E+00
  0.00000000E+00  0.00000000E+00  0.00000000E+00  0.00000000E+00  0.00000000E+00
  0.00000000E+00  0.00000000E+00  0.00000000E+00  0.00000000E+00  0.00000000E+00
  0.00000000E+00  0.00000000E+00  0.00000000E+00  0.00000000E+00  0.00000000E+00
  0.00000000E+00  0.00000000E+00  0.00000000E+00  0.00000000E+00  0.00000000E+00
  0.00000000E+00  0.00000000E+00  0.00000000E+00  0.00000000E+00  5.60545647E-03
  0.00000000E+00  0.00000000E+00  0.00000000E+00  0.00000000E+00  7.23944370E-02
  0.00000000E+00  0.00000000E+00  0.00000000E+00  0.00000000E+00  5.76787906E-01
  0.00000000E+00  0.00000000E+00  0.00000000E+00  0.00000000E+00  0.00000000E+00
  0.00000000E+00  0.00000000E+00  0.00000000E+00  0.00000000E+00  0.00000000E+00
  0.00000000E+00  0.00000000E+00  0.00000000E+00  0.00000000E+00  0.00000000E+00
  0.00000000E+00  0.00000000E+00  0.00000000E+00  0.00000000E+00  0.00000000E+00
  0.00000000E+00  0.00000000E+00  0.00000000E+00  0.00000000E+00  0.00000000E+00
  0.00000000E+00  0.00000000E+00  0.00000000E+00  9.70893540E-03  0.00000000E+00
  0.00000000E+00  0.00000000E+00  0.00000000E+00  1.25390843E-01  0.00000000E+00
  0.00000000E+00  0.00000000E+00  0.00000000E+00  9.99025958E-01  0.00000000E+00
  0.00000000E+00  5.76319474E-04 -8.59598070E-04  5.19097648E-02  4.16446865E-01
  2.11887790E+00  5.12693453E+00  0.00000000E+00  0.00000000E+00  0.00000000E+00
  0.00000000E+00  0.00000000E+00  0.00000000E+00  0.00000000E+00  0.00000000E+00
  0.00000000E+00  0.00000000E+00  0.00000000E+00  0.00000000E+00  0.00000000E+00
  0.00000000E+00  0.00000000E+00  5.60545647E-03  0.00000000E+00  0.00000000E+00
 -9.70893540E-03  0.00000000E+00  7.23944370E-02  0.00000000E+00  0.00000000E+00
 -1.25390843E-01  0.00000000E+00  5.76787906E-01  0.00000000E+00  0.00000000E+00
 -9.99025958E-01  0.00000000E+00  1.88430245E+00  0.00000000E+00  0.00000000E+00
  0.00000000E+00  0.00000000E+00  0.00000000E+00  0.00000000E+00  0.00000000E+00
  0.00000000E+00  0.00000000E+00  0.00000000E+00  0.00000000E+00  0.00000000E+00
  0.00000000E+00  0.00000000E+00  0.00000000E+00  0.00000000E+00  0.00000000E+00
  0.00000000E+00  0.00000000E+00  0.00000000E+00  0.00000000E+00  0.00000000E+00
  0.00000000E+00  0.00000000E+00  0.00000000E+00 -9.70893540E-03  0.00000000E+00
  0.00000000E+00  0.00000000E+00  0.00000000E+00 -1.25390843E-01  0.00000000E+00
  0.00000000E+00  0.00000000E+00  0.00000000E+00 -9.99025958E-01  0.00000000E+00
  0.00000000E+00  0.00000000E+00  0.00000000E+00 -3.26370757E+00  0.00000000E+00
  0.00000000E+00  0.00000000E+00  0.00000000E+00  0.00000000E+00  0.00000000E+00
  0.00000000E+00  0.00000000E+00  0.00000000E+00  0.00000000E+00  0.00000000E+00
  0.00000000E+00  0.00000000E+00  0.00000000E+00  0.00000000E+00  0.00000000E+00
  0.00000000E+00  0.00000000E+00  0.00000000E+00  0.00000000E+00  0.00000000E+00
  0.00000000E+00  0.00000000E+00  9.70893540E-03  0.00000000E+00  0.00000000E+00
  0.00000000E+00  0.00000000E+00  1.25390843E-01  0.00000000E+00  0.00000000E+00
  0.00000000E+00  0.00000000E+00  9.99025958E-01  0.00000000E+00  0.00000000E+00
  0.00000000E+00  0.00000000E+00  3.26370757E+00  0.00000000E+00  0.00000000E+00
  0.00000000E+00  0.00000000E+00  0.00000000E+00  0.00000000E+00  0.00000000E+00
  0.00000000E+00  0.00000000E+00  0.00000000E+00 -6.05130887E-02  0.00000000E+00
  0.00000000E+00 -2.00474320E-01  0.00000000E+00  0.00000000E+00 -1.83458530E-01
  0.00000000E+00  0.00000000E+00 -8.30782724E-02  0.00000000E+00  0.00000000E+00
 -2.45667538E-02  0.00000000E+00  0.00000000E+00  0.00000000E+00  0.00000000E+00
  0.00000000E+00  0.00000000E+00  0.00000000E+00  0.00000000E+00  0.00000000E+00
  0.00000000E+00  0.00000000E+00  0.00000000E+00  0.00000000E+00  0.00000000E+00
  0.00000000E+00  0.00000000E+00  0.00000000E+00  0.00000000E+00  0.00000000E+00
  0.00000000E+00  0.00000000E+00  0.00000000E+00  0.00000000E+00  0.00000000E+00
  0.00000000E+00  0.00000000E+00  0.00000000E+00  0.00000000E+00  0.00000000E+00
  0.00000000E+00  0.00000000E+00  0.00000000E+00  0.00000000E+00  0.00000000E+00
  0.00000000E+00  0.00000000E+00  0.00000000E+00  0.00000000E+00  0.00000000E+00
  0.00000000E+00  0.00000000E+00  0.00000000E+00  0.00000000E+00  0.00000000E+00
  0.00000000E+00  0.00000000E+00  0.00000000E+00  0.00000000E+00  0.00000000E+00
  0.00000000E+00  0.00000000E+00  0.00000000E+00  0.00000000E+00  0.00000000E+00
  0.00000000E+00  0.00000000E+00  0.00000000E+00  0.00000000E+00  0.00000000E+00
  0.00000000E+00  0.00000000E+00  0.00000000E+00  0.00000000E+00  0.00000000E+00
  0.00000000E+00  0.00000000E+00  0.00000000E+00  0.00000000E+00  0.00000000E+00
  0.00000000E+00  0.00000000E+00  0.00000000E+00  0.00000000E+00  9.88174600E-02
  0.00000000E+00  0.00000000E+00  3.27373194E-01  0.00000000E+00  0.00000000E+00
  2.99586525E-01  0.00000000E+00  0.00000000E+00  1.35666251E-01  0.00000000E+00
  0.00000000E+00  4.01173410E-02  0.00000000E+00  0.00000000E+00  0.00000000E+00
  0.00000000E+00  0.00000000E+00  0.00000000E+00  0.00000000E+00  0.00000000E+00
  0.00000000E+00  0.00000000E+00  0.00000000E+00  0.00000000E+00  0.00000000E+00
  0.00000000E+00  0.00000000E+00  0.00000000E+00  0.00000000E+00  0.00000000E+00
  0.00000000E+00  0.00000000E+00  8.63104208E-02  0.00000000E+00  0.00000000E+00
  0.00000000E+00  0.00000000E+00  0.00000000E+00  0.00000000E+00  0.00000000E+00
  0.00000000E+00  0.00000000E+00 -7.81220616E-02  0.00000000E+00  0.00000000E+00
 -2.58811235E-01  0.00000000E+00  0.00000000E+00 -2.36843944E-01  0.00000000E+00
  0.00000000E+00 -1.07253588E-01  0.00000000E+00  0.00000000E+00 -3.17155428E-02
  0.00000000E+00  0.00000000E+00  0.00000000E+00  0.00000000E+00  0.00000000E+00
  0.00000000E+00  0.00000000E+00  0.00000000E+00  0.00000000E+00  0.00000000E+00
  0.00000000E+00  0.00000000E+00  0.00000000E+00  0.00000000E+00  0.00000000E+00
  0.00000000E+00  0.00000000E+00  0.00000000E+00  0.00000000E+00  0.00000000E+00
  0.00000000E+00  0.00000000E+00  0.00000000E+00 -1.67139411E-01  0.00000000E+00
  0.00000000E+00  0.00000000E+00  0.00000000E+00  0.00000000E+00  0.00000000E+00
  0.00000000E+00  7.81220616E-02  0.00000000E+00  0.00000000E+00  2.58811235E-01
  0.00000000E+00  0.00000000E+00  2.36843944E-01  0.00000000E+00  0.00000000E+00
  1.07253588E-01  0.00000000E+00  0.00000000E+00  3.17155428E-02  0.00000000E+00
  0.00000000E+00  0.00000000E+00  0.00000000E+00  0.00000000E+00  0.00000000E+00
  0.00000000E+00  0.00000000E+00  0.00000000E+00  0.00000000E+00  0.00000000E+00
  0.00000000E+00  0.00000000E+00  0.00000000E+00  0.00000000E+00  0.00000000E+00
  0.00000000E+00  0.00000000E+00  0.00000000E+00  0.00000000E+00  0.00000000E+00
  0.00000000E+00  0.00000000E+00  1.67139411E-01  0.00000000E+00  0.00000000E+00
  0.00000000E+00  0.00000000E+00  0.00000000E+00  0.00000000E+00  0.00000000E+00
  0.00000000E+00  0.00000000E+00  0.00000000E+00  0.00000000E+00  0.00000000E+00
  0.00000000E+00  0.00000000E+00  0.00000000E+00  0.00000000E+00  0.00000000E+00
  0.00000000E+00  0.00000000E+00  0.00000000E+00  0.00000000E+00  0.00000000E+00
  0.00000000E+00  0.00000000E+00  0.00000000E+00  0.00000000E+00  0.00000000E+00
  0.00000000E+00  0.00000000E+00  0.00000000E+00  0.00000000E+00  0.00000000E+00
  0.00000000E+00  0.00000000E+00  0.00000000E+00  0.00000000E+00  0.00000000E+00
  0.00000000E+00  0.00000000E+00  0.00000000E+00  0.00000000E+00  0.00000000E+00
  0.00000000E+00  0.00000000E+00  0.00000000E+00  0.00000000E+00  0.00000000E+00
  0.00000000E+00 -2.15776052E-01  0.00000000E+00  0.00000000E+00  0.00000000E+00
  0.00000000E+00  0.00000000E+00  0.00000000E+00  0.00000000E+00  0.00000000E+00
  0.00000000E+00 -1.26566100E-17  0.00000000E+00  0.00000000E+00 -3.08945826E-17
  0.00000000E+00  0.00000000E+00 -1.98763201E-17  0.00000000E+00  0.00000000E+00
 -1.17589890E-17  0.00000000E+00  0.00000000E+00  6.40897658E-19  0.00000000E+00
  0.00000000E+00  0.00000000E+00  0.00000000E+00  0.00000000E+00  0.00000000E+00
  0.00000000E+00  0.00000000E+00  0.00000000E+00  0.00000000E+00  0.00000000E+00
  0.00000000E+00  0.00000000E+00  0.00000000E+00  0.00000000E+00  0.00000000E+00
  0.00000000E+00  0.00000000E+00  0.00000000E+00  0.00000000E+00 -2.60967366E-17
  0.00000000E+00  0.00000000E+00  2.15776052E-01  0.00000000E+00  0.00000000E+00
  0.00000000E+00  0.00000000E+00  0.00000000E+00  0.00000000E+00  0.00000000E+00
  0.00000000E+00  0.00000000E+00  0.00000000E+00 -1.91250636E-02  0.00000000E+00
  0.00000000E+00 -2.05248039E-01  0.00000000E+00  0.00000000E+00 -5.77241447E-01
  0.00000000E+00  0.00000000E+00 -5.41773622E-01  0.00000000E+00  0.00000000E+00
 -2.27858024E-01  0.00000000E+00  0.00000000E+00  0.00000000E+00  0.00000000E+00
  0.00000000E+00  0.00000000E+00  0.00000000E+00  0.00000000E+00  0.00000000E+00
  0.00000000E+00  0.00000000E+00  0.00000000E+00  0.00000000E+00  0.00000000E+00
  0.00000000E+00  0.00000000E+00  0.00000000E+00  0.00000000E+00  0.00000000E+00
  0.00000000E+00  0.00000000E+00  0.00000000E+00  0.00000000E+00  6.92503089E-02
  0.00000000E+00  0.00000000E+00  0.00000000E+00  2.01880690E-19  0.00000000E+00
  0.00000000E+00  0.00000000E+00  0.00000000E+00  0.00000000E+00  0.00000000E+00
  0.00000000E+00  0.00000000E+00  0.00000000E+00  0.00000000E+00  0.00000000E+00
  0.00000000E+00  0.00000000E+00  0.00000000E+00  0.00000000E+00  0.00000000E+00
  0.00000000E+00  0.00000000E+00  0.00000000E+00  0.00000000E+00  0.00000000E+00
  0.00000000E+00  0.00000000E+00  0.00000000E+00  0.00000000E+00  0.00000000E+00
  0.00000000E+00  0.00000000E+00  0.00000000E+00  0.00000000E+00  0.00000000E+00
  0.00000000E+00  0.00000000E+00  0.00000000E+00  0.00000000E+00  0.00000000E+00
  0.00000000E+00  0.00000000E+00  0.00000000E+00  0.00000000E+00  0.00000000E+00
  0.00000000E+00  0.00000000E+00  0.00000000E+00  0.00000000E+00  0.00000000E+00
  1.34102647E-01  0.00000000E+00  0.00000000E+00  0.00000000E+00  0.00000000E+00
  0.00000000E+00  0.00000000E+00  0.00000000E+00  0.00000000E+00  0.00000000E+00
  0.00000000E+00  0.00000000E+00  0.00000000E+00  3.12310981E-02  0.00000000E+00
  0.00000000E+00  3.35168645E-01  0.00000000E+00  0.00000000E+00  9.42631335E-01
  0.00000000E+00  0.00000000E+00  8.84712620E-01  0.00000000E+00  0.00000000E+00
  3.72090596E-01  0.00000000E+00  0.00000000E+00  0.00000000E+00  0.00000000E+00
  0.00000000E+00  0.00000000E+00  0.00000000E+00  0.00000000E+00  0.00000000E+00
  0.00000000E+00  0.00000000E+00  0.00000000E+00  0.00000000E+00  0.00000000E+00
  0.00000000E+00  0.00000000E+00  0.00000000E+00  0.00000000E+00  0.00000000E+00
  0.00000000E+00  6.92503089E-02  0.00000000E+00  0.00000000E+00 -1.34102647E-01
  0.00000000E+00  0.00000000E+00  0.00000000E+00  2.52524716E-01  0.00000000E+00
  0.00000000E+00  0.00000000E+00  0.00000000E+00  0.00000000E+00  0.00000000E+00
  0.00000000E+00  0.00000000E+00  0.00000000E+00 -2.46903509E-02  0.00000000E+00
  0.00000000E+00 -2.64974079E-01  0.00000000E+00  0.00000000E+00 -7.45215503E-01
  0.00000000E+00  0.00000000E+00 -6.99426739E-01  0.00000000E+00  0.00000000E+00
 -2.94163445E-01  0.00000000E+00  0.00000000E+00  0.00000000E+00  0.00000000E+00
  0.00000000E+00  0.00000000E+00  0.00000000E+00  0.00000000E+00  0.00000000E+00
  0.00000000E+00  0.00000000E+00  0.00000000E+00  0.00000000E+00  0.00000000E+00
  0.00000000E+00  0.00000000E+00  0.00000000E+00  0.00000000E+00  0.00000000E+00
  0.00000000E+00  0.00000000E+00  0.00000000E+00  0.00000000E+00 -1.34102647E-01
  0.00000000E+00  0.00000000E+00  0.00000000E+00  1.73125772E-01  0.00000000E+00
  0.00000000E+00 -4.89012009E-01  0.00000000E+00  0.00000000E+00  0.00000000E+00
  0.00000000E+00  0.00000000E+00  0.00000000E+00  0.00000000E+00  2.46903509E-02
  0.00000000E+00  0.00000000E+00  2.64974079E-01  0.00000000E+00  0.00000000E+00
  7.45215503E-01  0.00000000E+00  0.00000000E+00  6.99426739E-01  0.00000000E+00
  0.00000000E+00  2.94163445E-01  0.00000000E+00  0.00000000E+00  0.00000000E+00
  0.00000000E+00  0.00000000E+00  0.00000000E+00  0.00000000E+00  0.00000000E+00
  0.00000000E+00  0.00000000E+00  0.00000000E+00  0.00000000E+00  0.00000000E+00
  0.00000000E+00  0.00000000E+00  0.00000000E+00  0.00000000E+00  0.00000000E+00
  0.00000000E+00  0.00000000E+00  0.00000000E+00  0.00000000E+00  0.00000000E+00
  1.34102647E-01  0.00000000E+00  0.00000000E+00  0.00000000E+00 -1.73125772E-01
  0.00000000E+00  0.00000000E+00  4.89012009E-01  0.00000000E+00  0.00000000E+00
  0.00000000E+00  0.00000000E+00  0.00000000E+00  0.00000000E+00  0.00000000E+00
  0.00000000E+00  0.00000000E+00  0.00000000E+00  0.00000000E+00  0.00000000E+00
  0.00000000E+00  0.00000000E+00  0.00000000E+00  0.00000000E+00  0.00000000E+00
  0.00000000E+00  0.00000000E+00  0.00000000E+00  0.00000000E+00  0.00000000E+00
  0.00000000E+00  0.00000000E+00  0.00000000E+00  0.00000000E+00  0.00000000E+00
  0.00000000E+00  0.00000000E+00  0.00000000E+00  0.00000000E+00  0.00000000E+00
  0.00000000E+00  0.00000000E+00  0.00000000E+00  0.00000000E+00  0.00000000E+00
  0.00000000E+00  0.00000000E+00  0.00000000E+00  0.00000000E+00  0.00000000E+00
  0.00000000E+00  0.00000000E+00  0.00000000E+00  0.00000000E+00  0.00000000E+00
  0.00000000E+00 -1.73125772E-01  0.00000000E+00  0.00000000E+00  0.00000000E+00
  0.00000000E+00  0.00000000E+00  0.00000000E+00 -6.31311789E-01  0.00000000E+00
  0.00000000E+00  0.00000000E+00  0.00000000E+00  0.00000000E+00  0.00000000E+00
  0.00000000E+00  0.00000000E+00  0.00000000E+00 -2.60475431E-18  0.00000000E+00
  0.00000000E+00 -3.36951100E-17  0.00000000E+00  0.00000000E+00 -7.05264150E-17
  0.00000000E+00  0.00000000E+00 -7.26574472E-17  0.00000000E+00  0.00000000E+00
 -1.86480032E-17  0.00000000E+00  0.00000000E+00  0.00000000E+00  0.00000000E+00
  0.00000000E+00  0.00000000E+00  0.00000000E+00  0.00000000E+00  0.00000000E+00
  0.00000000E+00  0.00000000E+00  0.00000000E+00  0.00000000E+00  0.00000000E+00
  0.00000000E+00  0.00000000E+00  0.00000000E+00  0.00000000E+00  0.00000000E+00
  0.00000000E+00 -4.01329514E-17  0.00000000E+00  0.00000000E+00  1.73125772E-01
  0.00000000E+00  0.00000000E+00  0.00000000E+00  1.13047542E-16  0.00000000E+00
  0.00000000E+00  6.31311789E-01  0.00000000E+00  0.00000000E+00  0.00000000E+00
  0.00000000E+00  0.00000000E+00  0.00000000E+00  0.00000000E+00  0.00000000E+00
  0.00000000E+00  0.00000000E+00 -3.67144444E-03  0.00000000E+00  0.00000000E+00
 -7.77409987E-02  0.00000000E+00  0.00000000E+00 -6.02816658E-01  0.00000000E+00
  0.00000000E+00 -1.55543436E+00  0.00000000E+00  0.00000000E+00 -1.27107924E+00
  0.00000000E+00  0.00000000E+00  0.00000000E+00  0.00000000E+00  0.00000000E+00
  0.00000000E+00  0.00000000E+00  0.00000000E+00  0.00000000E+00  0.00000000E+00
  0.00000000E+00  0.00000000E+00  0.00000000E+00  0.00000000E+00  0.00000000E+00
  0.00000000E+00  0.00000000E+00  0.00000000E+00  0.00000000E+00  0.00000000E+00
  0.00000000E+00  0.00000000E+00  0.00000000E+00  2.06877917E-02  0.00000000E+00
  0.00000000E+00  0.00000000E+00 -4.76021169E-18  0.00000000E+00  0.00000000E+00
  2.22711237E-01  0.00000000E+00  0.00000000E+00  0.00000000E+00  4.16788962E-17
  0.00000000E+00  0.00000000E+00  0.00000000E+00  0.00000000E+00  0.00000000E+00
  0.00000000E+00  0.00000000E+00  0.00000000E+00  0.00000000E+00  0.00000000E+00
  0.00000000E+00  0.00000000E+00  0.00000000E+00  0.00000000E+00  0.00000000E+00
  0.00000000E+00  0.00000000E+00  0.00000000E+00  0.00000000E+00  0.00000000E+00
  0.00000000E+00  0.00000000E+00  0.00000000E+00  0.00000000E+00  0.00000000E+00
  0.00000000E+00  0.00000000E+00  0.00000000E+00  0.00000000E+00  0.00000000E+00
  0.00000000E+00  0.00000000E+00  0.00000000E+00  0.00000000E+00  0.00000000E+00
  0.00000000E+00  0.00000000E+00  0.00000000E+00  0.00000000E+00  0.00000000E+00
  0.00000000E+00  0.00000000E+00  0.00000000E+00  0.00000000E+00  0.00000000E+00
  0.00000000E+00  4.00617364E-02  0.00000000E+00  0.00000000E+00  0.00000000E+00
  0.00000000E+00  0.00000000E+00  0.00000000E+00  4.31278456E-01  0.00000000E+00
  0.00000000E+00  0.00000000E+00  0.00000000E+00  0.00000000E+00  0.00000000E+00
  0.00000000E+00  0.00000000E+00  0.00000000E+00  0.00000000E+00  0.00000000E+00
  0.00000000E+00  5.99544367E-03  0.00000000E+00  0.00000000E+00  1.26950519E-01
  0.00000000E+00  0.00000000E+00  9.84395481E-01  0.00000000E+00  0.00000000E+00
  2.54001368E+00  0.00000000E+00  0.00000000E+00  2.07566371E+00  0.00000000E+00
  0.00000000E+00  0.00000000E+00  0.00000000E+00  0.00000000E+00  0.00000000E+00
  0.00000000E+00  0.00000000E+00  0.00000000E+00  0.00000000E+00  0.00000000E+00
  0.00000000E+00  0.00000000E+00  0.00000000E+00  0.00000000E+00  0.00000000E+00
  0.00000000E+00  0.00000000E+00  0.00000000E+00  0.00000000E+00  2.06877917E-02
  0.00000000E+00  0.00000000E+00 -4.00617364E-02  0.00000000E+00  0.00000000E+00
  0.00000000E+00  2.22711237E-01  0.00000000E+00  0.00000000E+00 -4.31278456E-01
  0.00000000E+00  0.00000000E+00  0.00000000E+00  6.54943781E-01  0.00000000E+00
  0.00000000E+00  0.00000000E+00  0.00000000E+00  0.00000000E+00  0.00000000E+00
  0.00000000E+00  0.00000000E+00  0.00000000E+00 -4.73981439E-03  0.00000000E+00
  0.00000000E+00 -1.00363198E-01  0.00000000E+00  0.00000000E+00 -7.78232960E-01
  0.00000000E+00  0.00000000E+00 -2.00805713E+00  0.00000000E+00  0.00000000E+00
 -1.64095625E+00  0.00000000E+00  0.00000000E+00  0.00000000E+00  0.00000000E+00
  0.00000000E+00  0.00000000E+00  0.00000000E+00  0.00000000E+00  0.00000000E+00
  0.00000000E+00  0.00000000E+00  0.00000000E+00  0.00000000E+00  0.00000000E+00
  0.00000000E+00  0.00000000E+00  0.00000000E+00  0.00000000E+00  0.00000000E+00
  0.00000000E+00  0.00000000E+00  0.00000000E+00  0.00000000E+00 -4.00617364E-02
  0.00000000E+00  0.00000000E+00  0.00000000E+00  5.17194793E-02  0.00000000E+00
  0.00000000E+00 -4.31278456E-01  0.00000000E+00  0.00000000E+00  0.00000000E+00
  5.56778093E-01  0.00000000E+00  0.00000000E+00 -1.26829318E+00  0.00000000E+00
  0.00000000E+00  0.00000000E+00  0.00000000E+00  0.00000000E+00  0.00000000E+00
  0.00000000E+00  4.73981439E-03  0.00000000E+00  0.00000000E+00  1.00363198E-01
  0.00000000E+00  0.00000000E+00  7.78232960E-01  0.00000000E+00  0.00000000E+00
  2.00805713E+00  0.00000000E+00  0.00000000E+00  1.64095625E+00  0.00000000E+00
  0.00000000E+00  0.00000000E+00  0.00000000E+00  0.00000000E+00  0.00000000E+00
  0.00000000E+00  0.00000000E+00  0.00000000E+00  0.00000000E+00  0.00000000E+00
  0.00000000E+00  0.00000000E+00  0.00000000E+00  0.00000000E+00  0.00000000E+00
  0.00000000E+00  0.00000000E+00  0.00000000E+00  0.00000000E+00  0.00000000E+00
  0.00000000E+00  0.00000000E+00  4.00617364E-02  0.00000000E+00  0.00000000E+00
  0.00000000E+00 -5.17194793E-02  0.00000000E+00  0.00000000E+00  4.31278456E-01
  0.00000000E+00  0.00000000E+00  0.00000000E+00 -5.56778093E-01  0.00000000E+00
  0.00000000E+00  1.26829318E+00  0.00000000E+00  0.00000000E+00  0.00000000E+00
  0.00000000E+00  0.00000000E+00  0.00000000E+00  0.00000000E+00  0.00000000E+00
  0.00000000E+00  0.00000000E+00  0.00000000E+00  0.00000000E+00  0.00000000E+00
  0.00000000E+00  0.00000000E+00  0.00000000E+00  0.00000000E+00  0.00000000E+00
  0.00000000E+00  0.00000000E+00  0.00000000E+00  0.00000000E+00  0.00000000E+00
  0.00000000E+00  0.00000000E+00  0.00000000E+00  0.00000000E+00  0.00000000E+00
  0.00000000E+00  0.00000000E+00  0.00000000E+00  0.00000000E+00  0.00000000E+00
  0.00000000E+00  0.00000000E+00  0.00000000E+00  0.00000000E+00  0.00000000E+00
  0.00000000E+00  0.00000000E+00  0.00000000E+00  0.00000000E+00  0.00000000E+00
  0.00000000E+00  0.00000000E+00  0.00000000E+00  0.00000000E+00  0.00000000E+00
 -5.17194793E-02  0.00000000E+00  0.00000000E+00  0.00000000E+00  0.00000000E+00
  0.00000000E+00  0.00000000E+00 -5.56778093E-01  0.00000000E+00  0.00000000E+00
  0.00000000E+00  0.00000000E+00  0.00000000E+00  0.00000000E+00 -1.63735945E+00
  0.00000000E+00  0.00000000E+00  0.00000000E+00  0.00000000E+00  0.00000000E+00
  0.00000000E+00  0.00000000E+00  0.00000000E+00  0.00000000E+00 -6.40036263E-19
  0.00000000E+00  0.00000000E+00 -6.72038178E-18  0.00000000E+00  0.00000000E+00
 -1.11586397E-16  0.00000000E+00  0.00000000E+00 -6.70460072E-17  0.00000000E+00
  0.00000000E+00 -3.26501388E-16  0.00000000E+00  0.00000000E+00  0.00000000E+00
  0.00000000E+00  0.00000000E+00  0.00000000E+00  0.00000000E+00  0.00000000E+00
  0.00000000E+00  0.00000000E+00  0.00000000E+00  0.00000000E+00  0.00000000E+00
  0.00000000E+00  0.00000000E+00  0.00000000E+00  0.00000000E+00  0.00000000E+00
  0.00000000E+00  0.00000000E+00 -1.02435695E-17  0.00000000E+00  0.00000000E+00
  5.17194793E-02  0.00000000E+00  0.00000000E+00  0.00000000E+00  7.38345893E-17
  0.00000000E+00  0.00000000E+00  5.56778093E-01  0.00000000E+00  0.00000000E+00
  0.00000000E+00 -1.08412412E-17  0.00000000E+00  0.00000000E+00  1.63735945E+00
  0.00000000E+00  0.00000000E+00  0.00000000E+00  0.00000000E+00  0.00000000E+00
  0.00000000E+00  0.00000000E+00  0.00000000E+00  0.00000000E+00  0.00000000E+00
  0.00000000E+00  0.00000000E+00  0.00000000E+00  0.00000000E+00  0.00000000E+00
  0.00000000E+00  0.00000000E+00  0.00000000E+00  0.00000000E+00  0.00000000E+00
  0.00000000E+00  0.00000000E+00  0.00000000E+00  0.00000000E+00  0.00000000E+00
  0.00000000E+00 -1.23824860E-01  0.00000000E+00  0.00000000E+00  0.00000000E+00
  0.00000000E+00 -3.94539958E-01  0.00000000E+00  0.00000000E+00  0.00000000E+00
  0.00000000E+00 -3.16046552E-01  0.00000000E+00  0.00000000E+00  0.00000000E+00
  0.00000000E+00 -9.59570774E-02  0.00000000E+00  0.00000000E+00  0.00000000E+00
  0.00000000E+00  0.00000000E+00  0.00000000E+00  0.00000000E+00  0.00000000E+00
  0.00000000E+00  0.00000000E+00  0.00000000E+00  0.00000000E+00  0.00000000E+00
  0.00000000E+00  0.00000000E+00  0.00000000E+00  0.00000000E+00  0.00000000E+00
  0.00000000E+00  0.00000000E+00  0.00000000E+00  0.00000000E+00  0.00000000E+00
  0.00000000E+00  0.00000000E+00  0.00000000E+00  0.00000000E+00  0.00000000E+00
  0.00000000E+00  0.00000000E+00  0.00000000E+00  0.00000000E+00  0.00000000E+00
  0.00000000E+00  0.00000000E+00  0.00000000E+00  0.00000000E+00  0.00000000E+00
  0.00000000E+00  0.00000000E+00  0.00000000E+00  0.00000000E+00  0.00000000E+00
  0.00000000E+00  0.00000000E+00  0.00000000E+00  0.00000000E+00  0.00000000E+00
  0.00000000E+00 -4.89460737E-02  0.00000000E+00  0.00000000E+00  0.00000000E+00
  0.00000000E+00 -1.55955612E-01  0.00000000E+00  0.00000000E+00  0.00000000E+00
  0.00000000E+00 -1.24928369E-01  0.00000000E+00  0.00000000E+00  0.00000000E+00
  0.00000000E+00 -3.79303653E-02  0.00000000E+00  0.00000000E+00  0.00000000E+00
  0.00000000E+00  0.00000000E+00  0.00000000E+00  0.00000000E+00  0.00000000E+00
  0.00000000E+00  0.00000000E+00  0.00000000E+00  0.00000000E+00  0.00000000E+00
  0.00000000E+00  0.00000000E+00  0.00000000E+00  0.00000000E+00  0.00000000E+00
  0.00000000E+00  0.00000000E+00  0.00000000E+00  0.00000000E+00  0.00000000E+00
  6.09203657E-19  5.06554257E-18 -3.39585692E-17 -1.05316240E-16  4.26148584E-18
 -2.21398610E-17  0.00000000E+00  0.00000000E+00  0.00000000E+00  0.00000000E+00
  0.00000000E+00  0.00000000E+00  0.00000000E+00  0.00000000E+00  0.00000000E+00
  0.00000000E+00  0.00000000E+00  0.00000000E+00  0.00000000E+00  0.00000000E+00
  0.00000000E+00  1.69554173E-01  0.00000000E+00  0.00000000E+00  4.89460737E-02
  0.00000000E+00  5.40246088E-01  0.00000000E+00  0.00000000E+00  1.55955612E-01
  0.00000000E+00  4.32764564E-01  0.00000000E+00  0.00000000E+00  1.24928369E-01
  0.00000000E+00  1.31394640E-01  0.00000000E+00  0.00000000E+00  3.79303653E-02
  0.00000000E+00  0.00000000E+00  0.00000000E+00  0.00000000E+00  0.00000000E+00
  0.00000000E+00  0.00000000E+00  0.00000000E+00  0.00000000E+00  0.00000000E+00
  0.00000000E+00  0.00000000E+00  0.00000000E+00  0.00000000E+00  0.00000000E+00
  0.00000000E+00  0.00000000E+00  0.00000000E+00  0.00000000E+00  0.00000000E+00
  0.00000000E+00  0.00000000E+00  1.11709681E-01  0.00000000E+00  0.00000000E+00
  0.00000000E+00  0.00000000E+00  0.00000000E+00  0.00000000E+00  0.00000000E+00
  0.00000000E+00  0.00000000E+00  0.00000000E+00  0.00000000E+00  0.00000000E+00
  0.00000000E+00  0.00000000E+00  0.00000000E+00  0.00000000E+00  0.00000000E+00
  0.00000000E+00  0.00000000E+00  0.00000000E+00  0.00000000E+00  0.00000000E+00
  0.00000000E+00  0.00000000E+00  0.00000000E+00 -1.38440403E-01  0.00000000E+00
  0.00000000E+00  0.00000000E+00  0.00000000E+00 -4.41109083E-01  0.00000000E+00
  0.00000000E+00  0.00000000E+00  0.00000000E+00 -3.53350787E-01  0.00000000E+00
  0.00000000E+00  0.00000000E+00  0.00000000E+00 -1.07283274E-01  0.00000000E+00
  0.00000000E+00  0.00000000E+00  0.00000000E+00  0.00000000E+00  0.00000000E+00
  0.00000000E+00  0.00000000E+00  0.00000000E+00  0.00000000E+00  0.00000000E+00
  0.00000000E+00  0.00000000E+00  0.00000000E+00  0.00000000E+00  0.00000000E+00
  0.00000000E+00  0.00000000E+00  0.00000000E+00  0.00000000E+00  0.00000000E+00
  0.00000000E+00  0.00000000E+00  0.00000000E+00  0.00000000E+00 -2.24811397E-01
  0.00000000E+00  0.00000000E+00  0.00000000E+00  0.00000000E+00  0.00000000E+00
  0.00000000E+00  0.00000000E+00  0.00000000E+00  0.00000000E+00  0.00000000E+00
  0.00000000E+00  0.00000000E+00  0.00000000E+00  0.00000000E+00  0.00000000E+00
  0.00000000E+00  0.00000000E+00  0.00000000E+00  0.00000000E+00  0.00000000E+00
  0.00000000E+00  0.00000000E+00  0.00000000E+00  1.38440403E-01  0.00000000E+00
  0.00000000E+00  0.00000000E+00  0.00000000E+00  4.41109083E-01  0.00000000E+00
  0.00000000E+00  0.00000000E+00  0.00000000E+00  3.53350787E-01  0.00000000E+00
  0.00000000E+00  0.00000000E+00  0.00000000E+00  1.07283274E-01  0.00000000E+00
  0.00000000E+00  0.00000000E+00  0.00000000E+00  0.00000000E+00  0.00000000E+00
  0.00000000E+00  0.00000000E+00  0.00000000E+00  0.00000000E+00  0.00000000E+00
  0.00000000E+00  0.00000000E+00  0.00000000E+00  0.00000000E+00  0.00000000E+00
  0.00000000E+00  0.00000000E+00  0.00000000E+00  0.00000000E+00  0.00000000E+00
  0.00000000E+00  0.00000000E+00  0.00000000E+00  0.00000000E+00  2.24811397E-01
  0.00000000E+00  0.00000000E+00  0.00000000E+00  0.00000000E+00  0.00000000E+00
  0.00000000E+00  0.00000000E+00  0.00000000E+00  0.00000000E+00  0.00000000E+00
  0.00000000E+00  0.00000000E+00  0.00000000E+00  0.00000000E+00  0.00000000E+00
  0.00000000E+00  0.00000000E+00  0.00000000E+00  0.00000000E+00  0.00000000E+00
  0.00000000E+00  0.00000000E+00  0.00000000E+00  0.00000000E+00  0.00000000E+00
  0.00000000E+00  0.00000000E+00  0.00000000E+00 -1.29499139E-01  0.00000000E+00
  0.00000000E+00  0.00000000E+00  0.00000000E+00 -4.12619765E-01  0.00000000E+00
  0.00000000E+00  0.00000000E+00  0.00000000E+00 -3.30529396E-01  0.00000000E+00
  0.00000000E+00  0.00000000E+00  0.00000000E+00 -1.00354314E-01  0.00000000E+00
  0.00000000E+00  0.00000000E+00  0.00000000E+00  0.00000000E+00  0.00000000E+00
  0.00000000E+00  0.00000000E+00  0.00000000E+00  0.00000000E+00  0.00000000E+00
  0.00000000E+00  0.00000000E+00  0.00000000E+00  0.00000000E+00  0.00000000E+00
  0.00000000E+00  0.00000000E+00  0.00000000E+00  0.00000000E+00  0.00000000E+00
  0.00000000E+00  0.00000000E+00  0.00000000E+00  0.00000000E+00 -3.30441694E-01
  0.00000000E+00 -3.23902165E-19  7.09557339E-20  6.21346402E-18  4.11058487E-17
 -6.03959245E-17  2.19137394E-17  0.00000000E+00  0.00000000E+00  0.00000000E+00
  0.00000000E+00  0.00000000E+00  0.00000000E+00  0.00000000E+00  0.00000000E+00
  0.00000000E+00  0.00000000E+00  0.00000000E+00  0.00000000E+00  0.00000000E+00
  0.00000000E+00  0.00000000E+00 -7.49652442E-18  0.00000000E+00  0.00000000E+00
  1.29499139E-01  0.00000000E+00  5.88784672E-17  0.00000000E+00  0.00000000E+00
  4.12619765E-01  0.00000000E+00  0.00000000E+00  0.00000000E+00  0.00000000E+00
  3.30529396E-01  0.00000000E+00  0.00000000E+00  0.00000000E+00  0.00000000E+00
  1.00354314E-01  0.00000000E+00  0.00000000E+00  0.00000000E+00  0.00000000E+00
  0.00000000E+00  0.00000000E+00  0.00000000E+00  0.00000000E+00  0.00000000E+00
  0.00000000E+00  0.00000000E+00  0.00000000E+00  0.00000000E+00  0.00000000E+00
  0.00000000E+00  0.00000000E+00  0.00000000E+00  0.00000000E+00  0.00000000E+00
  0.00000000E+00  0.00000000E+00  0.00000000E+00  5.86987073E-17  0.00000000E+00
  0.00000000E+00  3.30441694E-01  0.00000000E+00  0.00000000E+00  0.00000000E+00
  0.00000000E+00  0.00000000E+00  0.00000000E+00  0.00000000E+00  0.00000000E+00
  0.00000000E+00  0.00000000E+00  0.00000000E+00  0.00000000E+00  0.00000000E+00
  0.00000000E+00  0.00000000E+00  0.00000000E+00  0.00000000E+00  0.00000000E+00
  0.00000000E+00  0.00000000E+00  0.00000000E+00  0.00000000E+00  0.00000000E+00
  0.00000000E+00  0.00000000E+00  0.00000000E+00  1.50886132E-17  0.00000000E+00
  0.00000000E+00  0.00000000E+00  0.00000000E+00  1.58053700E-16  0.00000000E+00
  0.00000000E+00  0.00000000E+00  0.00000000E+00  1.30483787E-17  0.00000000E+00
  0.00000000E+00  0.00000000E+00  0.00000000E+00  6.48456545E-18  0.00000000E+00
  0.00000000E+00  0.00000000E+00  0.00000000E+00  0.00000000E+00  0.00000000E+00
  0.00000000E+00  0.00000000E+00  0.00000000E+00  0.00000000E+00  0.00000000E+00
  0.00000000E+00  0.00000000E+00  0.00000000E+00  0.00000000E+00  0.00000000E+00
  0.00000000E+00  0.00000000E+00  0.00000000E+00  0.00000000E+00  0.00000000E+00
  0.00000000E+00  0.00000000E+00  0.00000000E+00  0.00000000E+00  3.83852985E-17
  0.00000000E+00  0.00000000E+00  0.00000000E+00 -3.49706618E-01  0.00000000E+00
  0.00000000E+00  0.00000000E+00  0.00000000E+00  0.00000000E+00  0.00000000E+00
  0.00000000E+00  0.00000000E+00  0.00000000E+00  0.00000000E+00  0.00000000E+00
  0.00000000E+00  0.00000000E+00  0.00000000E+00  0.00000000E+00  0.00000000E+00
  0.00000000E+00  0.00000000E+00  0.00000000E+00  0.00000000E+00  0.00000000E+00
  0.00000000E+00  0.00000000E+00  1.71794957E-18  0.00000000E+00  0.00000000E+00
  0.00000000E+00  0.00000000E+00  1.39352222E-17  0.00000000E+00  0.00000000E+00
  0.00000000E+00  0.00000000E+00  4.16149604E-18  0.00000000E+00  0.00000000E+00
  0.00000000E+00  0.00000000E+00 -1.82538239E-18  0.00000000E+00  0.00000000E+00
  0.00000000E+00  0.00000000E+00  0.00000000E+00  0.00000000E+00  0.00000000E+00
  0.00000000E+00  0.00000000E+00  0.00000000E+00  0.00000000E+00  0.00000000E+00
  0.00000000E+00  0.00000000E+00  0.00000000E+00  0.00000000E+00  0.00000000E+00
  0.00000000E+00  0.00000000E+00  0.00000000E+00  0.00000000E+00  0.00000000E+00
  0.00000000E+00  0.00000000E+00  0.00000000E+00  4.91701351E-17  0.00000000E+00
  0.00000000E+00  0.00000000E+00  3.49706618E-01  0.00000000E+00  0.00000000E+00
  0.00000000E+00  0.00000000E+00  0.00000000E+00  0.00000000E+00  0.00000000E+00
  0.00000000E+00  0.00000000E+00  0.00000000E+00  0.00000000E+00  0.00000000E+00
  0.00000000E+00  0.00000000E+00  0.00000000E+00  0.00000000E+00  0.00000000E+00
  0.00000000E+00  0.00000000E+00  0.00000000E+00  0.00000000E+00  0.00000000E+00
  0.00000000E+00  0.00000000E+00  0.00000000E+00  0.00000000E+00 -4.01726361E-02
  0.00000000E+00  0.00000000E+00  0.00000000E+00  0.00000000E+00 -3.98636844E-01
  0.00000000E+00  0.00000000E+00  0.00000000E+00  0.00000000E+00 -9.89627814E-01
  0.00000000E+00  0.00000000E+00  0.00000000E+00  0.00000000E+00 -6.27550074E-01
  0.00000000E+00  0.00000000E+00  0.00000000E+00  0.00000000E+00  0.00000000E+00
  0.00000000E+00  0.00000000E+00  0.00000000E+00  0.00000000E+00  0.00000000E+00
  0.00000000E+00  0.00000000E+00  0.00000000E+00  0.00000000E+00  0.00000000E+00
  0.00000000E+00  0.00000000E+00  0.00000000E+00  0.00000000E+00  0.00000000E+00
  0.00000000E+00  0.00000000E+00  0.00000000E+00  0.00000000E+00  0.00000000E+00
  9.51308478E-02  0.00000000E+00  0.00000000E+00  0.00000000E+00 -5.08642125E-17
  0.00000000E+00  0.00000000E+00  0.00000000E+00  0.00000000E+00  0.00000000E+00
  0.00000000E+00  0.00000000E+00  0.00000000E+00  0.00000000E+00  0.00000000E+00
  0.00000000E+00  0.00000000E+00  0.00000000E+00  0.00000000E+00  0.00000000E+00
  0.00000000E+00  0.00000000E+00  0.00000000E+00  0.00000000E+00  0.00000000E+00
  0.00000000E+00  0.00000000E+00  0.00000000E+00  0.00000000E+00  0.00000000E+00
  0.00000000E+00  0.00000000E+00  0.00000000E+00 -1.58796287E-02  0.00000000E+00
  0.00000000E+00  0.00000000E+00  0.00000000E+00 -1.57575048E-01  0.00000000E+00
  0.00000000E+00  0.00000000E+00  0.00000000E+00 -3.91184741E-01  0.00000000E+00
  0.00000000E+00  0.00000000E+00  0.00000000E+00 -2.48060947E-01  0.00000000E+00
  0.00000000E+00  0.00000000E+00  0.00000000E+00  0.00000000E+00  0.00000000E+00
  0.00000000E+00  0.00000000E+00  0.00000000E+00  0.00000000E+00  0.00000000E+00
  0.00000000E+00  0.00000000E+00  0.00000000E+00  0.00000000E+00  0.00000000E+00
  0.00000000E+00  0.00000000E+00  0.00000000E+00  0.00000000E+00  0.00000000E+00
  0.00000000E+00  0.00000000E+00  0.00000000E+00  0.00000000E+00  1.91447138E-01
  0.00000000E+00  0.00000000E+00  0.00000000E+00 -1.40405610E-18  0.00000000E+00
  0.00000000E+00 -1.65226202E-19 -5.56764879E-19 -2.38418802E-17  6.07722100E-17
 -5.10060321E-16 -1.00243727E-20  0.00000000E+00  0.00000000E+00  0.00000000E+00
  0.00000000E+00  0.00000000E+00  0.00000000E+00  0.00000000E+00  0.00000000E+00
  0.00000000E+00  0.00000000E+00  0.00000000E+00  0.00000000E+00  0.00000000E+00
  0.00000000E+00  0.00000000E+00  5.50086474E-02  0.00000000E+00  0.00000000E+00
  1.58796287E-02  0.00000000E+00  5.45855979E-01  0.00000000E+00  0.00000000E+00
  1.57575048E-01  0.00000000E+00  1.35510369E+00  0.00000000E+00  0.00000000E+00
  3.91184741E-01  0.00000000E+00  8.59308328E-01  0.00000000E+00  0.00000000E+00
  2.48060947E-01  0.00000000E+00  0.00000000E+00  0.00000000E+00  0.00000000E+00
  0.00000000E+00  0.00000000E+00  0.00000000E+00  0.00000000E+00  0.00000000E+00
  0.00000000E+00  0.00000000E+00  0.00000000E+00  0.00000000E+00  0.00000000E+00
  0.00000000E+00  0.00000000E+00  0.00000000E+00  0.00000000E+00  0.00000000E+00
  0.00000000E+00  0.00000000E+00  0.00000000E+00  9.51308478E-02  0.00000000E+00
  0.00000000E+00 -1.91447138E-01  0.00000000E+00  0.00000000E+00  0.00000000E+00
  5.81172936E-17  0.00000000E+00  2.66364358E-01  0.00000000E+00  0.00000000E+00
  0.00000000E+00  0.00000000E+00  0.00000000E+00  0.00000000E+00  0.00000000E+00
  0.00000000E+00  0.00000000E+00  0.00000000E+00  0.00000000E+00  0.00000000E+00
  0.00000000E+00  0.00000000E+00  0.00000000E+00  0.00000000E+00  0.00000000E+00
  0.00000000E+00  0.00000000E+00  0.00000000E+00  0.00000000E+00  0.00000000E+00
  0.00000000E+00  0.00000000E+00  0.00000000E+00 -4.49143725E-02  0.00000000E+00
  0.00000000E+00  0.00000000E+00  0.00000000E+00 -4.45689540E-01  0.00000000E+00
  0.00000000E+00  0.00000000E+00  0.00000000E+00 -1.10643753E+00  0.00000000E+00
  0.00000000E+00  0.00000000E+00  0.00000000E+00 -7.01622312E-01  0.00000000E+00
  0.00000000E+00  0.00000000E+00  0.00000000E+00  0.00000000E+00  0.00000000E+00
  0.00000000E+00  0.00000000E+00  0.00000000E+00  0.00000000E+00  0.00000000E+00
  0.00000000E+00  0.00000000E+00  0.00000000E+00  0.00000000E+00  0.00000000E+00
  0.00000000E+00  0.00000000E+00  0.00000000E+00  0.00000000E+00  0.00000000E+00
  0.00000000E+00  0.00000000E+00  0.00000000E+00  0.00000000E+00 -1.91447138E-01
  0.00000000E+00  0.00000000E+00  0.00000000E+00  2.81400843E-01  0.00000000E+00
  0.00000000E+00  0.00000000E+00  0.00000000E+00 -5.36047930E-01  0.00000000E+00
  0.00000000E+00  0.00000000E+00  0.00000000E+00  0.00000000E+00  0.00000000E+00
  0.00000000E+00  0.00000000E+00  0.00000000E+00  0.00000000E+00  0.00000000E+00
  0.00000000E+00  0.00000000E+00  0.00000000E+00  0.00000000E+00  0.00000000E+00
  0.00000000E+00  0.00000000E+00  0.00000000E+00  0.00000000E+00  0.00000000E+00
  0.00000000E+00  0.00000000E+00  4.49143725E-02  0.00000000E+00  0.00000000E+00
  0.00000000E+00  0.00000000E+00  4.45689540E-01  0.00000000E+00  0.00000000E+00
  0.00000000E+00  0.00000000E+00  1.10643753E+00  0.00000000E+00  0.00000000E+00
  0.00000000E+00  0.00000000E+00  7.01622312E-01  0.00000000E+00  0.00000000E+00
  0.00000000E+00  0.00000000E+00  0.00000000E+00  0.00000000E+00  0.00000000E+00
  0.00000000E+00  0.00000000E+00  0.00000000E+00  0.00000000E+00  0.00000000E+00
  0.00000000E+00  0.00000000E+00  0.00000000E+00  0.00000000E+00  0.00000000E+00
  0.00000000E+00  0.00000000E+00  0.00000000E+00  0.00000000E+00  0.00000000E+00
  0.00000000E+00  0.00000000E+00  0.00000000E+00  1.91447138E-01  0.00000000E+00
  0.00000000E+00  0.00000000E+00 -2.81400843E-01  0.00000000E+00  0.00000000E+00
  0.00000000E+00  0.00000000E+00  5.36047930E-01  0.00000000E+00  0.00000000E+00
  0.00000000E+00  0.00000000E+00  0.00000000E+00  0.00000000E+00  0.00000000E+00
  0.00000000E+00  0.00000000E+00  0.00000000E+00  0.00000000E+00  0.00000000E+00
  0.00000000E+00  0.00000000E+00  0.00000000E+00  0.00000000E+00  0.00000000E+00
  0.00000000E+00  0.00000000E+00  0.00000000E+00  0.00000000E+00  0.00000000E+00
  0.00000000E+00  0.00000000E+00  0.00000000E+00  0.00000000E+00  0.00000000E+00
  0.00000000E+00 -4.20135484E-02  0.00000000E+00  0.00000000E+00  0.00000000E+00
  0.00000000E+00 -4.16904390E-01  0.00000000E+00  0.00000000E+00  0.00000000E+00
  0.00000000E+00 -1.03497754E+00  0.00000000E+00  0.00000000E+00  0.00000000E+00
  0.00000000E+00 -6.56307577E-01  0.00000000E+00  0.00000000E+00  0.00000000E+00
  0.00000000E+00  0.00000000E+00  0.00000000E+00  0.00000000E+00  0.00000000E+00
  0.00000000E+00  0.00000000E+00  0.00000000E+00  0.00000000E+00  0.00000000E+00
  0.00000000E+00  0.00000000E+00  0.00000000E+00  0.00000000E+00  0.00000000E+00
  0.00000000E+00  0.00000000E+00  0.00000000E+00  0.00000000E+00  0.00000000E+00
  0.00000000E+00  0.00000000E+00 -2.81400843E-01  0.00000000E+00  0.00000000E+00
  0.00000000E+00  2.97806659E-01  0.00000000E+00  0.00000000E+00  0.00000000E+00
  0.00000000E+00 -7.87916397E-01  0.00000000E+00 -9.93847896E-20 -2.45132567E-21
  9.67631145E-18  1.34986864E-17 -1.11485427E-16 -1.61971009E-17  0.00000000E+00
  0.00000000E+00  0.00000000E+00  0.00000000E+00  0.00000000E+00  0.00000000E+00
  0.00000000E+00  0.00000000E+00  0.00000000E+00  0.00000000E+00  0.00000000E+00
  0.00000000E+00  0.00000000E+00  0.00000000E+00  0.00000000E+00  7.35980840E-18
  0.00000000E+00  0.00000000E+00  4.20135484E-02  0.00000000E+00 -1.61642353E-16
  0.00000000E+00  0.00000000E+00  4.16904390E-01  0.00000000E+00 -5.99721954E-17
  0.00000000E+00  0.00000000E+00  1.03497754E+00  0.00000000E+00  0.00000000E+00
  0.00000000E+00  0.00000000E+00  6.56307577E-01  0.00000000E+00  0.00000000E+00
  0.00000000E+00  0.00000000E+00  0.00000000E+00  0.00000000E+00  0.00000000E+00
  0.00000000E+00  0.00000000E+00  0.00000000E+00  0.00000000E+00  0.00000000E+00
  0.00000000E+00  0.00000000E+00  0.00000000E+00  0.00000000E+00  0.00000000E+00
  0.00000000E+00  0.00000000E+00  0.00000000E+00  0.00000000E+00  0.00000000E+00
  2.19725384E-17  0.00000000E+00  0.00000000E+00  2.81400843E-01  0.00000000E+00
  0.00000000E+00  0.00000000E+00 -2.97806659E-01  0.00000000E+00  1.91090969E-16
  0.00000000E+00  0.00000000E+00  7.87916397E-01  0.00000000E+00  0.00000000E+00
  0.00000000E+00  0.00000000E+00  0.00000000E+00  0.00000000E+00  0.00000000E+00
  0.00000000E+00  0.00000000E+00  0.00000000E+00  0.00000000E+00  0.00000000E+00
  0.00000000E+00  0.00000000E+00  0.00000000E+00  0.00000000E+00  0.00000000E+00
  0.00000000E+00  0.00000000E+00  0.00000000E+00  0.00000000E+00  0.00000000E+00
  0.00000000E+00  0.00000000E+00  0.00000000E+00  0.00000000E+00  6.25339990E-18
  0.00000000E+00  0.00000000E+00  0.00000000E+00  0.00000000E+00 -2.88339397E-17
  0.00000000E+00  0.00000000E+00  0.00000000E+00  0.00000000E+00  2.21907298E-16
  0.00000000E+00  0.00000000E+00  0.00000000E+00  0.00000000E+00 -1.25466995E-16
  0.00000000E+00  0.00000000E+00  0.00000000E+00  0.00000000E+00  0.00000000E+00
  0.00000000E+00  0.00000000E+00  0.00000000E+00  0.00000000E+00  0.00000000E+00
  0.00000000E+00  0.00000000E+00  0.00000000E+00  0.00000000E+00  0.00000000E+00
  0.00000000E+00  0.00000000E+00  0.00000000E+00  0.00000000E+00  0.00000000E+00
  0.00000000E+00  0.00000000E+00  0.00000000E+00  0.00000000E+00  0.00000000E+00
  2.51825724E-17  0.00000000E+00  0.00000000E+00  0.00000000E+00 -2.97806659E-01
  0.00000000E+00  0.00000000E+00  0.00000000E+00  0.00000000E+00 -1.32134432E-16
  0.00000000E+00  0.00000000E+00  0.00000000E+00 -8.33852336E-01  0.00000000E+00
  0.00000000E+00  0.00000000E+00  0.00000000E+00  0.00000000E+00  0.00000000E+00
  0.00000000E+00  0.00000000E+00  0.00000000E+00  0.00000000E+00  0.00000000E+00
  0.00000000E+00  0.00000000E+00  0.00000000E+00  0.00000000E+00  0.00000000E+00
  0.00000000E+00  0.00000000E+00  0.00000000E+00  0.00000000E+00  0.00000000E+00
  0.00000000E+00  0.00000000E+00 -1.59954710E-18  0.00000000E+00  0.00000000E+00
  0.00000000E+00  0.00000000E+00  1.10005442E-17  0.00000000E+00  0.00000000E+00
  0.00000000E+00  0.00000000E+00  7.94216709E-18  0.00000000E+00  0.00000000E+00
  0.00000000E+00  0.00000000E+00 -2.49885365E-17  0.00000000E+00  0.00000000E+00
  0.00000000E+00  0.00000000E+00  0.00000000E+00  0.00000000E+00  0.00000000E+00
  0.00000000E+00  0.00000000E+00  0.00000000E+00  0.00000000E+00  0.00000000E+00
  0.00000000E+00  0.00000000E+00  0.00000000E+00  0.00000000E+00  0.00000000E+00
  0.00000000E+00  0.00000000E+00  0.00000000E+00  0.00000000E+00  0.00000000E+00
  0.00000000E+00  0.00000000E+00  0.00000000E+00 -6.01217061E-17  0.00000000E+00
  0.00000000E+00  0.00000000E+00  2.97806659E-01  0.00000000E+00  0.00000000E+00
  0.00000000E+00  0.00000000E+00 -6.66896577E-17  0.00000000E+00  0.00000000E+00
  0.00000000E+00  8.33852336E-01  0.00000000E+00  0.00000000E+00  0.00000000E+00
Multipole Matrix (0,0,2)                   R   N=        3240
  3.15567579E-02 -3.62245159E-02  4.24111737E-02  4.31826364E-02 -5.77268359E-02
  3.39904827E-01  2.86000600E-02 -3.91450018E-02  4.16814872E-01  8.60585198E-01
  1.58386575E-02 -2.19009406E-02  3.27749388E-01  1.05360030E+00  2.25022502E+00
  7.97455229E-03 -1.10718428E-02  1.93915591E-01  8.09722708E-01  2.75051117E+00
  6.03136309E+00  0.00000000E+00  0.00000000E+00  0.00000000E+00  0.00000000E+00
  0.00000000E+00  0.00000000E+00  8.73744832E-02  0.00000000E+00  0.00000000E+00
  0.00000000E+00  0.00000000E+00  0.00000000E+00  0.00000000E+00  0.00000000E+00
  8.73744832E-02  0.00000000E+00  0.00000000E+00  0.00000000E+00  0.00000000E+00
  0.00000000E+00  0.00000000E+00  0.00000000E+00  0.00000000E+00  2.62123449E-01
  0.00000000E+00  0.00000000E+00  0.00000000E+00  0.00000000E+00  0.00000000E+00
  0.00000000E+00  9.69782987E-02  0.00000000E+00  0.00000000E+00  3.07427447E-01
  0.00000000E+00  0.00000000E+00  0.00000000E+00  0.00000000E+00  0.00000000E+00
  0.00000000E+00  0.00000000E+00  9.69782987E-02  0.00000000E+00  0.00000000E+00
  3.07427447E-01  0.00000000E+00  0.00000000E+00  0.00000000E+00  0.00000000E+00
  0.00000000E+00  0.00000000E+00  0.00000000E+00  0.00000000E+00  2.90934896E-01
  0.00000000E+00  0.00000000E+00  9.22282341E-01  0.00000000E+00  0.00000000E+00
  0.00000000E+00  0.00000000E+00  0.00000000E+00  0.00000000E+00  4.94210922E-02
  0.00000000E+00  0.00000000E+00  3.29232414E-01  0.00000000E+00  0.00000000E+00
  8.65051903E-01  0.00000000E+00  0.00000000E+00  0.00000000E+00  0.00000000E+00
  0.00000000E+00  0.00000000E+00  0.00000000E+00  4.94210922E-02  0.00000000E+00
  0.00000000E+00  3.29232414E-01  0.00000000E+00  0.00000000E+00  8.65051903E-01
  0.00000000E+00  0.00000000E+00  0.00000000E+00  0.00000000E+00  0.00000000E+00
  0.00000000E+00  0.00000000E+00  0.00000000E+00  1.48263277E-01  0.00000000E+00
  0.00000000E+00  9.87697241E-01  0.00000000E+00  0.00000000E+00  2.59515571E+00
  0.00000000E+00  0.00000000E+00  0.00000000E+00  0.00000000E+00  0.00000000E+00
  0.00000000E+00  1.70519743E-02  0.00000000E+00  0.00000000E+00  1.69798236E-01
  0.00000000E+00  0.00000000E+00  9.20232813E-01  0.00000000E+00  0.00000000E+00
  2.48262165E+00  0.00000000E+00  0.00000000E+00  0.00000000E+00  0.00000000E+00
  0.00000000E+00  0.00000000E+00  0.00000000E+00  1.70519743E-02  0.00000000E+00
  0.00000000E+00  1.69798236E-01  0.00000000E+00  0.00000000E+00  9.20232813E-01
  0.00000000E+00  0.00000000E+00  2.48262165E+00  0.00000000E+00  0.00000000E+00
  0.00000000E+00  0.00000000E+00  0.00000000E+00  0.00000000E+00  0.00000000E+00
  0.00000000E+00  5.11559228E-02  0.00000000E+00  0.00000000E+00  5.09394707E-01
  0.00000000E+00  0.00000000E+00  2.76069844E+00  0.00000000E+00  0.00000000E+00
  7.44786495E+00  0.00000000E+00  0.00000000E+00  0.00000000E+00  0.00000000E+00
  0.00000000E+00  0.00000000E+00  4.51572766E-03  0.00000000E+00  0.00000000E+00
  5.35910621E-02  0.00000000E+00  0.00000000E+00  4.35040930E-01  0.00000000E+00
  0.00000000E+00  2.55685273E+00  0.00000000E+00  0.00000000E+00  7.76880050E+00
  0.00000000E+00  0.00000000E+00  0.00000000E+00  0.00000000E+00  0.00000000E+00
  0.00000000E+00  0.00000000E+00  4.51572766E-03  0.00000000E+00  0.00000000E+00
  5.35910621E-02  0.00000000E+00  0.00000000E+00  4.35040930E-01  0.00000000E+00
  0.00000000E+00  2.55685273E+00  0.00000000E+00  0.00000000E+00  7.76880050E+00
  0.00000000E+00  0.00000000E+00  0.00000000E+00  0.00000000E+00  0.00000000E+00
  0.00000000E+00  0.00000000E+00  0.00000000E+00  1.35471830E-02  0.00000000E+00
  0.00000000E+00  1.60773186E-01  0.00000000E+00  0.00000000E+00  1.30512279E+00
  0.00000000E+00  0.00000000E+00  7.67055818E+00  0.00000000E+00  0.00000000E+00
  2.33064015E+01  3.59031675E-02 -4.98453754E-02  2.74125970E-01  2.64679323E-01
  1.74916280E-01  9.47790370E-02  0.00000000E+00  0.00000000E+00  0.00000000E+00
  0.00000000E+00  0.00000000E+00  0.00000000E+00  0.00000000E+00  0.00000000E+00
  0.00000000E+00  0.00000000E+00  0.00000000E+00  0.00000000E+00  0.00000000E+00
  0.00000000E+00  0.00000000E+00  4.96031746E-01  0.00000000E+00  0.00000000E+00
  0.00000000E+00  0.00000000E+00  0.00000000E+00  0.00000000E+00  0.00000000E+00
  0.00000000E+00  0.00000000E+00  0.00000000E+00  0.00000000E+00  0.00000000E+00
  0.00000000E+00  0.00000000E+00  0.00000000E+00  0.00000000E+00  0.00000000E+00
  0.00000000E+00  0.00000000E+00  0.00000000E+00  0.00000000E+00  0.00000000E+00
  4.05844156E-01  0.00000000E+00  0.00000000E+00  0.00000000E+00  0.00000000E+00
  0.00000000E+00  0.00000000E+00  0.00000000E+00  0.00000000E+00  0.00000000E+00
  0.00000000E+00  0.00000000E+00  0.00000000E+00  0.00000000E+00  0.00000000E+00
  0.00000000E+00  0.00000000E+00  0.00000000E+00  0.00000000E+00  0.00000000E+00
  0.00000000E+00  0.00000000E+00  0.00000000E+00  0.00000000E+00  4.05844156E-01
 -5.87662105E-19  2.91703236E-19  3.37395517E-18  9.50883939E-19 -5.34425228E-18
  9.05665393E-19  0.00000000E+00  0.00000000E+00  0.00000000E+00  0.00000000E+00
  0.00000000E+00  0.00000000E+00  0.00000000E+00  0.00000000E+00  0.00000000E+00
  0.00000000E+00  0.00000000E+00  0.00000000E+00  0.00000000E+00  0.00000000E+00
  0.00000000E+00  1.75658693E-18  0.00000000E+00  0.00000000E+00  1.35281385E-01
  0.00000000E+00  0.00000000E+00  0.00000000E+00  0.00000000E+00  0.00000000E+00
  0.00000000E+00  0.00000000E+00  0.00000000E+00  0.00000000E+00  0.00000000E+00
  0.00000000E+00  0.00000000E+00  0.00000000E+00  0.00000000E+00  0.00000000E+00
  0.00000000E+00  0.00000000E+00  0.00000000E+00  0.00000000E+00  0.00000000E+00
  0.00000000E+00  0.00000000E+00  0.00000000E+00  0.00000000E+00  0.00000000E+00
  1.35281385E-01  1.50627633E-02 -2.19339037E-02  3.89811124E-01  7.54507286E-01
  7.70336652E-01  5.14781776E-01  0.00000000E+00  0.00000000E+00  0.00000000E+00
  0.00000000E+00  0.00000000E+00  0.00000000E+00  0.00000000E+00  0.00000000E+00
  0.00000000E+00  0.00000000E+00  0.00000000E+00  0.00000000E+00  0.00000000E+00
  0.00000000E+00  0.00000000E+00  4.64108626E-01  0.00000000E+00  0.00000000E+00
  2.47834933E-18  0.00000000E+00  1.41242938E+00  0.00000000E+00  0.00000000E+00
  0.00000000E+00  0.00000000E+00  0.00000000E+00  0.00000000E+00  0.00000000E+00
  0.00000000E+00  0.00000000E+00  0.00000000E+00  0.00000000E+00  0.00000000E+00
  0.00000000E+00  0.00000000E+00  0.00000000E+00  0.00000000E+00  0.00000000E+00
  0.00000000E+00  0.00000000E+00  0.00000000E+00  0.00000000E+00  0.00000000E+00
  3.79725240E-01  0.00000000E+00  0.00000000E+00  0.00000000E+00  0.00000000E+00
  1.15562404E+00  0.00000000E+00  0.00000000E+00  0.00000000E+00  0.00000000E+00
  0.00000000E+00  0.00000000E+00  0.00000000E+00  0.00000000E+00  0.00000000E+00
  0.00000000E+00  0.00000000E+00  0.00000000E+00  0.00000000E+00  0.00000000E+00
  0.00000000E+00  0.00000000E+00  0.00000000E+00  0.00000000E+00  0.00000000E+00
  0.00000000E+00  0.00000000E+00  0.00000000E+00  0.00000000E+00  3.79725240E-01
  0.00000000E+00  0.00000000E+00  0.00000000E+00  0.00000000E+00  1.15562404E+00
  2.30702635E-19  7.51330997E-19  6.82229780E-18  2.74945484E-17 -4.57346363E-18
 -6.57143435E-18  0.00000000E+00  0.00000000E+00  0.00000000E+00  0.00000000E+00
  0.00000000E+00  0.00000000E+00  0.00000000E+00  0.00000000E+00  0.00000000E+00
  0.00000000E+00  0.00000000E+00  0.00000000E+00  0.00000000E+00  0.00000000E+00
  0.00000000E+00 -2.10660520E-18  0.00000000E+00  0.00000000E+00  1.26575080E-01
  0.00000000E+00 -6.44664946E-18  0.00000000E+00  0.00000000E+00  3.85208012E-01
  0.00000000E+00  0.00000000E+00  0.00000000E+00  0.00000000E+00  0.00000000E+00
  0.00000000E+00  0.00000000E+00  0.00000000E+00  0.00000000E+00  0.00000000E+00
  0.00000000E+00  0.00000000E+00  0.00000000E+00  0.00000000E+00  0.00000000E+00
  0.00000000E+00  0.00000000E+00  0.00000000E+00  0.00000000E+00  0.00000000E+00
  0.00000000E+00  0.00000000E+00  0.00000000E+00  0.00000000E+00  0.00000000E+00
  1.26575080E-01  0.00000000E+00  0.00000000E+00  0.00000000E+00  0.00000000E+00
  3.85208012E-01  3.75618555E-03 -5.56715164E-03  2.22257454E-01  9.68588446E-01
  2.08227758E+00  2.22264492E+00  0.00000000E+00  0.00000000E+00  0.00000000E+00
  0.00000000E+00  0.00000000E+00  0.00000000E+00  0.00000000E+00  0.00000000E+00
  0.00000000E+00  0.00000000E+00  0.00000000E+00  0.00000000E+00  0.00000000E+00
  0.00000000E+00  0.00000000E+00  1.70780300E-01  0.00000000E+00  0.00000000E+00
 -1.25312410E-18  0.00000000E+00  1.32178997E+00  0.00000000E+00  0.00000000E+00
  4.26079317E-18  0.00000000E+00  4.02046784E+00  0.00000000E+00  0.00000000E+00
  0.00000000E+00  0.00000000E+00  0.00000000E+00  0.00000000E+00  0.00000000E+00
  0.00000000E+00  0.00000000E+00  0.00000000E+00  0.00000000E+00  0.00000000E+00
  0.00000000E+00  0.00000000E+00  0.00000000E+00  0.00000000E+00  0.00000000E+00
  0.00000000E+00  0.00000000E+00  0.00000000E+00  0.00000000E+00  0.00000000E+00
  1.39729337E-01  0.00000000E+00  0.00000000E+00  0.00000000E+00  0.00000000E+00
  1.08146452E+00  0.00000000E+00  0.00000000E+00  0.00000000E+00  0.00000000E+00
  3.28947368E+00  0.00000000E+00  0.00000000E+00  0.00000000E+00  0.00000000E+00
  0.00000000E+00  0.00000000E+00  0.00000000E+00  0.00000000E+00  0.00000000E+00
  0.00000000E+00  0.00000000E+00  0.00000000E+00  0.00000000E+00  0.00000000E+00
  0.00000000E+00  0.00000000E+00  0.00000000E+00  0.00000000E+00  0.00000000E+00
  0.00000000E+00  0.00000000E+00  0.00000000E+00  0.00000000E+00  1.39729337E-01
  0.00000000E+00  0.00000000E+00  0.00000000E+00  0.00000000E+00  1.08146452E+00
  0.00000000E+00  0.00000000E+00  0.00000000E+00  0.00000000E+00  3.28947368E+00
  6.87600408E-20  3.07094717E-20 -4.23909248E-18  4.67155214E-18  1.51696343E-17
  4.71263386E-17  0.00000000E+00  0.00000000E+00  0.00000000E+00  0.00000000E+00
  0.00000000E+00  0.00000000E+00  0.00000000E+00  0.00000000E+00  0.00000000E+00
  0.00000000E+00  0.00000000E+00  0.00000000E+00  0.00000000E+00  0.00000000E+00
  0.00000000E+00 -6.86070688E-19  0.00000000E+00  0.00000000E+00  4.65764455E-02
  0.00000000E+00 -1.05876364E-18  0.00000000E+00  0.00000000E+00  3.60488173E-01
  0.00000000E+00 -1.74154233E-17  0.00000000E+00  0.00000000E+00  1.09649123E+00
  0.00000000E+00  0.00000000E+00  0.00000000E+00  0.00000000E+00  0.00000000E+00
  0.00000000E+00  0.00000000E+00  0.00000000E+00  0.00000000E+00  0.00000000E+00
  0.00000000E+00  0.00000000E+00  0.00000000E+00  0.00000000E+00  0.00000000E+00
  0.00000000E+00  0.00000000E+00  0.00000000E+00  0.00000000E+00  0.00000000E+00
  0.00000000E+00  0.00000000E+00  0.00000000E+00  0.00000000E+00  0.00000000E+00
  4.65764455E-02  0.00000000E+00  0.00000000E+00  0.00000000E+00  0.00000000E+00
  3.60488173E-01  0.00000000E+00  0.00000000E+00  0.00000000E+00  0.00000000E+00
  1.09649123E+00  6.65476407E-04 -9.92578354E-04  5.99402334E-02  4.80871419E-01
  2.44666945E+00  5.92007406E+00  0.00000000E+00  0.00000000E+00  0.00000000E+00
  0.00000000E+00  0.00000000E+00  0.00000000E+00  0.00000000E+00  0.00000000E+00
  0.00000000E+00  0.00000000E+00  0.00000000E+00  0.00000000E+00  0.00000000E+00
  0.00000000E+00  0.00000000E+00  3.55994298E-02  0.00000000E+00  0.00000000E+00
  5.91283891E-19  0.00000000E+00  4.59766424E-01  0.00000000E+00  0.00000000E+00
  1.16725814E-18  0.00000000E+00  3.66309518E+00  0.00000000E+00  0.00000000E+00
  7.08153480E-18  0.00000000E+00  1.19669278E+01  0.00000000E+00  0.00000000E+00
  0.00000000E+00  0.00000000E+00  0.00000000E+00  0.00000000E+00  0.00000000E+00
  0.00000000E+00  0.00000000E+00  0.00000000E+00  0.00000000E+00  0.00000000E+00
  0.00000000E+00  0.00000000E+00  0.00000000E+00  0.00000000E+00  0.00000000E+00
  0.00000000E+00  0.00000000E+00  0.00000000E+00  0.00000000E+00  0.00000000E+00
  2.91268062E-02  0.00000000E+00  0.00000000E+00  0.00000000E+00  0.00000000E+00
  3.76172529E-01  0.00000000E+00  0.00000000E+00  0.00000000E+00  0.00000000E+00
  2.99707787E+00  0.00000000E+00  0.00000000E+00  0.00000000E+00  0.00000000E+00
  9.79112272E+00  0.00000000E+00  0.00000000E+00  0.00000000E+00  0.00000000E+00
  0.00000000E+00  0.00000000E+00  0.00000000E+00  0.00000000E+00  0.00000000E+00
  0.00000000E+00  0.00000000E+00  0.00000000E+00  0.00000000E+00  0.00000000E+00
  0.00000000E+00  0.00000000E+00  0.00000000E+00  0.00000000E+00  0.00000000E+00
  0.00000000E+00  0.00000000E+00  0.00000000E+00  0.00000000E+00  2.91268062E-02
  0.00000000E+00  0.00000000E+00  0.00000000E+00  0.00000000E+00  3.76172529E-01
  0.00000000E+00  0.00000000E+00  0.00000000E+00  0.00000000E+00  2.99707787E+00
  0.00000000E+00  0.00000000E+00  0.00000000E+00  0.00000000E+00  9.79112272E+00
 -1.19469260E-20  1.91578319E-20  1.39290869E-18 -1.14313388E-17  1.10967208E-16
  2.17020472E-16  0.00000000E+00  0.00000000E+00  0.00000000E+00  0.00000000E+00
  0.00000000E+00  0.00000000E+00  0.00000000E+00  0.00000000E+00  0.00000000E+00
  0.00000000E+00  0.00000000E+00  0.00000000E+00  0.00000000E+00  0.00000000E+00
  0.00000000E+00  4.21553788E-20  0.00000000E+00  0.00000000E+00  9.70893540E-03
  0.00000000E+00  3.89086048E-19  0.00000000E+00  0.00000000E+00  1.25390843E-01
  0.00000000E+00 -7.55560050E-18  0.00000000E+00  0.00000000E+00  9.99025958E-01
  0.00000000E+00 -4.54885322E-17  0.00000000E+00  0.00000000E+00  3.26370757E+00
  0.00000000E+00  0.00000000E+00  0.00000000E+00  0.00000000E+00  0.00000000E+00
  0.00000000E+00  0.00000000E+00  0.00000000E+00  0.00000000E+00  0.00000000E+00
  0.00000000E+00  0.00000000E+00  0.00000000E+00  0.00000000E+00  0.00000000E+00
  0.00000000E+00  0.00000000E+00  0.00000000E+00  0.00000000E+00  0.00000000E+00
  0.00000000E+00  0.00000000E+00  0.00000000E+00  0.00000000E+00  0.00000000E+00
  9.70893540E-03  0.00000000E+00  0.00000000E+00  0.00000000E+00  0.00000000E+00
  1.25390843E-01  0.00000000E+00  0.00000000E+00  0.00000000E+00  0.00000000E+00
  9.99025958E-01  0.00000000E+00  0.00000000E+00  0.00000000E+00  0.00000000E+00
  3.26370757E+00  0.00000000E+00  0.00000000E+00  0.00000000E+00  0.00000000E+00
  0.00000000E+00  0.00000000E+00  0.00000000E+00  0.00000000E+00  1.21026177E-01
  0.00000000E+00  0.00000000E+00  4.00948640E-01  0.00000000E+00  0.00000000E+00
  3.66917060E-01  0.00000000E+00  0.00000000E+00  1.66156545E-01  0.00000000E+00
  0.00000000E+00  4.91335077E-02  0.00000000E+00  0.00000000E+00  0.00000000E+00
  0.00000000E+00  0.00000000E+00  0.00000000E+00  0.00000000E+00  0.00000000E+00
  0.00000000E+00  0.00000000E+00  0.00000000E+00  0.00000000E+00  0.00000000E+00
  0.00000000E+00  0.00000000E+00  0.00000000E+00  0.00000000E+00  0.00000000E+00
  0.00000000E+00  0.00000000E+00  8.10429880E-01  0.00000000E+00  0.00000000E+00
  0.00000000E+00  0.00000000E+00  0.00000000E+00  0.00000000E+00  9.88174600E-02
  0.00000000E+00  0.00000000E+00  3.27373194E-01  0.00000000E+00  0.00000000E+00
  2.99586525E-01  0.00000000E+00  0.00000000E+00  1.35666251E-01  0.00000000E+00
  0.00000000E+00  4.01173410E-02  0.00000000E+00  0.00000000E+00  0.00000000E+00
  0.00000000E+00  0.00000000E+00  0.00000000E+00  0.00000000E+00  0.00000000E+00
  0.00000000E+00  0.00000000E+00  0.00000000E+00  0.00000000E+00  0.00000000E+00
  0.00000000E+00  0.00000000E+00  0.00000000E+00  0.00000000E+00  0.00000000E+00
  0.00000000E+00  0.00000000E+00  0.00000000E+00  0.00000000E+00  0.00000000E+00
  7.39957717E-01  0.00000000E+00  0.00000000E+00  0.00000000E+00  0.00000000E+00
  0.00000000E+00  0.00000000E+00  0.00000000E+00  9.88174600E-02  0.00000000E+00
  0.00000000E+00  3.27373194E-01  0.00000000E+00  0.00000000E+00  2.99586525E-01
  0.00000000E+00  0.00000000E+00  1.35666251E-01  0.00000000E+00  0.00000000E+00
  4.01173410E-02  0.00000000E+00  0.00000000E+00  0.00000000E+00  0.00000000E+00
  0.00000000E+00  0.00000000E+00  0.00000000E+00  0.00000000E+00  0.00000000E+00
  0.00000000E+00  0.00000000E+00  0.00000000E+00  0.00000000E+00  0.00000000E+00
  0.00000000E+00  0.00000000E+00  0.00000000E+00  0.00000000E+00  0.00000000E+00
  0.00000000E+00  0.00000000E+00  0.00000000E+00  0.00000000E+00  7.39957717E-01
  0.00000000E+00  0.00000000E+00  0.00000000E+00  0.00000000E+00  0.00000000E+00
  0.00000000E+00  0.00000000E+00  0.00000000E+00  4.40407126E-18  0.00000000E+00
  0.00000000E+00  2.76643124E-17  0.00000000E+00  0.00000000E+00 -7.44147057E-18
  0.00000000E+00  0.00000000E+00  3.42822890E-18  0.00000000E+00  0.00000000E+00
 -7.20378716E-19  0.00000000E+00  0.00000000E+00  0.00000000E+00  0.00000000E+00
  0.00000000E+00  0.00000000E+00  0.00000000E+00  0.00000000E+00  0.00000000E+00
  0.00000000E+00  0.00000000E+00  0.00000000E+00  0.00000000E+00  0.00000000E+00
  0.00000000E+00  0.00000000E+00  0.00000000E+00  0.00000000E+00  0.00000000E+00
  0.00000000E+00 -3.93128328E-19  0.00000000E+00  0.00000000E+00  5.28541226E-01
  0.00000000E+00  0.00000000E+00  0.00000000E+00  0.00000000E+00  0.00000000E+00
  0.00000000E+00  0.00000000E+00  0.00000000E+00  0.00000000E+00  0.00000000E+00
  0.00000000E+00  0.00000000E+00  0.00000000E+00  0.00000000E+00  0.00000000E+00
  0.00000000E+00  0.00000000E+00  0.00000000E+00  0.00000000E+00  0.00000000E+00
  0.00000000E+00  0.00000000E+00  0.00000000E+00  0.00000000E+00  0.00000000E+00
  0.00000000E+00  0.00000000E+00  0.00000000E+00  0.00000000E+00  0.00000000E+00
  0.00000000E+00  0.00000000E+00  0.00000000E+00  0.00000000E+00  0.00000000E+00
  0.00000000E+00  0.00000000E+00  0.00000000E+00  0.00000000E+00  0.00000000E+00
  0.00000000E+00  0.00000000E+00  0.00000000E+00  0.00000000E+00  0.00000000E+00
  5.28541226E-01  0.00000000E+00  0.00000000E+00  0.00000000E+00  0.00000000E+00
  0.00000000E+00  0.00000000E+00  1.04619844E-17  0.00000000E+00  0.00000000E+00
  1.63937692E-17  0.00000000E+00  0.00000000E+00  1.60689245E-17  0.00000000E+00
  0.00000000E+00  1.16271496E-17  0.00000000E+00  0.00000000E+00  1.09700802E-18
  0.00000000E+00  0.00000000E+00  0.00000000E+00  0.00000000E+00  0.00000000E+00
  0.00000000E+00  0.00000000E+00  0.00000000E+00  0.00000000E+00  0.00000000E+00
  0.00000000E+00  0.00000000E+00  0.00000000E+00  0.00000000E+00  0.00000000E+00
  0.00000000E+00  0.00000000E+00  0.00000000E+00  0.00000000E+00  0.00000000E+00
  0.00000000E+00  0.00000000E+00  0.00000000E+00 -9.10434232E-18  0.00000000E+00
  0.00000000E+00  0.00000000E+00  1.76180409E-01  0.00000000E+00  0.00000000E+00
  0.00000000E+00  0.00000000E+00  0.00000000E+00  0.00000000E+00  0.00000000E+00
 -1.26566100E-17  0.00000000E+00  0.00000000E+00 -3.08945826E-17  0.00000000E+00
  0.00000000E+00 -1.98763201E-17  0.00000000E+00  0.00000000E+00 -1.17589890E-17
  0.00000000E+00  0.00000000E+00  6.40897658E-19  0.00000000E+00  0.00000000E+00
  0.00000000E+00  0.00000000E+00  0.00000000E+00  0.00000000E+00  0.00000000E+00
  0.00000000E+00  0.00000000E+00  0.00000000E+00  0.00000000E+00  0.00000000E+00
  0.00000000E+00  0.00000000E+00  0.00000000E+00  0.00000000E+00  0.00000000E+00
  0.00000000E+00  0.00000000E+00  0.00000000E+00  0.00000000E+00  0.00000000E+00
  0.00000000E+00 -4.69677855E-18  0.00000000E+00  0.00000000E+00  0.00000000E+00
  1.76180409E-01  0.00000000E+00  0.00000000E+00  0.00000000E+00  0.00000000E+00
  0.00000000E+00  0.00000000E+00  0.00000000E+00  0.00000000E+00  3.82501272E-02
  0.00000000E+00  0.00000000E+00  4.10496079E-01  0.00000000E+00  0.00000000E+00
  1.15448289E+00  0.00000000E+00  0.00000000E+00  1.08354724E+00  0.00000000E+00
  0.00000000E+00  4.55716049E-01  0.00000000E+00  0.00000000E+00  0.00000000E+00
  0.00000000E+00  0.00000000E+00  0.00000000E+00  0.00000000E+00  0.00000000E+00
  0.00000000E+00  0.00000000E+00  0.00000000E+00  0.00000000E+00  0.00000000E+00
  0.00000000E+00  0.00000000E+00  0.00000000E+00  0.00000000E+00  0.00000000E+00
  0.00000000E+00  0.00000000E+00  6.50240365E-01  0.00000000E+00  0.00000000E+00
  3.74584315E-17  0.00000000E+00  0.00000000E+00  0.00000000E+00  2.37113402E+00
  0.00000000E+00  0.00000000E+00  0.00000000E+00  0.00000000E+00  0.00000000E+00
  0.00000000E+00  3.12310981E-02  0.00000000E+00  0.00000000E+00  3.35168645E-01
  0.00000000E+00  0.00000000E+00  9.42631335E-01  0.00000000E+00  0.00000000E+00
  8.84712620E-01  0.00000000E+00  0.00000000E+00  3.72090596E-01  0.00000000E+00
  0.00000000E+00  0.00000000E+00  0.00000000E+00  0.00000000E+00  0.00000000E+00
  0.00000000E+00  0.00000000E+00  0.00000000E+00  0.00000000E+00  0.00000000E+00
  0.00000000E+00  0.00000000E+00  0.00000000E+00  0.00000000E+00  0.00000000E+00
  0.00000000E+00  0.00000000E+00  0.00000000E+00  0.00000000E+00  0.00000000E+00
  0.00000000E+00  0.00000000E+00  5.93697725E-01  0.00000000E+00  0.00000000E+00
  0.00000000E+00  2.48346030E-17  0.00000000E+00  0.00000000E+00  2.16494845E+00
  0.00000000E+00  0.00000000E+00  0.00000000E+00  0.00000000E+00  0.00000000E+00
  0.00000000E+00  0.00000000E+00  3.12310981E-02  0.00000000E+00  0.00000000E+00
  3.35168645E-01  0.00000000E+00  0.00000000E+00  9.42631335E-01  0.00000000E+00
  0.00000000E+00  8.84712620E-01  0.00000000E+00  0.00000000E+00  3.72090596E-01
  0.00000000E+00  0.00000000E+00  0.00000000E+00  0.00000000E+00  0.00000000E+00
  0.00000000E+00  0.00000000E+00  0.00000000E+00  0.00000000E+00  0.00000000E+00
  0.00000000E+00  0.00000000E+00  0.00000000E+00  0.00000000E+00  0.00000000E+00
  0.00000000E+00  0.00000000E+00  0.00000000E+00  0.00000000E+00  0.00000000E+00
  0.00000000E+00  0.00000000E+00  0.00000000E+00  5.93697725E-01  0.00000000E+00
  0.00000000E+00  0.00000000E+00 -3.28034842E-17  0.00000000E+00  0.00000000E+00
  2.16494845E+00  0.00000000E+00  0.00000000E+00  0.00000000E+00  0.00000000E+00
  0.00000000E+00  0.00000000E+00  0.00000000E+00  0.00000000E+00  1.15877369E-18
  0.00000000E+00  0.00000000E+00 -3.60048612E-18  0.00000000E+00  0.00000000E+00
 -9.17503405E-18  0.00000000E+00  0.00000000E+00 -9.17344276E-17  0.00000000E+00
  0.00000000E+00 -1.13243601E-17  0.00000000E+00  0.00000000E+00  0.00000000E+00
  0.00000000E+00  0.00000000E+00  0.00000000E+00  0.00000000E+00  0.00000000E+00
  0.00000000E+00  0.00000000E+00  0.00000000E+00  0.00000000E+00  0.00000000E+00
  0.00000000E+00  0.00000000E+00  0.00000000E+00  0.00000000E+00  0.00000000E+00
  0.00000000E+00  0.00000000E+00  1.82361105E-18  0.00000000E+00  0.00000000E+00
  4.24069803E-01  0.00000000E+00  0.00000000E+00  0.00000000E+00 -5.38645042E-18
  0.00000000E+00  0.00000000E+00  1.54639175E+00  0.00000000E+00  0.00000000E+00
  0.00000000E+00  0.00000000E+00  0.00000000E+00  0.00000000E+00  0.00000000E+00
  0.00000000E+00  0.00000000E+00  0.00000000E+00  0.00000000E+00  0.00000000E+00
  0.00000000E+00  0.00000000E+00  0.00000000E+00  0.00000000E+00  0.00000000E+00
  0.00000000E+00  0.00000000E+00  0.00000000E+00  0.00000000E+00  0.00000000E+00
  0.00000000E+00  0.00000000E+00  0.00000000E+00  0.00000000E+00  0.00000000E+00
  0.00000000E+00  0.00000000E+00  0.00000000E+00  0.00000000E+00  0.00000000E+00
  0.00000000E+00  0.00000000E+00  0.00000000E+00  0.00000000E+00  0.00000000E+00
  0.00000000E+00  0.00000000E+00  0.00000000E+00  0.00000000E+00  0.00000000E+00
  0.00000000E+00  0.00000000E+00  0.00000000E+00  4.24069803E-01  0.00000000E+00
  0.00000000E+00  0.00000000E+00  0.00000000E+00  0.00000000E+00  0.00000000E+00
  1.54639175E+00  0.00000000E+00  0.00000000E+00  0.00000000E+00  0.00000000E+00
  0.00000000E+00  0.00000000E+00  4.26480149E-18  0.00000000E+00  0.00000000E+00
  1.61945369E-17  0.00000000E+00  0.00000000E+00  6.81690241E-17  0.00000000E+00
  0.00000000E+00  2.80906753E-17  0.00000000E+00  0.00000000E+00  1.98502502E-17
  0.00000000E+00  0.00000000E+00  0.00000000E+00  0.00000000E+00  0.00000000E+00
  0.00000000E+00  0.00000000E+00  0.00000000E+00  0.00000000E+00  0.00000000E+00
  0.00000000E+00  0.00000000E+00  0.00000000E+00  0.00000000E+00  0.00000000E+00
  0.00000000E+00  0.00000000E+00  0.00000000E+00  0.00000000E+00  0.00000000E+00
  0.00000000E+00  0.00000000E+00  0.00000000E+00  2.85722596E-17  0.00000000E+00
  0.00000000E+00  0.00000000E+00  1.41356601E-01  0.00000000E+00  0.00000000E+00
 -9.93322781E-18  0.00000000E+00  0.00000000E+00  0.00000000E+00  5.15463918E-01
  0.00000000E+00  0.00000000E+00  0.00000000E+00  0.00000000E+00  0.00000000E+00
  0.00000000E+00  0.00000000E+00 -2.60475431E-18  0.00000000E+00  0.00000000E+00
 -3.36951100E-17  0.00000000E+00  0.00000000E+00 -7.05264150E-17  0.00000000E+00
  0.00000000E+00 -7.26574472E-17  0.00000000E+00  0.00000000E+00 -1.86480032E-17
  0.00000000E+00  0.00000000E+00  0.00000000E+00  0.00000000E+00  0.00000000E+00
  0.00000000E+00  0.00000000E+00  0.00000000E+00  0.00000000E+00  0.00000000E+00
  0.00000000E+00  0.00000000E+00  0.00000000E+00  0.00000000E+00  0.00000000E+00
  0.00000000E+00  0.00000000E+00  0.00000000E+00  0.00000000E+00  0.00000000E+00
  0.00000000E+00  0.00000000E+00  0.00000000E+00 -1.12693164E-17  0.00000000E+00
  0.00000000E+00  0.00000000E+00  1.41356601E-01  0.00000000E+00  0.00000000E+00
 -5.47281792E-17  0.00000000E+00  0.00000000E+00  0.00000000E+00  5.15463918E-01
  0.00000000E+00  0.00000000E+00  0.00000000E+00  0.00000000E+00  0.00000000E+00
  0.00000000E+00  0.00000000E+00  0.00000000E+00  7.34288888E-03  0.00000000E+00
  0.00000000E+00  1.55481997E-01  0.00000000E+00  0.00000000E+00  1.20563332E+00
  0.00000000E+00  0.00000000E+00  3.11086872E+00  0.00000000E+00  0.00000000E+00
  2.54215849E+00  0.00000000E+00  0.00000000E+00  0.00000000E+00  0.00000000E+00
  0.00000000E+00  0.00000000E+00  0.00000000E+00  0.00000000E+00  0.00000000E+00
  0.00000000E+00  0.00000000E+00  0.00000000E+00  0.00000000E+00  0.00000000E+00
  0.00000000E+00  0.00000000E+00  0.00000000E+00  0.00000000E+00  0.00000000E+00
  0.00000000E+00  1.94252379E-01  0.00000000E+00  0.00000000E+00 -6.92581617E-18
  0.00000000E+00  0.00000000E+00  0.00000000E+00  2.09119408E+00  0.00000000E+00
  0.00000000E+00  1.88013522E-17  0.00000000E+00  0.00000000E+00  0.00000000E+00
  6.14973262E+00  0.00000000E+00  0.00000000E+00  0.00000000E+00  0.00000000E+00
  0.00000000E+00  0.00000000E+00  5.99544367E-03  0.00000000E+00  0.00000000E+00
  1.26950519E-01  0.00000000E+00  0.00000000E+00  9.84395481E-01  0.00000000E+00
  0.00000000E+00  2.54001368E+00  0.00000000E+00  0.00000000E+00  2.07566371E+00
  0.00000000E+00  0.00000000E+00  0.00000000E+00  0.00000000E+00  0.00000000E+00
  0.00000000E+00  0.00000000E+00  0.00000000E+00  0.00000000E+00  0.00000000E+00
  0.00000000E+00  0.00000000E+00  0.00000000E+00  0.00000000E+00  0.00000000E+00
  0.00000000E+00  0.00000000E+00  0.00000000E+00  0.00000000E+00  0.00000000E+00
  0.00000000E+00  0.00000000E+00  0.00000000E+00  1.77360868E-01  0.00000000E+00
  0.00000000E+00  0.00000000E+00  8.53351880E-18  0.00000000E+00  0.00000000E+00
  1.90935112E+00  0.00000000E+00  0.00000000E+00  0.00000000E+00  4.94920848E-17
  0.00000000E+00  0.00000000E+00  5.61497326E+00  0.00000000E+00  0.00000000E+00
  0.00000000E+00  0.00000000E+00  0.00000000E+00  0.00000000E+00  0.00000000E+00
  5.99544367E-03  0.00000000E+00  0.00000000E+00  1.26950519E-01  0.00000000E+00
  0.00000000E+00  9.84395481E-01  0.00000000E+00  0.00000000E+00  2.54001368E+00
  0.00000000E+00  0.00000000E+00  2.07566371E+00  0.00000000E+00  0.00000000E+00
  0.00000000E+00  0.00000000E+00  0.00000000E+00  0.00000000E+00  0.00000000E+00
  0.00000000E+00  0.00000000E+00  0.00000000E+00  0.00000000E+00  0.00000000E+00
  0.00000000E+00  0.00000000E+00  0.00000000E+00  0.00000000E+00  0.00000000E+00
  0.00000000E+00  0.00000000E+00  0.00000000E+00  0.00000000E+00  0.00000000E+00
  0.00000000E+00  1.77360868E-01  0.00000000E+00  0.00000000E+00  0.00000000E+00
 -8.06833845E-18  0.00000000E+00  0.00000000E+00  1.90935112E+00  0.00000000E+00
  0.00000000E+00  0.00000000E+00 -4.91557072E-17  0.00000000E+00  0.00000000E+00
  5.61497326E+00  0.00000000E+00  0.00000000E+00  0.00000000E+00  0.00000000E+00
  0.00000000E+00  0.00000000E+00  0.00000000E+00  0.00000000E+00 -3.54551126E-19
  0.00000000E+00  0.00000000E+00  8.77337985E-18  0.00000000E+00  0.00000000E+00
 -3.74423277E-17  0.00000000E+00  0.00000000E+00  2.09354602E-16  0.00000000E+00
  0.00000000E+00 -1.70192625E-16  0.00000000E+00  0.00000000E+00  0.00000000E+00
  0.00000000E+00  0.00000000E+00  0.00000000E+00  0.00000000E+00  0.00000000E+00
  0.00000000E+00  0.00000000E+00  0.00000000E+00  0.00000000E+00  0.00000000E+00
  0.00000000E+00  0.00000000E+00  0.00000000E+00  0.00000000E+00  0.00000000E+00
  0.00000000E+00  0.00000000E+00 -1.05009051E-17  0.00000000E+00  0.00000000E+00
  1.26686334E-01  0.00000000E+00  0.00000000E+00  0.00000000E+00 -1.15200171E-17
  0.00000000E+00  0.00000000E+00  1.36382223E+00  0.00000000E+00  0.00000000E+00
  0.00000000E+00 -4.65315764E-17  0.00000000E+00  0.00000000E+00  4.01069519E+00
  0.00000000E+00  0.00000000E+00  0.00000000E+00  0.00000000E+00  0.00000000E+00
  0.00000000E+00  0.00000000E+00  0.00000000E+00  0.00000000E+00  0.00000000E+00
  0.00000000E+00  0.00000000E+00  0.00000000E+00  0.00000000E+00  0.00000000E+00
  0.00000000E+00  0.00000000E+00  0.00000000E+00  0.00000000E+00  0.00000000E+00
  0.00000000E+00  0.00000000E+00  0.00000000E+00  0.00000000E+00  0.00000000E+00
  0.00000000E+00  0.00000000E+00  0.00000000E+00  0.00000000E+00  0.00000000E+00
  0.00000000E+00  0.00000000E+00  0.00000000E+00  0.00000000E+00  0.00000000E+00
  0.00000000E+00  0.00000000E+00  0.00000000E+00  0.00000000E+00  0.00000000E+00
  0.00000000E+00  0.00000000E+00  0.00000000E+00  0.00000000E+00  0.00000000E+00
  1.26686334E-01  0.00000000E+00  0.00000000E+00  0.00000000E+00  0.00000000E+00
  0.00000000E+00  0.00000000E+00  1.36382223E+00  0.00000000E+00  0.00000000E+00
  0.00000000E+00  0.00000000E+00  0.00000000E+00  0.00000000E+00  4.01069519E+00
  0.00000000E+00  0.00000000E+00  0.00000000E+00  0.00000000E+00  0.00000000E+00
  0.00000000E+00  2.53751132E-19  0.00000000E+00  0.00000000E+00  3.63030452E-18
  0.00000000E+00  0.00000000E+00  9.38335208E-17  0.00000000E+00  0.00000000E+00
 -2.90703193E-17  0.00000000E+00  0.00000000E+00  1.22523542E-16  0.00000000E+00
  0.00000000E+00  0.00000000E+00  0.00000000E+00  0.00000000E+00  0.00000000E+00
  0.00000000E+00  0.00000000E+00  0.00000000E+00  0.00000000E+00  0.00000000E+00
  0.00000000E+00  0.00000000E+00  0.00000000E+00  0.00000000E+00  0.00000000E+00
  0.00000000E+00  0.00000000E+00  0.00000000E+00  0.00000000E+00  0.00000000E+00
  0.00000000E+00  0.00000000E+00  6.25752276E-18  0.00000000E+00  0.00000000E+00
  0.00000000E+00  4.22287780E-02  0.00000000E+00  0.00000000E+00  4.63429586E-18
  0.00000000E+00  0.00000000E+00  0.00000000E+00  4.54607409E-01  0.00000000E+00
  0.00000000E+00  1.68992072E-16  0.00000000E+00  0.00000000E+00  0.00000000E+00
  1.33689840E+00  0.00000000E+00  0.00000000E+00  0.00000000E+00  0.00000000E+00
  0.00000000E+00  0.00000000E+00  0.00000000E+00 -6.40036263E-19  0.00000000E+00
  0.00000000E+00 -6.72038178E-18  0.00000000E+00  0.00000000E+00 -1.11586397E-16
  0.00000000E+00  0.00000000E+00 -6.70460072E-17  0.00000000E+00  0.00000000E+00
 -3.26501388E-16  0.00000000E+00  0.00000000E+00  0.00000000E+00  0.00000000E+00
  0.00000000E+00  0.00000000E+00  0.00000000E+00  0.00000000E+00  0.00000000E+00
  0.00000000E+00  0.00000000E+00  0.00000000E+00  0.00000000E+00  0.00000000E+00
  0.00000000E+00  0.00000000E+00  0.00000000E+00  0.00000000E+00  0.00000000E+00
  0.00000000E+00  0.00000000E+00  0.00000000E+00  0.00000000E+00 -8.10522539E-18
  0.00000000E+00  0.00000000E+00  0.00000000E+00  4.22287780E-02  0.00000000E+00
  0.00000000E+00 -4.88709576E-17  0.00000000E+00  0.00000000E+00  0.00000000E+00
  4.54607409E-01  0.00000000E+00  0.00000000E+00 -2.47018356E-16  0.00000000E+00
  0.00000000E+00  0.00000000E+00  1.33689840E+00 -1.73472348E-18  0.00000000E+00
 -1.11022302E-16 -2.22044605E-16  0.00000000E+00  0.00000000E+00  0.00000000E+00
  0.00000000E+00  0.00000000E+00  0.00000000E+00  0.00000000E+00  0.00000000E+00
  0.00000000E+00  0.00000000E+00  0.00000000E+00  0.00000000E+00  0.00000000E+00
  0.00000000E+00  0.00000000E+00  0.00000000E+00  0.00000000E+00  2.14470949E-01
  0.00000000E+00  0.00000000E+00  9.41318956E-18  0.00000000E+00  6.83363253E-01
  0.00000000E+00  0.00000000E+00  4.17872526E-17  0.00000000E+00  5.47408685E-01
  0.00000000E+00  0.00000000E+00  1.01437004E-17  0.00000000E+00  1.66202533E-01
  0.00000000E+00  0.00000000E+00 -2.93650092E-18  0.00000000E+00  0.00000000E+00
  0.00000000E+00  0.00000000E+00  0.00000000E+00  0.00000000E+00  0.00000000E+00
  0.00000000E+00  0.00000000E+00  0.00000000E+00  0.00000000E+00  0.00000000E+00
  0.00000000E+00  0.00000000E+00  0.00000000E+00  0.00000000E+00  0.00000000E+00
  0.00000000E+00  0.00000000E+00  0.00000000E+00  0.00000000E+00  0.00000000E+00
  1.37770242E+00  0.00000000E+00  0.00000000E+00  0.00000000E+00  0.00000000E+00
  0.00000000E+00  0.00000000E+00  0.00000000E+00  0.00000000E+00  0.00000000E+00
  0.00000000E+00  0.00000000E+00  0.00000000E+00  0.00000000E+00  0.00000000E+00
  0.00000000E+00  0.00000000E+00  0.00000000E+00  0.00000000E+00  0.00000000E+00
  0.00000000E+00  0.00000000E+00  0.00000000E+00  1.95784295E-01  0.00000000E+00
  0.00000000E+00  0.00000000E+00  0.00000000E+00  6.23822448E-01  0.00000000E+00
  0.00000000E+00  0.00000000E+00  0.00000000E+00  4.99713475E-01  0.00000000E+00
  0.00000000E+00  0.00000000E+00  0.00000000E+00  1.51721461E-01  0.00000000E+00
  0.00000000E+00  0.00000000E+00  0.00000000E+00  0.00000000E+00  0.00000000E+00
  0.00000000E+00  0.00000000E+00  0.00000000E+00  0.00000000E+00  0.00000000E+00
  0.00000000E+00  0.00000000E+00  0.00000000E+00  0.00000000E+00  0.00000000E+00
  0.00000000E+00  0.00000000E+00  0.00000000E+00  0.00000000E+00  0.00000000E+00
  0.00000000E+00  0.00000000E+00  0.00000000E+00  0.00000000E+00  1.30705101E+00
  0.00000000E+00  0.00000000E+00  0.00000000E+00  0.00000000E+00  0.00000000E+00
  0.00000000E+00  0.00000000E+00  0.00000000E+00  0.00000000E+00  0.00000000E+00
  0.00000000E+00  0.00000000E+00  0.00000000E+00  0.00000000E+00  0.00000000E+00
  0.00000000E+00  0.00000000E+00  0.00000000E+00  0.00000000E+00  0.00000000E+00
  0.00000000E+00  0.00000000E+00  0.00000000E+00  1.95784295E-01  0.00000000E+00
  0.00000000E+00  0.00000000E+00  0.00000000E+00  6.23822448E-01  0.00000000E+00
  0.00000000E+00  0.00000000E+00  0.00000000E+00  4.99713475E-01  0.00000000E+00
  0.00000000E+00  0.00000000E+00  0.00000000E+00  1.51721461E-01  0.00000000E+00
  0.00000000E+00  0.00000000E+00  0.00000000E+00  0.00000000E+00  0.00000000E+00
  0.00000000E+00  0.00000000E+00  0.00000000E+00  0.00000000E+00  0.00000000E+00
  0.00000000E+00  0.00000000E+00  0.00000000E+00  0.00000000E+00  0.00000000E+00
  0.00000000E+00  0.00000000E+00  0.00000000E+00  0.00000000E+00  0.00000000E+00
  0.00000000E+00  0.00000000E+00  0.00000000E+00  0.00000000E+00  1.30705101E+00
 -8.68333554E-19 -5.98152674E-19 -1.63178757E-17 -5.48825573E-17 -4.98464242E-17
  2.88207287E-17  0.00000000E+00  0.00000000E+00  0.00000000E+00  0.00000000E+00
  0.00000000E+00  0.00000000E+00  0.00000000E+00  0.00000000E+00  0.00000000E+00
  0.00000000E+00  0.00000000E+00  0.00000000E+00  0.00000000E+00  0.00000000E+00
  0.00000000E+00 -1.10762627E-17  0.00000000E+00  0.00000000E+00  1.38440403E-01
  0.00000000E+00 -1.89942857E-17  0.00000000E+00  0.00000000E+00  4.41109083E-01
  0.00000000E+00 -1.04048518E-17  0.00000000E+00  0.00000000E+00  3.53350787E-01
  0.00000000E+00  1.00915844E-18  0.00000000E+00  0.00000000E+00  1.07283274E-01
  0.00000000E+00  0.00000000E+00  0.00000000E+00  0.00000000E+00  0.00000000E+00
  0.00000000E+00  0.00000000E+00  0.00000000E+00  0.00000000E+00  0.00000000E+00
  0.00000000E+00  0.00000000E+00  0.00000000E+00  0.00000000E+00  0.00000000E+00
  0.00000000E+00  0.00000000E+00  0.00000000E+00  0.00000000E+00  0.00000000E+00
  0.00000000E+00  0.00000000E+00  1.59372152E-17  0.00000000E+00  0.00000000E+00
  1.09509679E+00  0.00000000E+00  0.00000000E+00  0.00000000E+00  0.00000000E+00
  0.00000000E+00  0.00000000E+00  0.00000000E+00  0.00000000E+00  0.00000000E+00
  0.00000000E+00  0.00000000E+00  0.00000000E+00  0.00000000E+00  0.00000000E+00
  0.00000000E+00  0.00000000E+00  0.00000000E+00  0.00000000E+00  0.00000000E+00
  0.00000000E+00  0.00000000E+00  0.00000000E+00  0.00000000E+00  0.00000000E+00
  0.00000000E+00  1.38440403E-01  0.00000000E+00  0.00000000E+00  0.00000000E+00
  0.00000000E+00  4.41109083E-01  0.00000000E+00  0.00000000E+00  0.00000000E+00
  0.00000000E+00  3.53350787E-01  0.00000000E+00  0.00000000E+00  0.00000000E+00
  0.00000000E+00  1.07283274E-01  0.00000000E+00  0.00000000E+00  0.00000000E+00
  0.00000000E+00  0.00000000E+00  0.00000000E+00  0.00000000E+00  0.00000000E+00
  0.00000000E+00  0.00000000E+00  0.00000000E+00  0.00000000E+00  0.00000000E+00
  0.00000000E+00  0.00000000E+00  0.00000000E+00  0.00000000E+00  0.00000000E+00
  0.00000000E+00  0.00000000E+00  0.00000000E+00  0.00000000E+00  0.00000000E+00
  0.00000000E+00  0.00000000E+00  1.09509679E+00  0.00000000E+00  0.00000000E+00
  0.00000000E+00  0.00000000E+00  0.00000000E+00  0.00000000E+00  0.00000000E+00
  0.00000000E+00  0.00000000E+00  0.00000000E+00  0.00000000E+00  0.00000000E+00
  0.00000000E+00  0.00000000E+00  0.00000000E+00  0.00000000E+00  0.00000000E+00
  0.00000000E+00  0.00000000E+00  0.00000000E+00  0.00000000E+00  0.00000000E+00
  9.10148212E-18  0.00000000E+00  0.00000000E+00  0.00000000E+00  0.00000000E+00
  5.55466684E-17  0.00000000E+00  0.00000000E+00  0.00000000E+00  0.00000000E+00
 -5.13764184E-17  0.00000000E+00  0.00000000E+00  0.00000000E+00  0.00000000E+00
 -2.19361585E-17  0.00000000E+00  0.00000000E+00  0.00000000E+00  0.00000000E+00
  0.00000000E+00  0.00000000E+00  0.00000000E+00  0.00000000E+00  0.00000000E+00
  0.00000000E+00  0.00000000E+00  0.00000000E+00  0.00000000E+00  0.00000000E+00
  0.00000000E+00  0.00000000E+00  0.00000000E+00  0.00000000E+00  0.00000000E+00
  0.00000000E+00  0.00000000E+00  0.00000000E+00  0.00000000E+00  0.00000000E+00
  0.00000000E+00 -4.11345214E-17  0.00000000E+00  0.00000000E+00  0.00000000E+00
  7.41839763E-01  0.00000000E+00  0.00000000E+00  0.00000000E+00  0.00000000E+00
  0.00000000E+00  0.00000000E+00  0.00000000E+00  0.00000000E+00  0.00000000E+00
  0.00000000E+00  0.00000000E+00  0.00000000E+00  0.00000000E+00  0.00000000E+00
  0.00000000E+00  0.00000000E+00  0.00000000E+00  0.00000000E+00  0.00000000E+00
  0.00000000E+00  0.00000000E+00  0.00000000E+00  0.00000000E+00  7.94446669E-18
  0.00000000E+00  0.00000000E+00  0.00000000E+00  0.00000000E+00 -9.01394855E-17
  0.00000000E+00  0.00000000E+00  0.00000000E+00  0.00000000E+00  7.39281833E-17
  0.00000000E+00  0.00000000E+00  0.00000000E+00  0.00000000E+00  1.83473442E-17
  0.00000000E+00  0.00000000E+00  0.00000000E+00  0.00000000E+00  0.00000000E+00
  0.00000000E+00  0.00000000E+00  0.00000000E+00  0.00000000E+00  0.00000000E+00
  0.00000000E+00  0.00000000E+00  0.00000000E+00  0.00000000E+00  0.00000000E+00
  0.00000000E+00  0.00000000E+00  0.00000000E+00  0.00000000E+00  0.00000000E+00
  0.00000000E+00  0.00000000E+00  0.00000000E+00  0.00000000E+00  0.00000000E+00
 -5.36079502E-18  0.00000000E+00  0.00000000E+00  0.00000000E+00  7.41839763E-01
 -3.40745262E-19  3.59336939E-19  2.68235460E-17 -6.26203475E-17  5.07071084E-17
 -4.02418038E-18  0.00000000E+00  0.00000000E+00  0.00000000E+00  0.00000000E+00
  0.00000000E+00  0.00000000E+00  0.00000000E+00  0.00000000E+00  0.00000000E+00
  0.00000000E+00  0.00000000E+00  0.00000000E+00  0.00000000E+00  0.00000000E+00
  0.00000000E+00  9.01388759E-18  0.00000000E+00  0.00000000E+00  1.50999100E-18
  0.00000000E+00 -3.60555504E-17  0.00000000E+00  0.00000000E+00 -1.27955933E-17
  0.00000000E+00 -4.99549957E-18  0.00000000E+00  0.00000000E+00 -1.45261835E-17
  0.00000000E+00  0.00000000E+00  0.00000000E+00  0.00000000E+00  6.59696609E-19
  0.00000000E+00  0.00000000E+00  0.00000000E+00  0.00000000E+00  0.00000000E+00
  0.00000000E+00  0.00000000E+00  0.00000000E+00  0.00000000E+00  0.00000000E+00
  0.00000000E+00  0.00000000E+00  0.00000000E+00  0.00000000E+00  0.00000000E+00
  0.00000000E+00  0.00000000E+00  0.00000000E+00  0.00000000E+00  0.00000000E+00
  0.00000000E+00  0.00000000E+00  3.41396945E-17  0.00000000E+00  0.00000000E+00
  5.14135810E-18  0.00000000E+00  0.00000000E+00  0.00000000E+00  2.47279921E-01
  0.00000000E+00  0.00000000E+00  0.00000000E+00  0.00000000E+00  0.00000000E+00
  0.00000000E+00  0.00000000E+00  0.00000000E+00  0.00000000E+00  0.00000000E+00
  0.00000000E+00  0.00000000E+00  0.00000000E+00  0.00000000E+00  0.00000000E+00
  0.00000000E+00  0.00000000E+00  0.00000000E+00  0.00000000E+00  0.00000000E+00
  0.00000000E+00  0.00000000E+00  0.00000000E+00  0.00000000E+00  0.00000000E+00
  1.71794957E-18  0.00000000E+00  0.00000000E+00  0.00000000E+00  0.00000000E+00
  1.39352222E-17  0.00000000E+00  0.00000000E+00  0.00000000E+00  0.00000000E+00
  4.16149604E-18  0.00000000E+00  0.00000000E+00  0.00000000E+00  0.00000000E+00
 -1.82538239E-18  0.00000000E+00  0.00000000E+00  0.00000000E+00  0.00000000E+00
  0.00000000E+00  0.00000000E+00  0.00000000E+00  0.00000000E+00  0.00000000E+00
  0.00000000E+00  0.00000000E+00  0.00000000E+00  0.00000000E+00  0.00000000E+00
  0.00000000E+00  0.00000000E+00  0.00000000E+00  0.00000000E+00  0.00000000E+00
  0.00000000E+00  0.00000000E+00  0.00000000E+00  0.00000000E+00  0.00000000E+00
  0.00000000E+00 -2.68751582E-17  0.00000000E+00  0.00000000E+00  0.00000000E+00
  2.47279921E-01 -4.33680869E-19  0.00000000E+00  0.00000000E+00 -2.22044605E-16
  0.00000000E+00 -4.44089210E-16  0.00000000E+00  0.00000000E+00  0.00000000E+00
  0.00000000E+00  0.00000000E+00  0.00000000E+00  0.00000000E+00  0.00000000E+00
  0.00000000E+00  0.00000000E+00  0.00000000E+00  0.00000000E+00  0.00000000E+00
  0.00000000E+00  0.00000000E+00  6.95810467E-02  0.00000000E+00  0.00000000E+00
 -1.52809595E-18  0.00000000E+00  6.90459267E-01  0.00000000E+00  0.00000000E+00
 -3.78839953E-17  0.00000000E+00  1.71408565E+00  0.00000000E+00  0.00000000E+00
  5.82610492E-17  0.00000000E+00  1.08694861E+00  0.00000000E+00  0.00000000E+00
 -7.64706385E-19  0.00000000E+00  0.00000000E+00  0.00000000E+00  0.00000000E+00
  0.00000000E+00  0.00000000E+00  0.00000000E+00  0.00000000E+00  0.00000000E+00
  0.00000000E+00  0.00000000E+00  0.00000000E+00  0.00000000E+00  0.00000000E+00
  0.00000000E+00  0.00000000E+00  0.00000000E+00  0.00000000E+00  0.00000000E+00
  0.00000000E+00  0.00000000E+00  0.00000000E+00  1.17323760E+00  0.00000000E+00
  0.00000000E+00  6.03359799E-17  0.00000000E+00  0.00000000E+00  0.00000000E+00
 -1.30106712E-17  0.00000000E+00  3.28504043E+00  0.00000000E+00  0.00000000E+00
  0.00000000E+00  0.00000000E+00  0.00000000E+00  0.00000000E+00  0.00000000E+00
  0.00000000E+00  0.00000000E+00  0.00000000E+00  0.00000000E+00  0.00000000E+00
  0.00000000E+00  0.00000000E+00  0.00000000E+00  0.00000000E+00  0.00000000E+00
  0.00000000E+00  0.00000000E+00  0.00000000E+00  0.00000000E+00  0.00000000E+00
  6.35185148E-02  0.00000000E+00  0.00000000E+00  0.00000000E+00  0.00000000E+00
  6.30300193E-01  0.00000000E+00  0.00000000E+00  0.00000000E+00  0.00000000E+00
  1.56473896E+00  0.00000000E+00  0.00000000E+00  0.00000000E+00  0.00000000E+00
  9.92243789E-01  0.00000000E+00  0.00000000E+00  0.00000000E+00  0.00000000E+00
  0.00000000E+00  0.00000000E+00  0.00000000E+00  0.00000000E+00  0.00000000E+00
  0.00000000E+00  0.00000000E+00  0.00000000E+00  0.00000000E+00  0.00000000E+00
  0.00000000E+00  0.00000000E+00  0.00000000E+00  0.00000000E+00  0.00000000E+00
  0.00000000E+00  0.00000000E+00  0.00000000E+00  0.00000000E+00  0.00000000E+00
  0.00000000E+00  1.11307157E+00  0.00000000E+00  0.00000000E+00  0.00000000E+00
  9.11964194E-18  0.00000000E+00  0.00000000E+00  0.00000000E+00  0.00000000E+00
  3.11657682E+00  0.00000000E+00  0.00000000E+00  0.00000000E+00  0.00000000E+00
  0.00000000E+00  0.00000000E+00  0.00000000E+00  0.00000000E+00  0.00000000E+00
  0.00000000E+00  0.00000000E+00  0.00000000E+00  0.00000000E+00  0.00000000E+00
  0.00000000E+00  0.00000000E+00  0.00000000E+00  0.00000000E+00  0.00000000E+00
  0.00000000E+00  0.00000000E+00  0.00000000E+00  0.00000000E+00  6.35185148E-02
  0.00000000E+00  0.00000000E+00  0.00000000E+00  0.00000000E+00  6.30300193E-01
  0.00000000E+00  0.00000000E+00  0.00000000E+00  0.00000000E+00  1.56473896E+00
  0.00000000E+00  0.00000000E+00  0.00000000E+00  0.00000000E+00  9.92243789E-01
  0.00000000E+00  0.00000000E+00  0.00000000E+00  0.00000000E+00  0.00000000E+00
  0.00000000E+00  0.00000000E+00  0.00000000E+00  0.00000000E+00  0.00000000E+00
  0.00000000E+00  0.00000000E+00  0.00000000E+00  0.00000000E+00  0.00000000E+00
  0.00000000E+00  0.00000000E+00  0.00000000E+00  0.00000000E+00  0.00000000E+00
  0.00000000E+00  0.00000000E+00  0.00000000E+00  0.00000000E+00  0.00000000E+00
  1.11307157E+00  0.00000000E+00  0.00000000E+00  0.00000000E+00 -2.48010051E-17
  0.00000000E+00  0.00000000E+00  0.00000000E+00  0.00000000E+00  3.11657682E+00
 -5.15026423E-20  1.04240448E-19 -4.18116310E-19  5.40310529E-17 -6.74680873E-17
  2.44744360E-18  0.00000000E+00  0.00000000E+00  0.00000000E+00  0.00000000E+00
  0.00000000E+00  0.00000000E+00  0.00000000E+00  0.00000000E+00  0.00000000E+00
  0.00000000E+00  0.00000000E+00  0.00000000E+00  0.00000000E+00  0.00000000E+00
  0.00000000E+00 -8.16202063E-19  0.00000000E+00  0.00000000E+00  4.49143725E-02
  0.00000000E+00  3.76907853E-17  0.00000000E+00  0.00000000E+00  4.45689540E-01
  0.00000000E+00  3.80898489E-18  0.00000000E+00  0.00000000E+00  1.10643753E+00
  0.00000000E+00 -1.82695643E-17  0.00000000E+00  0.00000000E+00  7.01622312E-01
  0.00000000E+00  0.00000000E+00  0.00000000E+00  0.00000000E+00  0.00000000E+00
  0.00000000E+00  0.00000000E+00  0.00000000E+00  0.00000000E+00  0.00000000E+00
  0.00000000E+00  0.00000000E+00  0.00000000E+00  0.00000000E+00  0.00000000E+00
  0.00000000E+00  0.00000000E+00  0.00000000E+00  0.00000000E+00  0.00000000E+00
  0.00000000E+00  0.00000000E+00 -4.40535636E-18  0.00000000E+00  0.00000000E+00
  9.32573480E-01  0.00000000E+00  0.00000000E+00  0.00000000E+00  3.46646192E-18
  0.00000000E+00  1.14701603E-16  0.00000000E+00  0.00000000E+00  2.61118598E+00
  0.00000000E+00  0.00000000E+00  0.00000000E+00  0.00000000E+00  0.00000000E+00
  0.00000000E+00  0.00000000E+00  0.00000000E+00  0.00000000E+00  0.00000000E+00
  0.00000000E+00  0.00000000E+00  0.00000000E+00  0.00000000E+00  0.00000000E+00
  0.00000000E+00  0.00000000E+00  0.00000000E+00  0.00000000E+00  0.00000000E+00
  0.00000000E+00  0.00000000E+00  0.00000000E+00  0.00000000E+00  0.00000000E+00
  4.49143725E-02  0.00000000E+00  0.00000000E+00  0.00000000E+00  0.00000000E+00
  4.45689540E-01  0.00000000E+00  0.00000000E+00  0.00000000E+00  0.00000000E+00
  1.10643753E+00  0.00000000E+00  0.00000000E+00  0.00000000E+00  0.00000000E+00
  7.01622312E-01  0.00000000E+00  0.00000000E+00  0.00000000E+00  0.00000000E+00
  0.00000000E+00  0.00000000E+00  0.00000000E+00  0.00000000E+00  0.00000000E+00
  0.00000000E+00  0.00000000E+00  0.00000000E+00  0.00000000E+00  0.00000000E+00
  0.00000000E+00  0.00000000E+00  0.00000000E+00  0.00000000E+00  0.00000000E+00
  0.00000000E+00  0.00000000E+00  0.00000000E+00  0.00000000E+00  0.00000000E+00
  0.00000000E+00  9.32573480E-01  0.00000000E+00  0.00000000E+00  0.00000000E+00
 -1.84634780E-17  0.00000000E+00  0.00000000E+00  0.00000000E+00  0.00000000E+00
  2.61118598E+00  0.00000000E+00  0.00000000E+00  0.00000000E+00  0.00000000E+00
  0.00000000E+00  0.00000000E+00  0.00000000E+00  0.00000000E+00  0.00000000E+00
  0.00000000E+00  0.00000000E+00  0.00000000E+00  0.00000000E+00  0.00000000E+00
  0.00000000E+00  0.00000000E+00  0.00000000E+00  0.00000000E+00  0.00000000E+00
  0.00000000E+00  0.00000000E+00  0.00000000E+00 -4.54960661E-18  0.00000000E+00
  0.00000000E+00  0.00000000E+00  0.00000000E+00  1.43796605E-16  0.00000000E+00
  0.00000000E+00  0.00000000E+00  0.00000000E+00 -1.88688195E-17  0.00000000E+00
  0.00000000E+00  0.00000000E+00  0.00000000E+00 -1.70686220E-16  0.00000000E+00
  0.00000000E+00  0.00000000E+00  0.00000000E+00  0.00000000E+00  0.00000000E+00
  0.00000000E+00  0.00000000E+00  0.00000000E+00  0.00000000E+00  0.00000000E+00
  0.00000000E+00  0.00000000E+00  0.00000000E+00  0.00000000E+00  0.00000000E+00
  0.00000000E+00  0.00000000E+00  0.00000000E+00  0.00000000E+00  0.00000000E+00
  0.00000000E+00  0.00000000E+00  0.00000000E+00  0.00000000E+00  4.99403709E-17
  0.00000000E+00  0.00000000E+00  0.00000000E+00  6.31743325E-01  0.00000000E+00
  0.00000000E+00  0.00000000E+00  0.00000000E+00 -8.60600579E-17  0.00000000E+00
  0.00000000E+00  0.00000000E+00  1.76886792E+00  0.00000000E+00  0.00000000E+00
  0.00000000E+00  0.00000000E+00  0.00000000E+00  0.00000000E+00  0.00000000E+00
  0.00000000E+00  0.00000000E+00  0.00000000E+00  0.00000000E+00  0.00000000E+00
  0.00000000E+00  0.00000000E+00  0.00000000E+00  0.00000000E+00  0.00000000E+00
  0.00000000E+00  0.00000000E+00  0.00000000E+00  0.00000000E+00  0.00000000E+00
  0.00000000E+00  6.28300704E-18  0.00000000E+00  0.00000000E+00  0.00000000E+00
  0.00000000E+00 -6.73869330E-17  0.00000000E+00  0.00000000E+00  0.00000000E+00
  0.00000000E+00 -4.05976000E-17  0.00000000E+00  0.00000000E+00  0.00000000E+00
  0.00000000E+00  1.93375924E-16  0.00000000E+00  0.00000000E+00  0.00000000E+00
  0.00000000E+00  0.00000000E+00  0.00000000E+00  0.00000000E+00  0.00000000E+00
  0.00000000E+00  0.00000000E+00  0.00000000E+00  0.00000000E+00  0.00000000E+00
  0.00000000E+00  0.00000000E+00  0.00000000E+00  0.00000000E+00  0.00000000E+00
  0.00000000E+00  0.00000000E+00  0.00000000E+00  0.00000000E+00  0.00000000E+00
  0.00000000E+00  0.00000000E+00 -4.70601485E-17  0.00000000E+00  0.00000000E+00
  0.00000000E+00  6.31743325E-01  0.00000000E+00  0.00000000E+00  0.00000000E+00
  0.00000000E+00 -8.15014158E-17  0.00000000E+00  0.00000000E+00  0.00000000E+00
  1.76886792E+00 -1.39825664E-20  2.84880965E-20 -1.58623416E-17 -2.00325112E-17
  9.65125011E-17  1.79731306E-16  0.00000000E+00  0.00000000E+00  0.00000000E+00
  0.00000000E+00  0.00000000E+00  0.00000000E+00  0.00000000E+00  0.00000000E+00
  0.00000000E+00  0.00000000E+00  0.00000000E+00  0.00000000E+00  0.00000000E+00
  0.00000000E+00  0.00000000E+00 -4.50694380E-18  0.00000000E+00  0.00000000E+00
  1.73476557E-18  0.00000000E+00  3.60555504E-17  0.00000000E+00  0.00000000E+00
  3.00987821E-17  0.00000000E+00 -1.99819983E-17  0.00000000E+00  0.00000000E+00
 -1.54337957E-17  0.00000000E+00  0.00000000E+00  0.00000000E+00  0.00000000E+00
  9.13574796E-18  0.00000000E+00  0.00000000E+00  0.00000000E+00  0.00000000E+00
  0.00000000E+00  0.00000000E+00  0.00000000E+00  0.00000000E+00  0.00000000E+00
  0.00000000E+00  0.00000000E+00  0.00000000E+00  0.00000000E+00  0.00000000E+00
  0.00000000E+00  0.00000000E+00  0.00000000E+00  0.00000000E+00  0.00000000E+00
  0.00000000E+00  0.00000000E+00  0.00000000E+00  2.74089122E-18  0.00000000E+00
  0.00000000E+00 -1.36550568E-18  0.00000000E+00  0.00000000E+00  0.00000000E+00
  2.10581108E-01  0.00000000E+00 -6.93375372E-17  0.00000000E+00  0.00000000E+00
  1.84933342E-17  0.00000000E+00  0.00000000E+00  0.00000000E+00  5.89622642E-01
  0.00000000E+00  0.00000000E+00  0.00000000E+00  0.00000000E+00  0.00000000E+00
  0.00000000E+00  0.00000000E+00  0.00000000E+00  0.00000000E+00  0.00000000E+00
  0.00000000E+00  0.00000000E+00  0.00000000E+00  0.00000000E+00  0.00000000E+00
  0.00000000E+00  0.00000000E+00  0.00000000E+00  0.00000000E+00  0.00000000E+00
  0.00000000E+00  0.00000000E+00  0.00000000E+00  0.00000000E+00  0.00000000E+00
 -1.59954710E-18  0.00000000E+00  0.00000000E+00  0.00000000E+00  0.00000000E+00
  1.10005442E-17  0.00000000E+00  0.00000000E+00  0.00000000E+00  0.00000000E+00
  7.94216709E-18  0.00000000E+00  0.00000000E+00  0.00000000E+00  0.00000000E+00
 -2.49885365E-17  0.00000000E+00  0.00000000E+00  0.00000000E+00  0.00000000E+00
  0.00000000E+00  0.00000000E+00  0.00000000E+00  0.00000000E+00  0.00000000E+00
  0.00000000E+00  0.00000000E+00  0.00000000E+00  0.00000000E+00  0.00000000E+00
  0.00000000E+00  0.00000000E+00  0.00000000E+00  0.00000000E+00  0.00000000E+00
  0.00000000E+00  0.00000000E+00  0.00000000E+00  0.00000000E+00  0.00000000E+00
  0.00000000E+00  1.52924903E-18  0.00000000E+00  0.00000000E+00  0.00000000E+00
  2.10581108E-01  0.00000000E+00  0.00000000E+00  0.00000000E+00  0.00000000E+00
 -1.77102664E-18  0.00000000E+00  0.00000000E+00  0.00000000E+00  5.89622642E-01
Number of independent functions            I               80
Alpha MO coefficients                      R   N=        6400
  9.93348590E-01  1.57037381E-04  1.57501938E-02 -3.47950543E-03  1.60688314E-03
 -4.03795403E-04  2.98275575E-18 -3.18980693E-19 -2.06031426E-19 -2.11037392E-18
  1.72204253E-19  8.09104761E-20  1.40133013E-18 -1.26700397E-19 -3.43517228E-20
 -4.54868497E-19  5.48059602E-20  2.01625731E-20  1.89774363E-19 -1.79989482E-20
 -9.69777422E-21  1.06418270E-04  1.03216507E-15  1.29054393E-10  1.84321850E-04
 -2.94757030E-09 -5.08005459E-04 -4.92637094E-15 -6.16062793E-10 -8.79891265E-04
  1.40707211E-08  4.97681235E-05  4.82115981E-16  6.03542504E-11  8.62009185E-05
 -1.37847611E-09 -4.34217656E-05 -4.20915283E-16 -5.26579655E-11 -7.52087041E-05
  1.20269486E-09 -5.33837689E-20 -4.34326571E-20 -1.36784770E-20 -9.15222261E-20
  6.91249128E-21 -1.02552021E-17  4.71631340E-21  5.69967885E-20 -1.73588137E-19
 -8.27162816E-19  1.06704228E-19 -5.73000262E-20 -3.90472664E-18  1.34806298E-20
  3.73441276E-20 -7.16069431E-20  5.25024077E-19 -1.36955259E-19 -9.21926444E-21
  1.70658493E-17 -3.15490369E-20 -5.06685620E-06 -2.46076683E-16 -1.12187006E-11
 -7.55322326E-06  1.20786741E-10 -1.99563989E-16 -9.89350768E-12 -9.99197518E-06
  3.19571755E-10 -1.25699402E-06  2.44859384E-16 -2.78318504E-12 -1.87381604E-06
  2.99651611E-11 -4.58326548E-16 -2.45487329E-12 -2.47882563E-06  7.92802876E-11
  5.54282849E-04  3.44614857E-01  2.80955546E-01  5.91929492E-01  2.71474115E-01
  2.93185334E-03 -1.25337205E-17  8.89801912E-19 -1.49627828E-18 -1.35008903E-17
  1.50477140E-18 -4.28827808E-18 -6.25412948E-17  6.12841165E-19 -4.59965098E-18
  2.63926885E-18  1.37747959E-18 -1.04364286E-18  1.34278786E-17 -1.95134873E-19
 -7.03515357E-19 -1.10989713E-03 -1.07615295E-14 -1.34598223E-09 -1.92239822E-03
  3.07418999E-08  3.34029061E-04  3.23987137E-15  4.05080048E-10  5.78555309E-04
 -9.25192776E-09 -4.29022363E-03 -4.15967311E-14 -5.20279279E-09 -7.43088526E-03
  1.18830494E-07 -2.18274124E-03 -2.11626014E-14 -2.64702987E-09 -3.78061868E-03
  6.04575055E-08 -2.73264765E-19 -2.03038296E-19  7.06740121E-18 -2.67506525E-19
 -2.57443872E-19 -2.96231648E-18  1.86828386E-20  8.71698385E-21  7.61939659E-19
 -4.31667349E-17 -5.46634169E-19  4.12216610E-19 -5.76686518E-19  1.22320999E-19
  2.35952826E-18 -4.29245797E-18  5.44408367E-17  3.71257490E-18 -5.92044291E-18
 -1.42383910E-18 -1.82544045E-19 -2.49442912E-05 -4.91174247E-16 -5.52290412E-11
 -3.71847539E-05  5.94637388E-10 -1.27521783E-15 -4.87073269E-11 -4.91908056E-05
  1.57326285E-09 -1.50961891E-04 -2.46988115E-15 -3.34243712E-10 -2.25040700E-04
  3.59872291E-09 -6.77439642E-15 -2.94775353E-10 -2.97700863E-04  9.52132609E-09
 -1.44342125E-19  1.39710185E-18 -1.88762898E-18  1.19591425E-17 -5.11989152E-18
 -3.58904913E-18 -1.33173379E-06 -1.66555918E-01  5.83077181E-08 -2.60202299E-06
 -3.25427145E-01  1.13925188E-07 -3.53288557E-06 -4.41847312E-01  1.54681437E-07
 -2.31049873E-06 -2.88967088E-01  1.01161289E-07 -1.90136092E-07 -2.37797460E-02
  8.32478750E-09 -2.63248502E-19  3.57398283E-17 -1.67790789E-17 -4.44692422E-19
 -1.46003777E-18 -6.08639903E-19 -8.66415982E-17  1.60678676E-17  7.20474766E-18
  3.68409681E-17 -2.37554178E-18  3.12337281E-16 -6.50422849E-17 -4.05125006E-18
 -5.78440171E-17 -9.31525639E-18  1.34021359E-16  4.85688326E-17  2.48002414E-18
  3.17176282E-17  2.17042024E-09 -2.02376269E-08 -2.53105878E-03  2.80200054E-09
 -4.48016600E-14 -7.83799918E-08 -3.26758283E-03  4.89919693E-09 -4.56815300E-08
 -5.71325079E-03  6.32483585E-09 -1.01155976E-13 -1.76923805E-07 -7.37577504E-03
  4.07520403E-09 -3.79983830E-08 -4.75234282E-03  5.26106611E-09 -8.41995097E-14
 -1.47167107E-07 -6.13524828E-03 -1.71380336E-19 -1.03878887E-16  3.25703067E-17
  8.25847450E-19  1.65739228E-17  1.60652723E-16  2.87222339E-17 -1.09204450E-19
 -1.03045007E-17  1.41781108E-18  1.48283861E-17 -3.92336573E-17  3.41106293E-18
 -4.98324837E-17 -7.51660282E-17 -1.91103552E-17  2.20539965E-19  9.95585126E-17
  1.10567723E-17  6.49038807E-17  9.23176810E-17 -3.19224392E-17  3.66514589E-16
 -5.10667356E-16  9.66380863E-02 -7.72690677E-07  8.82958792E-09  1.83335821E-01
 -1.46590112E-06  1.67509500E-08  3.00122364E-01 -2.39969314E-06  2.74214536E-08
  2.37740921E-01 -1.90090884E-06  2.17218125E-08  5.28021249E-01 -4.22190788E-06
  4.82440225E-08 -6.68383355E-19  3.31405044E-19  2.75402266E-19  3.34245852E-18
 -5.14520003E-18 -7.10474637E-18  1.81253815E-18 -3.19947709E-18 -1.32848621E-18
 -1.06315284E-18  5.21089293E-18 -4.66254987E-18 -2.22523542E-17 -2.76733077E-17
  3.09751250E-18  3.55198791E-17  2.57635750E-18 -1.80943596E-17 -1.17089582E-16
 -2.99955503E-18  1.17823525E-10  5.26458634E-04 -4.20941351E-09  1.52128179E-10
  1.16562626E-09  2.03896555E-03 -4.89089677E-08  2.19096459E-10  9.78966161E-04
 -7.82753494E-09  2.82887004E-10  2.16751813E-09  3.79151950E-03 -9.09477377E-08
  6.60414309E-10  2.95085960E-03 -2.35942336E-08  8.52695028E-10  6.53346600E-09
  1.14286306E-02 -2.74140250E-07 -1.08258347E-19  1.90600321E-16 -8.87371245E-18
  1.97244963E-19  4.86323643E-18 -2.54390516E-17 -1.58782700E-17  1.27372125E-18
  2.21846184E-18  1.77835430E-20 -1.26770125E-16  1.33898494E-18 -2.67951677E-19
  7.77707071E-19  2.68669942E-17  2.13421255E-17 -2.65675325E-18 -7.50202348E-18
 -4.54622851E-19  1.65816727E-18 -9.35436728E-19  8.57125080E-18  3.09393403E-18
 -3.53691279E-18 -8.82931744E-09  3.38310287E-08  9.66380865E-02 -1.67504368E-08
  6.41821424E-08  1.83335821E-01 -2.74206133E-08  1.05066736E-07  3.00122364E-01
 -2.17211472E-08  8.32282617E-08  2.37740924E-01 -4.82425447E-08  1.84849503E-07
  5.28021245E-01 -3.57392386E-19 -4.63870387E-17 -9.61250123E-17 -8.08870801E-20
  7.47212095E-19  3.42472959E-19 -9.52807056E-17  1.82420509E-16 -1.61290658E-19
 -1.96963739E-18 -3.40368699E-18  1.25128268E-16 -3.84837072E-16 -7.15489852E-19
  1.63581590E-18 -4.41895131E-18 -1.10163339E-16  6.67620101E-16  1.23162603E-18
 -3.25836558E-17  1.28955504E-03 -4.80850279E-11  2.02732323E-09  1.66480841E-03
 -2.66226700E-08 -1.86278220E-10  7.13803370E-10  2.39796754E-03 -8.94158253E-11
  3.76987039E-09  3.09576273E-03 -4.95056781E-08 -3.46390031E-10  1.32733939E-09
  7.22810050E-03 -2.69522070E-10  1.13633744E-08  9.33143783E-03 -1.49223053E-07
 -1.04411021E-09  4.00094790E-09 -2.00254074E-20  1.78011530E-17  6.47847777E-17
  2.77874776E-20  6.68924584E-18 -1.33001404E-17 -1.08158217E-16  3.50314913E-20
  7.32631093E-19  1.12757756E-19 -4.53366313E-17 -5.71031630E-17  5.88527717E-20
 -3.46617125E-18  2.59474051E-18  1.25527426E-16 -8.57701951E-20 -7.61104754E-18
 -2.67314333E-02 -1.17421832E-01 -1.74345270E-01  2.24984758E-01 -1.35882433E+00
  1.81403406E+00  2.42102999E-17  6.91881298E-18 -1.23433568E-17  2.32845172E-17
  3.35185423E-17 -3.00611905E-17  1.36247668E-16 -3.88544390E-17 -2.08920423E-17
 -1.12960137E-16  2.54027707E-16 -1.13451792E-16  3.37207259E-16 -4.98941577E-16
  1.75969159E-16 -2.43856432E-04 -2.36502448E-15 -2.95726938E-10 -4.22371798E-04
  6.75432991E-09 -3.12554974E-06 -3.00360642E-17 -3.79009802E-12 -5.41323913E-06
  8.65647396E-11 -5.31652615E-03 -5.15534128E-14 -6.44740000E-09 -9.20849465E-03
  1.47257016E-07  3.11273934E-02  3.01841288E-13  3.77484734E-08  5.39142314E-02
 -8.62165760E-07 -1.85540562E-19  3.24229750E-19  2.33851506E-18 -2.33706525E-19
  6.73143114E-21 -1.98075388E-18  2.18355554E-19  6.34394191E-19  2.35881689E-19
 -8.66804418E-18  2.30652014E-19 -1.02568653E-18 -4.57042328E-18  7.27564639E-19
 -7.42101648E-20 -2.47026511E-19  5.59814439E-17  9.95027330E-19 -1.99793224E-19
  9.59886566E-18 -9.88282025E-19 -3.27834937E-05 -5.67069883E-16 -7.25856883E-11
 -4.88707474E-05  7.81513207E-10 -1.63369088E-15 -6.40145885E-11 -6.46499237E-05
  2.06768964E-09  1.14300962E-04  2.15700329E-15  2.53073100E-10  1.70389816E-04
 -2.72477710E-09  5.34681985E-15  2.23189430E-10  2.25404547E-04 -7.20908281E-09
  9.14727656E-17  2.32566018E-16  5.53885406E-16 -7.13906104E-16  8.70862549E-16
 -7.97406791E-16  2.64734681E-07  3.31095666E-02 -1.15909598E-08  8.39601752E-07
  1.05006454E-01 -3.67605427E-08 -1.63210213E-07 -2.04122065E-02  7.14588742E-09
  4.23503086E-06  5.29662508E-01 -1.85423669E-07 -1.01394733E-05 -1.26811327E+00
  4.43939718E-07  2.61919670E-17 -6.13111031E-17 -3.64501615E-17 -4.89120926E-18
 -2.29985789E-16 -4.58902587E-16 -5.16927585E-17 -1.11463176E-16  2.24722652E-16
  2.22010371E-16  3.42569301E-16 -2.11230327E-16  7.45750077E-16 -2.17664287E-16
 -1.67453029E-16 -4.68244882E-17  2.52684978E-16 -5.81667652E-16  2.61204361E-16
  1.43533489E-16 -3.12947183E-10  2.91801073E-09  3.64946785E-04 -4.04013136E-10
  6.44420056E-15  1.13014068E-08  4.71144263E-04 -2.23151959E-09  2.08073340E-08
  2.60231033E-03 -2.88087941E-09  4.57619282E-14  8.05864596E-08  3.35956825E-03
  3.37979567E-09 -3.15141896E-08 -3.94138439E-03  4.36329748E-09 -6.97548910E-14
 -1.22053936E-07 -5.08830551E-03 -3.91199962E-18  1.23605291E-16  2.25641314E-16
 -3.66831041E-18  1.57506030E-16  5.04016430E-17  9.88062483E-17  3.98526048E-18
  3.42262480E-17  6.66995699E-18 -1.51559407E-16 -1.78799151E-17  7.52651971E-18
 -8.32199468E-17 -2.08906095E-16 -6.90522867E-17 -9.64680526E-19 -3.84955500E-17
 -6.29693924E-16 -1.42930292E-15 -3.74959238E-15  4.96574479E-15 -2.95083081E-15
  1.04863888E-15  7.99908517E-02 -6.39584128E-07 -2.11201032E-08  2.02839189E-01
 -1.62184454E-06 -5.35559324E-08  1.12587918E-01 -9.00221012E-07 -2.97267543E-08
  8.07327312E-01 -6.45515985E-06 -2.13159829E-07 -1.18807091E+00  9.49947744E-06
  3.13688126E-07 -1.69233965E-16 -2.19778392E-17  2.19456845E-17  7.10980273E-17
  1.66594080E-15  3.50122135E-15  1.25531367E-16 -4.73252063E-17 -1.63312070E-15
 -1.41566050E-15 -2.45447059E-15 -6.19453917E-16  3.25618830E-16  1.14510160E-15
  6.20805136E-16 -7.01828532E-17  1.96548482E-15 -9.08309349E-16 -8.86538759E-17
 -1.76409071E-16 -2.45600044E-10  3.79749277E-04 -3.03636771E-09 -3.17054796E-10
  8.40805445E-10  1.47076261E-03 -3.52794000E-08 -9.28013928E-10  1.43490509E-03
 -1.14730945E-08 -1.19801003E-09  3.17703337E-09  5.55736361E-03 -1.33305302E-07
 -3.25356647E-10  5.03069788E-04 -4.02240411E-09 -4.20015635E-10  1.11385018E-09
  1.94838077E-03 -4.67360976E-08  2.76811249E-17 -2.30797730E-17  4.39159683E-17
  2.38757210E-17 -1.20242032E-15 -1.05040669E-16  3.29155450E-17 -1.64207876E-17
 -2.61939359E-16 -5.04367783E-17  2.90927050E-17 -2.54854022E-17 -5.41119576E-17
  5.81551537E-16  7.16272219E-17 -3.16841034E-17  6.10759798E-18  1.26469833E-16
 -1.16193029E-16 -2.76097388E-16 -6.98981954E-16  8.94160118E-16 -6.63914039E-16
  4.00908965E-16  2.11203273E-08  2.80029424E-08  7.99908514E-02  5.35565005E-08
  7.10092962E-08  2.02839189E-01  2.97270701E-08  3.94144211E-08  1.12587918E-01
  2.13162088E-07  2.82626568E-07  8.07327310E-01 -3.13691451E-07 -4.15916061E-07
 -1.18807091E+00 -3.08681477E-17  4.36356311E-18 -8.91105159E-18  1.27042685E-17
  2.94590952E-16  6.27992848E-16  8.06899468E-17 -9.16755896E-17 -2.94545336E-16
 -2.26539397E-16 -4.47924417E-16  6.06871549E-17 -2.77537651E-16  2.06066326E-16
 -9.75045430E-17 -2.15956549E-18 -2.94413233E-16  6.60174521E-16 -1.03839771E-17
  6.12748210E-16  9.30191950E-04  1.00277404E-10  1.46236361E-09  1.20087264E-03
 -1.92036726E-08  3.88339986E-10  5.14873680E-10  3.51478533E-03  3.78904293E-10
  5.52562757E-09  4.53756838E-03 -7.25622142E-08  1.46736580E-09  1.94548068E-09
  1.23226420E-03  1.32841665E-10  1.93725427E-09  1.59084619E-03 -2.54399083E-08
  5.14450110E-10  6.82074626E-10  5.20665846E-18  3.36916206E-19  3.62714305E-17
  5.06298297E-18 -2.12304387E-16 -1.25669113E-17 -2.10931388E-17 -3.05865413E-18
 -4.52747344E-17 -9.36040520E-18 -1.49800088E-17 -1.33433567E-16 -1.10909433E-17
  1.17078200E-16 -1.12655510E-16  6.65806031E-17  1.13346164E-18  3.25018127E-17
 -1.08815454E-18  2.64498737E-19 -7.59470964E-18  3.50221244E-17 -4.98731757E-17
  3.46789883E-17 -9.69988876E-18  5.08356321E-16  7.01395725E-17  2.25355848E-16
 -4.04533247E-16 -9.30836533E-17 -1.05325722E-15  3.30063708E-15  1.43057547E-16
  2.96582249E-15 -4.76479725E-15 -5.92046057E-16 -2.51154255E-15  1.28275357E-15
  1.93994798E-16  1.79714787E-13  9.26688668E-03 -7.40953935E-08 -5.18800909E-14
  3.24414192E-09 -1.30898573E-12 -6.74971073E-02  5.39687696E-07  3.77879067E-13
 -2.36293164E-08  3.77078740E-12  1.94437929E-01 -1.55467045E-06 -1.08855724E-12
  6.80686259E-08 -2.13160972E-11 -1.09914893E+00  8.78848265E-06  6.15356237E-12
 -3.84788901E-07 -1.50302866E-16  1.00661388E-17  4.62647829E-17 -1.35002933E-16
 -8.15954175E-17 -1.73823047E-17 -3.67295872E-17  1.78479443E-16  6.51039457E-17
 -1.99825615E-16  5.92162651E-17  9.83939932E-17  2.43029061E-16  1.59536555E-16
 -2.87713366E-16  2.57123560E-16  3.75074078E-16  1.61810750E-16 -1.97848707E-16
  2.98393956E-16 -4.35907561E-16  8.63896261E-15  2.43972631E-04 -1.95073580E-09
  1.73814920E-14  6.03937652E-10  6.45490926E-04 -1.54834862E-08 -1.19049449E-19
  3.19573799E-10 -5.09309702E-14 -1.43844808E-03  1.15014223E-08 -1.02486002E-13
 -3.56078037E-09 -3.80577596E-03  9.12897100E-08  9.88172536E-19 -1.88418795E-09
 -7.80127459E-11 -3.33286999E-10 -4.99938259E-10  6.09145532E-10 -3.52976037E-09
  4.63675399E-09 -4.69982706E-16 -1.50738159E-15 -4.96133081E-16 -2.58149149E-16
 -4.02725566E-16 -3.62921252E-16 -3.69351046E-15 -1.26425843E-14 -3.67237198E-15
  6.61723539E-15  2.23125432E-14  6.00699701E-15 -3.43658096E-15 -9.24773956E-15
 -2.56578915E-15 -8.02535922E-03  1.81578337E-13 -3.24414181E-09  4.63344344E-03
 -7.40953951E-08  5.84542092E-02 -1.32256282E-12  2.36293154E-08 -3.37485544E-02
  5.39687709E-07 -1.68388185E-01  3.80987116E-12 -6.80686229E-08  9.72189665E-02
 -1.55467048E-06  9.51890894E-01 -2.15370572E-11  3.84788888E-07 -5.49574478E-01
  8.78848283E-06  2.15708821E-17 -3.40840012E-17  1.57395853E-17  3.58367501E-17
 -1.46250625E-17 -2.22929891E-17 -1.73218263E-17 -2.98472608E-16 -2.61186003E-17
 -4.25295060E-16 -3.91856194E-16  1.82092310E-16  4.58910096E-16 -2.13227602E-16
  3.84030958E-16  6.62580548E-16 -2.84918863E-16  6.53214420E-16 -1.69228058E-16
 -4.71816925E-17  1.01989210E-15 -3.85754600E-04  1.58705440E-16 -6.83277367E-10
 -3.45029409E-04  5.51751434E-09  1.47982871E-14 -7.85215641E-19  4.56431019E-04
 -1.45979710E-08  2.27438611E-03 -7.92036830E-17  4.02856297E-09  2.03427279E-03
 -3.25309347E-08 -8.55355039E-14 -9.02745229E-17 -2.69109004E-03  8.60687657E-08
  3.88662040E-16  2.02420083E-16  1.58692757E-15 -8.56088326E-15  1.16910272E-14
 -3.49575416E-15  1.27881942E-16  2.39536796E-18 -1.69773067E-16 -2.14693705E-16
 -7.22059002E-17  9.10120013E-17  4.41749708E-17 -9.92131015E-16 -8.80330747E-16
  8.44829542E-17  1.56460014E-15  3.51577798E-17 -2.41664260E-17 -7.57548204E-16
  1.25870828E-15 -1.63102780E-15  3.21191191E-09  2.64465085E-09 -1.46717571E-07
 -9.17476131E-03  1.28907329E-14 -2.50917085E-08 -2.06602205E-08  1.14616922E-06
  7.16739578E-02 -3.50177584E-14  6.87382674E-08  5.65982882E-08 -3.13990919E-06
 -1.96349470E-01  1.92519836E-13 -3.84928836E-07 -3.16945915E-07  1.75832418E-05
  1.09954142E+00  6.07270313E-17 -1.11403770E-16  1.38146657E-16 -2.24201956E-18
  5.77128756E-17  1.18459889E-16 -1.71933011E-16 -2.29921451E-16  1.19638203E-16
 -1.55205734E-16  3.64251100E-17 -1.34209140E-16 -5.13278310E-17  2.03642457E-16
  3.57762014E-16 -1.44732036E-16  2.36899596E-16 -2.80986076E-16  3.03784449E-16
 -1.24511118E-17  7.62450061E-17 -2.33476845E-16  2.43343768E-10  2.00366418E-10
 -5.24001433E-09 -3.27676352E-04  6.43826796E-10  1.76692847E-10 -2.77275486E-08
 -8.66950150E-04  1.48129877E-15 -1.52256383E-09 -1.25366129E-09  3.27859497E-08
  2.05021966E-03 -4.02832502E-09 -1.10553943E-09  1.73486931E-07  5.42437139E-03
 -2.02407464E-17  6.97544968E-17 -5.59632855E-17  4.61196547E-16  1.01973220E-15
 -2.24611579E-15 -7.54112164E-16  4.70870409E-16 -7.49721872E-16 -4.29889692E-16
  6.49659418E-16 -9.29511832E-16 -5.80599990E-15  3.86085931E-15 -5.11193932E-15
  1.00304854E-14 -7.30854538E-15  7.56572677E-15 -4.76696053E-15  2.59808101E-15
 -2.87994059E-15  5.56315786E-09 -7.33587843E-08 -9.17476130E-03  3.21184836E-09
 -2.64472778E-09 -4.34598271E-08  5.73084598E-07  7.16739577E-02 -2.50912123E-08
  2.06608223E-08  1.19057386E-07 -1.56995456E-06 -1.96349469E-01  6.87369073E-08
 -5.65999373E-08 -6.66711896E-07  8.79162074E-06  1.09954142E+00 -3.84921217E-07
  3.16955149E-07 -1.47345639E-17 -4.90877282E-17  7.36290048E-18 -1.39166126E-17
 -4.83738386E-17  1.99749411E-17  4.80856204E-17  1.52690986E-17  1.93706902E-17
  4.05536859E-17 -3.82171348E-16  3.44897430E-16 -5.37960309E-17 -4.15136066E-16
  2.55642841E-16 -1.23224725E-16 -9.78970879E-16  1.38613977E-16 -3.67777387E-16
  3.75935207E-16  4.18872911E-16  7.69515444E-10 -5.55787406E-09 -6.95106515E-04
  9.17699207E-10 -9.44692889E-11 -1.47047530E-08 -6.13026331E-04  3.03492994E-10
 -2.49912986E-10 -4.81473770E-09  3.47747486E-08  4.34917269E-03 -5.74190032E-09
  5.91079199E-10  9.20053379E-08  3.83560980E-03 -1.89890814E-09  1.56366632E-09
  4.56902865E-03  9.47208862E-03  2.29796446E-02 -7.37163839E-02  1.67258015E-01
 -1.38466157E-01  8.32413116E-16  2.34818263E-15  7.97699032E-16  6.76179088E-16
  6.18701942E-16  6.25068518E-16  5.86613381E-15  1.97211131E-14  5.76609903E-15
 -9.01099351E-15 -3.49457780E-14 -9.14749709E-15  3.47240496E-15  1.46495697E-14
  3.68236991E-15 -4.58504870E-03 -4.44589154E-14 -5.56032977E-09 -7.94153711E-03
  1.26996550E-07  3.62941781E-02  3.51933032E-13  4.40142760E-08  6.28633589E-02
 -1.00527512E-06 -9.86657081E-02 -9.56703357E-13 -1.19652791E-07 -1.70894015E-01
  2.73284000E-06  5.49011225E-01  5.32349327E-12  6.65790847E-07  9.50915312E-01
 -1.52064974E-05 -2.92829658E-17  4.43070972E-17 -2.57360527E-17 -6.09672056E-17
  1.97288971E-17  3.51719774E-17  2.66197311E-17  4.45409815E-16  5.08454691E-17
  6.49334298E-16  6.44316845E-16 -2.74270296E-16 -6.96793302E-16  3.36556622E-16
 -5.59958772E-16 -1.17943740E-15  4.51160488E-16 -1.14960109E-15  2.79327802E-16
  4.57255577E-17 -1.60577706E-15 -3.75445241E-04 -6.92085541E-15 -8.31270854E-10
 -5.59680719E-04  8.95009602E-09 -1.81697077E-14 -7.33111991E-10 -7.40387993E-04
  2.36797281E-08  2.37764217E-03  4.22633230E-14  5.26432219E-09  3.54437967E-03
 -5.66797057E-08  1.11820477E-13  4.64269603E-09  4.68877354E-03 -1.49960405E-07
 -8.33158870E-16 -1.59746582E-15 -4.71463349E-15  9.43806876E-15 -1.00780919E-14
  5.08368487E-15  1.10779727E-06  1.38548854E-01 -4.85030349E-08  6.72673023E-07
  8.41291807E-02 -2.94518531E-08  8.07499108E-06  1.00991471E+00 -3.53549866E-07
 -1.50101163E-05 -1.87726985E+00  6.57192625E-07  6.23843467E-06  7.80222157E-01
 -2.73139340E-07  3.87688259E-16 -3.64489357E-17  3.18369925E-16  9.79299992E-16
  1.78658425E-15  3.11289123E-15  8.84435297E-17 -1.16988770E-15 -3.43930738E-15
 -1.84685634E-15  8.83863974E-16 -8.79101199E-17  2.73862214E-15 -1.39128868E-15
  2.31391339E-15  1.19350596E-16  3.19541245E-15 -4.95828328E-15 -2.04229281E-14
  4.58830971E-16 -8.45807707E-10  7.88654903E-09  9.86346818E-04 -1.09193148E-09
  1.65110663E-14  3.05444720E-08  1.27336825E-03 -8.14014945E-09  7.59011039E-08
  9.49272155E-03 -1.05088865E-08  1.75450186E-13  2.93963716E-07  1.22550509E-02
  2.77422196E-08 -2.58676436E-07 -3.23518795E-02  3.58150406E-08 -5.93186212E-13
 -1.00184954E-06 -4.17660973E-02 -1.98840207E-17  3.93501841E-18  6.17996575E-18
  2.74939935E-17 -1.16501342E-15 -3.21552427E-17 -6.42096672E-17  2.69836679E-16
 -2.23257831E-16 -2.78663978E-17  2.74972335E-17  2.99268743E-18 -1.08097581E-16
  6.58800326E-16  3.89560306E-17  1.92996411E-17 -3.53717977E-16  1.43402659E-16
 -1.89627823E-16 -5.09772506E-16 -1.18206948E-15  1.06948390E-15 -4.93088437E-16
  4.07778475E-16  1.55082596E-01 -1.23999637E-06  7.57597904E-09  1.15880311E-01
 -9.26546042E-07  5.66089758E-09  1.13454053E+00 -9.07146367E-06  5.54237267E-08
 -1.80019420E+00  1.43938412E-05 -8.79417420E-08  7.29205369E-01 -5.83051892E-06
  3.56225958E-08  1.21662753E-16  3.61272215E-17 -2.77620297E-17  3.03605761E-16
  4.87362838E-16  9.00774564E-16 -1.18684423E-15  2.38201441E-16 -1.02072293E-15
 -4.02537659E-16  3.80808710E-16  4.41228716E-16 -8.37862793E-16 -5.08679573E-16
  2.59194479E-16 -1.05632560E-17 -9.40463112E-16  5.40766772E-15 -5.76624688E-15
 -9.89323995E-18  4.85177639E-11  4.05461961E-04 -3.24195864E-09  6.26506935E-11
  8.97729552E-10  1.57034736E-03 -3.76681539E-08  4.43855737E-10  3.70929241E-03
 -2.96584471E-08  5.73147333E-10  8.21271352E-09  1.43660281E-02 -3.44600037E-07
 -1.26458302E-09 -1.05680953E-02  8.44994842E-08 -1.63294692E-09 -2.33987318E-08
 -4.09300585E-02  9.81795357E-07 -1.74945511E-18 -7.00064284E-18 -5.52592044E-17
  2.23000867E-17 -3.12752439E-16 -1.55617671E-17 -5.90048935E-17  8.45900399E-17
 -5.62641323E-17 -1.68966811E-17  8.70752480E-18  4.66288339E-16 -7.13903224E-17
  1.20530981E-16  1.11983533E-17  1.29660725E-16 -1.08454795E-16  1.09898870E-17
 -2.49767289E-16 -4.46636675E-16 -1.39124917E-15  3.04716128E-15 -3.34731983E-15
  1.63454442E-15 -7.57554475E-09  5.42912105E-08  1.55082596E-01 -5.66057378E-09
  4.05673026E-08  1.15880311E-01 -5.54205492E-08  3.97179179E-07  1.13454053E+00
  8.79367005E-08 -6.30210767E-07 -1.80019420E+00 -3.56205536E-08  2.55279724E-07
  7.29205370E-01  1.25778307E-16  8.79507916E-17  5.85087541E-17  2.93249750E-16
  4.85083934E-16  9.10857268E-16  5.65046816E-16  5.69295862E-16 -9.92776405E-16
 -3.64354606E-16  3.76225319E-16 -2.65686103E-16 -1.97515280E-15 -6.77128788E-16
  2.58825723E-16 -3.90049253E-17  2.39481544E-16  4.85101049E-15 -5.62937547E-15
  5.68926757E-16  9.93174894E-04 -1.97948153E-11  1.56138065E-09  1.28218325E-03
 -2.05039464E-08 -7.67002432E-11  5.49747381E-10  9.08587382E-03 -1.81089530E-10
  1.42839986E-08  1.17298128E-02 -1.87576499E-07 -7.01677649E-10  5.02925986E-09
 -2.58864415E-02  5.15939606E-10 -4.06963477E-08 -3.34192529E-02  5.34421696E-07
  1.99914162E-09 -1.43287977E-08 -5.85903441E-18  2.13823709E-17  1.22151298E-16
  1.03943483E-17 -3.08452841E-16  7.75366186E-17  4.83734826E-17  8.39005083E-17
 -1.01036036E-16 -9.21431291E-18 -9.46985178E-17 -3.67695991E-16 -2.02843857E-17
 -1.15228095E-16 -1.48297815E-16  4.73862688E-17 -1.09079040E-16 -7.94514231E-17
 -8.22659487E-02  9.35872945E-02 -2.75958898E-01  2.65255639E+00 -3.72772865E+00
  1.54597845E+00  5.39157123E-17 -1.68976712E-16 -7.07579945E-17  3.89284477E-17
 -1.30563236E-16 -5.12451521E-17  3.53276131E-16 -1.14140127E-15 -5.26916384E-16
 -5.01901173E-16  2.16838569E-15  8.61912659E-16  1.25484846E-16 -8.85953404E-16
 -3.69110516E-16 -1.67096976E-03 -1.62033454E-14 -2.02640012E-09 -2.89420459E-03
  4.62824754E-08  1.30931937E-02  1.26967635E-13  1.58782340E-08  2.26780770E-02
 -3.62654921E-07 -4.15216217E-02 -4.02626989E-13 -5.03536451E-08 -7.19175595E-02
  1.15006475E-06  3.11769857E-02  3.02321666E-13  3.78086112E-08  5.40001233E-02
 -8.63539286E-07 -1.28094381E-18  1.83307824E-18 -4.82124913E-18 -1.92818930E-18
  1.12083179E-18 -4.31844301E-19 -1.98867971E-18  5.93044356E-18  9.51152473E-18
  2.35375036E-17  7.33137330E-18 -8.41863404E-18 -1.20169973E-16 -8.13960158E-18
  7.24406652E-18 -4.08431473E-17  1.85938417E-17 -8.61347654E-18  8.34377402E-18
  4.08466373E-16  1.26858331E-17  7.17655107E-05  1.24697022E-15  1.58895454E-10
  1.06981707E-04 -1.71079045E-09  3.48306148E-15  1.40132757E-10  1.41523497E-04
 -4.52632664E-09 -3.71200591E-04 -6.27505534E-15 -8.21872682E-10 -5.53353172E-04
  8.84890924E-09 -1.74626049E-14 -7.24823912E-10 -7.32017451E-04  2.34120141E-08
 -2.40285360E-16 -5.90420908E-16 -1.49890879E-15  1.70643086E-15 -7.20296920E-16
  1.49856587E-16  4.32791571E-11 -3.40648568E-16 -1.11666285E-11  4.35638324E-11
 -5.16475563E-16 -1.12430466E-11  2.97345984E-10 -2.99538637E-15 -7.67144842E-11
 -5.83930655E-10  5.96486073E-15  1.50656317E-10  1.45237821E-10 -1.94452556E-15
 -3.74748673E-11  2.32235853E-16 -3.24463748E-16  4.89617033E-16  5.05714606E-18
 -7.75737472E-17  1.47361739E-16  7.68089383E-16 -1.15297487E-15 -1.16571096E-16
  8.77642469E-16  3.47102007E-15 -8.06015755E-15  1.00288479E-14 -2.05032422E-15
 -5.57654635E-15 -2.03041790E-15  3.48760302E-15 -4.93959773E-15  1.86022124E-16
  2.33101912E-15  8.05870943E-03 -3.82581129E-02  3.09356233E-07 -6.24224950E-03
  8.28810948E-08  9.87820233E-03 -2.39626308E-07 -4.26486575E-02  2.02471273E-01
 -1.63718870E-06  3.30355081E-02 -4.38626987E-07 -5.22778581E-02  1.26816092E-06
  2.20183001E-01 -1.04530213E+00  8.45234393E-06 -1.70553020E-01  2.26450754E-06
  2.69895851E-01 -6.54715748E-06 -4.41662288E-17 -6.46762444E-17 -1.69109568E-16
 -2.35182749E-17 -5.19664744E-17 -2.22755355E-16  2.77775296E-19  4.67494093E-17
 -1.01465115E-16  1.04108823E-16 -2.32102935E-16  3.03934263E-16  2.59071155E-16
  8.95106411E-17  2.28835728E-16  2.26806691E-16 -7.45750886E-17  2.77939167E-17
  4.42265723E-17  1.13830317E-16  2.66123789E-16 -2.47511030E-16  8.47666131E-17
 -5.08603558E-17  1.11655422E-11  8.56177559E-16  4.32845549E-11  1.12391999E-11
  2.45551154E-15  4.35810643E-11  7.67117636E-11  2.62149580E-15  2.97364579E-10
 -1.50646295E-10 -8.41055338E-15 -5.83983052E-10  3.74703702E-11  3.59098239E-15
  1.45262092E-10  5.13218320E-18 -8.68083292E-17 -6.41460233E-16  2.81212705E-17
 -1.47960668E-16  1.54398938E-16 -2.77973530E-16  1.77023715E-15 -1.31876571E-16
 -4.33227633E-16 -4.04789743E-17  3.52809723E-16 -1.43504926E-14  3.20882453E-16
  1.62172666E-15  1.47617446E-16  9.62788044E-16  7.02896841E-15 -3.20337872E-16
  9.50659797E-17 -3.12376184E-02 -9.86986305E-03  6.55232600E-08  2.41965552E-02
 -3.91308121E-07  2.54838770E-03 -5.07541002E-08  1.65317102E-01  5.22337246E-02
 -3.46765087E-07 -1.28054077E-01  2.07089810E-06 -1.34866898E-02  2.68603088E-07
 -8.53485614E-01 -2.69668002E-01  1.79025043E-06  6.61107115E-01 -1.06914634E-05
  6.96279790E-02 -1.38672206E-06 -9.72061973E-18  1.32106540E-16  1.92444747E-17
 -1.52558581E-17  9.04185190E-17  2.99788344E-16  1.75659242E-16  1.70371359E-19
  3.75422241E-17  2.71870132E-17 -2.93344394E-16 -4.98792499E-16  3.10128836E-17
 -3.79525969E-17 -1.32384493E-16 -5.61562809E-16 -5.80218979E-20 -3.93042521E-16
 -6.17828947E-17 -2.26736524E-16 -4.48511391E-16  1.91852626E-17  4.33898635E-16
 -2.26024893E-16 -1.77095654E-16 -5.35346044E-11  4.52646778E-16  8.48049936E-16
  8.84062804E-12 -8.57908603E-16 -3.15113955E-15 -4.61074566E-10  4.56972303E-15
  5.08735329E-15  9.05827169E-10 -7.69457994E-15 -1.45309868E-15 -2.63304653E-10
  3.18273856E-15  9.28695128E-16  6.60163300E-16  5.17163665E-16 -4.26889101E-16
  5.77644783E-16 -1.69021450E-15 -1.80404693E-15 -9.71476477E-16  9.37059730E-16
 -9.71495833E-16  2.00550639E-14  1.71704348E-14  7.37250055E-15 -1.64111052E-14
  6.37885549E-15 -1.03457888E-14 -8.47249263E-15 -2.68222164E-15  6.77443390E-15
 -3.34360226E-15 -2.81341168E-08  2.59985117E-07  3.28089015E-02  6.04989849E-08
  4.23746798E-03 -6.11418207E-07 -2.54136661E-02  1.48224167E-07 -1.36972765E-06
 -1.72853200E-01 -3.18737984E-07 -2.23250358E-02  3.22124755E-06  1.33891515E-01
 -7.53150666E-07  6.95980495E-06  8.78294718E-01  1.61955861E-06  1.13437073E-01
 -1.63676733E-05 -6.80324171E-01 -7.53487623E-18  1.84762485E-17 -9.52323850E-17
  4.11686919E-18 -1.10532243E-16  3.91363328E-17  1.32830583E-18  6.28451490E-17
  2.04525186E-16  1.14671765E-16  2.43730416E-16  1.21958417E-16  4.92573234E-17
  1.08045706E-16 -2.87592123E-16  5.56329520E-17 -2.96471132E-16  3.70152144E-16
 -3.98094265E-19 -4.96352147E-18 -4.17257475E-18 -1.65807938E-17  1.97588359E-17
 -1.25049975E-17 -9.97912053E-16 -5.46866877E-12 -1.05115340E-15 -1.52090717E-15
  8.97085135E-13  4.40364574E-16 -5.52107211E-15 -4.70857729E-11 -9.45828642E-15
  1.07529460E-14  9.25107067E-11  1.21185265E-14 -4.33748331E-15 -2.68944561E-11
 -4.20286559E-15  6.31512459E-18  2.28017235E-17 -1.06866492E-15  5.70465621E-18
  4.11835791E-16 -7.47716894E-18 -8.37207942E-16  3.08525683E-15 -4.49865218E-17
 -1.01313150E-15  2.02919652E-16 -2.46318747E-15 -2.81556327E-14 -2.02274145E-16
  8.71426068E-15 -6.88308180E-17  1.43425845E-15  1.35196056E-14  6.44591384E-17
 -3.94183826E-15 -2.87268684E-09  4.97571621E-08  3.35001257E-03 -6.64391623E-07
 -4.15003427E-02 -4.44508799E-08 -2.59490861E-03  1.51347086E-08 -2.62144854E-07
 -1.76494904E-02  3.50033719E-06  2.18643926E-01  2.34188785E-07  1.36712367E-02
 -7.69018712E-08  1.33199987E-06  8.96798798E-02 -1.77857724E-05 -1.11096471E+00
 -1.18995063E-06 -6.94657370E-02  8.25579415E-19 -4.58837074E-16  1.71763521E-16
  6.75094451E-18 -5.22686308E-17 -8.47360969E-16 -2.25331057E-17 -1.76362996E-18
 -4.41442271E-17 -2.24007756E-18  2.50164318E-16 -5.87932494E-16 -3.16209967E-17
 -2.15258491E-16  7.86327762E-17  5.38836697E-17  5.93242005E-19  1.36613826E-16
 -3.97937659E-16 -7.40853151E-16 -2.11054713E-15  3.99677916E-15 -3.75612933E-15
  1.64286013E-15 -3.64395490E-03  2.91360267E-08 -5.67114759E-09  7.49262674E-03
 -5.99089120E-08  1.16608996E-08 -4.55652689E-02  3.64326927E-07 -7.09139843E-08
  7.55066041E-02 -6.03729325E-07  1.17512181E-07 -2.55866362E-02  2.04583464E-07
 -3.98209059E-08  6.53765042E-16  1.93449133E-14  2.34438005E-17 -2.82696588E-16
 -1.57673113E-16 -1.99733818E-15 -4.62338382E-14 -3.56465995E-17  8.84912827E-16
  6.31041174E-16  1.53317817E-14  4.54296212E-13  7.03553311E-16 -8.23234705E-15
 -4.39661162E-15 -7.69623759E-15 -2.30714478E-13 -2.37684558E-16  3.76250003E-15
  2.11269636E-15 -4.02715276E-08 -1.05639058E-02  8.44659303E-08 -5.19906917E-08
 -2.33886425E-08 -4.09138311E-02  9.81406092E-07  2.11396821E-07  5.54529776E-02
 -4.43385942E-07  2.72914082E-07  1.22773709E-07  2.14768457E-01 -5.15168261E-06
 -1.06452768E-06 -2.79243696E-01  2.23275169E-06 -1.37430920E-06 -6.18249657E-07
 -1.08150618E+00  2.59422479E-05  1.78429002E-16 -3.15423109E-16  1.75373740E-16
  1.13805224E-16  4.88845848E-17 -2.10848471E-16 -1.07472778E-16  1.25425296E-17
  1.93344123E-17 -2.65696635E-16  2.63377262E-15  1.82715298E-16 -8.36128575E-17
 -4.00970259E-16  5.37110618E-15  2.27839632E-16 -1.09861227E-16 -1.73772980E-16
  1.70468847E-16  3.68174120E-16  1.00709178E-15 -1.46998870E-15  8.88860395E-16
 -1.82894021E-16  5.67113744E-09 -1.27571604E-09 -3.64395489E-03 -1.16608782E-08
  2.62310016E-09  7.49262676E-03  7.09138579E-08 -1.59519894E-08 -4.55652689E-02
 -1.17511972E-07  2.64341819E-08  7.55066039E-02  3.98208361E-08 -8.95765227E-09
 -2.55866362E-02  1.15058649E-15 -4.41933490E-15 -9.72436186E-17 -5.03649022E-16
  9.38785252E-16 -2.60560027E-15  1.04907790E-14  7.92404436E-16  1.17220287E-15
 -2.24306551E-15  2.56722271E-14 -1.00099329E-13 -1.20848267E-15 -1.41347926E-14
  1.99219156E-14 -1.31288431E-14  5.09349614E-14  1.11162866E-16  6.66659203E-15
 -1.03534928E-14 -2.58761789E-02  1.64404569E-08 -4.06803314E-08 -3.34060032E-02
  5.34209859E-07  6.36745319E-08 -1.43245890E-08  1.35831499E-01 -8.63006826E-08
  2.13542751E-07  1.75357711E-01 -2.80422107E-06 -3.34245916E-07  7.51938836E-08
 -6.84004567E-01  4.34583004E-07 -1.07533391E-06 -8.83046097E-01  1.41211724E-05
  1.68315696E-06 -3.78652675E-07 -7.18767535E-18 -1.09521138E-16 -2.04756483E-16
  3.21612083E-18 -4.89216183E-16 -9.28792675E-17 -5.57071727E-17  4.00518565E-17
 -8.40459433E-17  1.67286855E-16  1.27798703E-16 -7.02235353E-17  1.34243829E-17
  4.42102878E-16 -8.27704344E-16  1.63155966E-16 -2.51450993E-16  1.34107446E-16
 -2.47484659E-17 -2.29042313E-17  1.74880205E-18 -9.30226733E-18  3.98203450E-17
 -2.71431501E-17 -1.35559840E-15  1.29753180E-15  3.17735924E-16  2.10217550E-15
 -9.40529518E-16 -4.94300841E-16 -1.57556825E-14  1.30970972E-14  3.38291306E-15
  2.63686921E-14 -2.53419393E-14 -5.91549638E-15 -8.81422864E-15  8.67339494E-15
  2.36881305E-15 -1.11687095E-12 -5.75909455E-02  4.60480838E-07  3.22411722E-13
 -2.01613783E-08  2.69080757E-12  1.38750431E-01 -1.10940903E-06 -7.76767444E-13
  4.85736066E-08 -2.61324347E-11 -1.34750782E+00  1.07742897E-05  7.54369161E-12
 -4.71734135E-07  1.32336516E-11  6.82387700E-01 -5.45617817E-06 -3.82015288E-12
  2.38889575E-07  1.96945480E-15 -3.34618857E-15  7.68906037E-15  2.20292065E-15
  5.85414511E-16 -1.38423230E-14  9.25126592E-15 -1.11191101E-14  1.73872561E-14
 -4.01680567E-14 -1.21167190E-14 -1.42659822E-15  7.26542850E-14 -4.83873455E-14
  4.95549858E-14 -8.75474418E-14  2.04325407E-13  6.66024803E-14  4.63510927E-15
 -3.66401840E-13  2.40913901E-13  9.31107651E-15  2.62915203E-04 -2.10219530E-09
  1.87477969E-14  6.50828699E-10  6.95608269E-04 -1.66856581E-08 -1.00880852E-17
  3.44386157E-10 -2.07577663E-13 -5.86264358E-03  4.68760326E-08 -4.17761239E-13
 -1.45125751E-08 -1.55110971E-02  3.72066975E-07  2.43889697E-18 -7.67933329E-09
 -6.32371465E-11  4.14725662E-12 -2.52107044E-10  1.62360664E-09 -2.39147670E-09
  1.19797106E-09  1.55584002E-16  8.57974185E-16  1.79804425E-16  1.02800825E-16
  1.04755943E-15  3.39750957E-16  1.54710221E-15  4.50960209E-15  9.46125995E-16
 -2.12981177E-15 -9.72755930E-15 -1.39741340E-15  9.57982720E-16  4.04798651E-15
  6.67392351E-16 -4.98752218E-02  1.12844317E-12 -2.01613768E-08  2.87954729E-02
 -4.60480841E-07  1.20161398E-01 -2.71869387E-12  4.85736030E-08 -6.93752160E-02
  1.10940904E-06 -1.16697600E+00  2.64032065E-11 -4.71734100E-07  6.73753913E-01
 -1.07742897E-05  5.90965082E-01 -1.33707765E-11  2.38889558E-07 -3.41193851E-01
  5.45617820E-06 -5.23991983E-16 -3.04294728E-16  8.79817271E-16 -7.37425762E-16
  6.11964011E-17 -4.93616728E-16 -2.61715041E-16  2.63684372E-15  1.25183334E-15
 -4.72635660E-15  3.77895871E-15 -2.35979684E-16  3.07837900E-15  1.42437514E-15
 -1.40769902E-14 -6.78590039E-15  2.18450890E-14 -1.96292555E-14  1.85590536E-15
 -1.30962437E-14 -7.15576419E-15  4.15705441E-04 -2.26240825E-16  7.36328941E-10
  3.71818262E-04 -5.94590605E-09 -1.52172165E-14 -1.80313332E-16 -4.91869326E-04
  1.57313896E-08 -9.26965341E-03  5.30780562E-16 -1.64191046E-08 -8.29103010E-03
  1.32585442E-07  3.46960176E-13  2.40878431E-16  1.09680020E-02 -3.50788110E-07
 -2.95974877E-17 -3.21632697E-17 -1.27347161E-16  4.15276990E-16 -4.59436122E-16
  1.57863138E-16  3.40249692E-08  4.25539991E-03 -1.48972498E-09 -7.45832048E-08
 -9.32789565E-03  3.26549486E-09  4.24476720E-07  5.30880185E-02 -1.85849821E-08
 -7.41779845E-07 -9.27721600E-02  3.24775586E-08  2.51235385E-07  3.14212492E-02
 -1.09999113E-08  4.19400034E-16  1.60436837E-14 -9.23639984E-16  3.53500009E-19
  1.24387879E-15 -9.35261828E-16 -3.82505759E-14  1.78727531E-15 -6.93586125E-17
 -3.17124862E-15  9.73946810E-15  3.80384286E-13 -1.86918966E-14 -1.98311952E-15
  2.71762735E-14 -4.95806633E-15 -1.92297132E-13  9.60773078E-15  8.77079463E-16
 -1.49844121E-14 -2.22817857E-08  2.07761893E-07  2.59841513E-02 -2.87656610E-08
  4.63909458E-13  8.04658341E-07  3.35453947E-02  1.16840873E-07 -1.08945850E-06
 -1.36255278E-01  1.50840913E-07 -2.43421641E-12 -4.21945459E-06 -1.75904806E-01
 -5.86509108E-07  5.46878256E-06  6.83964088E-01 -7.57179964E-07  1.22233738E-11
  2.11805035E-05  8.82993830E-01  2.26983089E-18 -8.56714037E-17 -6.10489006E-17
  2.72924317E-18  2.01685747E-18 -1.84799646E-16 -1.22434316E-16  1.68173084E-17
  4.03421931E-17  6.78676814E-17  1.67971390E-15 -3.20469483E-16  2.28784594E-16
  5.98280867E-17  4.55531539E-15  3.62062264E-16 -7.07592828E-17  6.86447959E-16
  1.32398926E-16  2.91363449E-16  7.01391753E-16 -1.32400856E-16 -1.85845774E-15
  1.58249030E-15  3.01564279E-16  4.35284880E-16 -6.45664361E-18 -4.54547278E-16
  2.57234113E-15  1.02673972E-15  5.96891831E-16 -4.07530725E-16 -1.73564146E-15
 -7.55946248E-16 -4.00536290E-15  9.61831761E-16  4.41067873E-16  1.98822760E-15
  4.90930434E-16  8.05352216E-14  2.09972047E-08 -1.32664788E-07 -9.59190221E-07
 -5.99815126E-02 -1.79421839E-13 -4.67555419E-08  2.95411421E-07  2.13587758E-06
  1.33563880E-01  1.80418657E-12  4.70099926E-07 -2.97019092E-06 -2.14750133E-05
 -1.34290754E+00 -9.16550189E-13 -2.38721103E-07  1.50829049E-06  1.09052109E-05
  6.81940903E-01 -1.89790076E-17  2.27209586E-16  4.94681421E-16 -4.62472365E-16
 -2.29336654E-16 -3.60273403E-17  5.05341440E-16  1.32521431E-15 -7.69312830E-16
 -3.50374476E-15  2.16819922E-15  1.04822656E-15 -4.06191205E-16 -2.76002720E-15
 -1.17028373E-14  4.99999401E-15  1.85851996E-14 -1.16410458E-14 -6.63671196E-15
  2.39549429E-15  1.39878546E-14 -1.77255481E-15 -2.52739554E-10  1.59686391E-09
  5.44265202E-09  3.40348144E-04 -6.68686686E-10  1.40831590E-09  2.87998185E-08
  9.00476566E-04  4.32153652E-14  6.18329538E-09 -3.90673741E-08 -1.33154820E-07
 -8.32663849E-03  1.63594625E-08 -3.44545344E-08 -7.04589336E-07 -2.20302148E-02
  2.79414625E-17 -4.58655260E-17 -4.66453966E-17 -6.15061692E-16  1.13857245E-15
 -6.01339592E-16  6.00724726E-17  4.88207656E-16 -3.92118093E-17 -4.37528227E-17
  2.19262832E-15  3.93108665E-16  7.53440594E-17 -1.83487055E-15 -2.37137538E-15
  8.48106523E-17 -3.15823920E-16  2.34600305E-15 -1.93113546E-16 -1.22821397E-16
 -4.94892854E-16  3.63700602E-08 -4.79595180E-07 -5.99815126E-02  2.10003855E-08
  1.32664284E-07 -8.09870600E-08  1.06793894E-06  1.33563880E-01 -4.67626250E-08
 -2.95410299E-07  8.14278031E-07 -1.07375082E-05 -1.34290754E+00  4.70171137E-07
  2.97017964E-06 -4.13497936E-07  5.45260624E-06  6.81940903E-01 -2.38757264E-07
 -1.50828477E-06  1.65704470E-16 -1.01449001E-16 -1.12235045E-16 -5.37791470E-17
  9.41973892E-16 -1.28716509E-17 -4.17581813E-16 -1.74665527E-15  4.88321348E-16
  7.98111848E-16  1.20613142E-15 -4.70731401E-15 -2.34531218E-16  2.76460604E-15
  1.19736707E-14 -5.07669740E-15 -6.49523117E-15 -7.75719625E-15  2.45216704E-14
  5.11477500E-16 -1.48660445E-14 -7.99273894E-10  5.77280698E-09  7.21987446E-04
 -9.53201776E-10 -7.52752681E-10  1.52734121E-08  6.36733086E-04 -3.15301567E-10
 -1.99162661E-09  1.95542852E-08 -1.41232083E-07 -1.76634676E-02  2.33201404E-08
  1.84161406E-08 -3.73664968E-07 -1.55777143E-02  7.71387248E-09  4.87252680E-08
  1.15767798E-02  9.08931974E-03  4.91206664E-02 -1.83781576E-01  2.10598345E-01
 -8.73470140E-02 -1.04640834E-16 -5.22929106E-16 -1.64149191E-16  7.20436119E-17
 -7.76132309E-16 -1.07978148E-16 -1.42079814E-15 -2.42203225E-15 -1.23445242E-15
  2.02537463E-15  5.49236165E-15  1.93501405E-15 -9.02630066E-16 -2.33410109E-15
 -7.80198168E-16 -3.02595315E-02 -2.93403918E-13 -3.66960061E-08 -5.24110456E-02
  8.38127661E-07  6.57964596E-02  6.37974155E-13  7.97919585E-08  1.13962810E-01
 -1.82242850E-06 -6.69688347E-01 -6.49347089E-12 -8.12137084E-07 -1.15993424E+00
  1.85490092E-05  3.39415083E-01  3.29105394E-12  4.11611725E-07  5.87884165E-01
 -9.40110951E-06 -2.25985381E-17  1.72407531E-17 -9.43925230E-17 -6.10418081E-18
 -1.92553496E-18 -1.27747262E-17  1.65679379E-16  2.01643072E-16  2.07563544E-16
  5.71234249E-16  8.29961782E-17 -4.30984378E-17 -2.97240327E-16 -8.93195444E-16
 -4.70128192E-16 -3.49391886E-16 -1.44521011E-15 -2.30248995E-16 -2.35785853E-16
 -1.09711780E-16  4.46367538E-15  3.86569545E-04  7.14166739E-15  8.55900905E-10
  5.76263856E-04 -9.21528449E-09  1.76048393E-14  7.54834106E-10  7.62325431E-04
 -2.43813504E-08 -9.69107999E-03 -1.72359726E-13 -2.14569577E-08 -1.44466091E-02
  2.31021964E-07 -4.53175569E-13 -1.89232585E-08 -1.91110674E-02  6.11226662E-07
  1.11307445E-17  9.85993083E-18 -2.52010136E-18 -7.14836010E-18  2.85929983E-17
 -1.94375344E-17 -1.90362630E-01  1.52208615E-06  1.83131292E-06 -1.35347167E+00
  1.08219795E-05  1.30205710E-05  2.06028191E+00 -1.64734357E-05 -1.98201762E-05
 -1.17203206E+00  9.37123930E-06  1.12750987E-05  3.55470045E-01 -2.84223868E-06
 -3.41966742E-06  6.91763951E-17  5.81002198E-17  4.87045247E-17 -2.43947746E-16
 -2.71024280E-17 -1.75463745E-16 -4.07124977E-16 -7.32091973E-17  5.33128757E-16
  3.29343424E-16  3.29652087E-16  5.98562629E-16 -5.46177686E-17 -9.55372836E-16
 -9.65576301E-17 -2.40098825E-16 -4.28246821E-16  1.96784130E-16  7.08415496E-16
 -3.22875710E-17  6.66685369E-08 -2.82920513E-03  2.26216253E-08  8.60686110E-08
 -6.26550139E-09 -1.09574644E-02  2.62838353E-07 -2.51403470E-07  1.06687805E-02
 -8.53049355E-08 -3.24560108E-07  2.36268692E-08  4.13200096E-02 -9.91149310E-07
  1.47779818E-07 -6.27131538E-03  5.01438902E-08  1.90782703E-07 -1.38883285E-08
 -2.42887001E-02  5.82616717E-07  3.45054704E-18 -2.66590964E-16 -2.02301391E-16
  1.44446290E-16  5.40822584E-17  1.25643650E-16  5.84944941E-16  5.04505774E-19
  1.79889221E-16 -1.00997943E-17  1.07036984E-15  1.13668816E-16 -8.54908632E-16
 -3.77445629E-16 -3.13513366E-16 -1.69271292E-15  5.14601793E-18 -2.09302274E-16
 -1.03189956E-17 -2.25838841E-17 -6.11505478E-17  8.83278747E-17 -5.66017374E-17
  1.78717411E-17  1.83131345E-06  6.66272783E-08  1.90362631E-01  1.30205748E-05
  4.73717618E-07  1.35347167E+00 -1.98201820E-05 -7.21102517E-07 -2.06028191E+00
  1.12751020E-05  4.10213413E-07  1.17203206E+00 -3.41966841E-06 -1.24415183E-07
 -3.55470045E-01 -2.09235726E-18 -7.41561092E-17 -2.33592026E-16  4.47790132E-18
 -1.15139283E-16  2.63038653E-18  3.71651495E-15  2.86554244E-15  7.05600360E-19
 -1.29511155E-16 -8.27278540E-18 -2.09839125E-15 -6.74664288E-16  2.38365366E-17
  1.86909590E-15  6.87104046E-18  3.45514325E-16 -2.57467495E-19 -2.10356548E-17
 -2.02678502E-15  6.93010895E-03  2.72174033E-08  1.08946777E-08  8.94673220E-03
 -1.43070997E-07  1.05412305E-07  3.83344766E-09 -2.61330685E-02 -1.02635365E-07
 -4.10832425E-08 -3.37376465E-02  5.39513044E-07 -3.97504138E-07 -1.44557240E-08
  1.53615227E-02  6.03310513E-08  2.41495258E-08  1.98316406E-02 -3.17136192E-07
  2.33660614E-07  8.49735601E-09 -8.58538644E-18 -1.46489925E-16 -3.32659056E-17
 -3.31623033E-18 -4.34423460E-16  2.51339157E-16  1.39591541E-16 -1.69860732E-19
  1.82935547E-16  2.92081669E-17  2.01392091E-15  2.18554339E-16 -1.10138072E-16
  3.23035071E-15 -7.93763328E-16 -3.06558066E-15  3.26967397E-18  1.12310288E-15
 -1.42899961E-16 -3.21749996E-16 -8.48698735E-16  1.17178336E-15 -7.70011120E-16
  2.88565274E-16 -1.51521078E-06 -1.89502828E-01  6.63409194E-08 -1.05907723E-05
 -1.32455585E+00  4.63698907E-07  1.67695165E-05  2.09731270E+00 -7.34224693E-07
 -9.55827942E-06 -1.19542509E+00  4.18492964E-07  2.88880339E-06  3.61293902E-01
 -1.26481326E-07  9.11835415E-17  5.80226985E-16  1.44398995E-15  3.85122162E-16
  7.26308538E-16  5.89574579E-16 -3.10164071E-15 -9.49866805E-15 -7.18483958E-16
 -6.89247838E-15 -8.26574042E-16 -5.62644075E-16  3.03105266E-15  1.30956067E-15
  6.88909048E-16  3.90217006E-16  2.04788997E-15  9.10280487E-16 -1.42979100E-15
  1.40290565E-15  7.18845229E-09 -6.70272240E-08 -8.38289216E-03  9.28025289E-09
 -1.48113224E-13 -2.59595323E-07 -1.08222673E-02 -2.84698457E-08  2.65461107E-07
  3.32004177E-02 -3.67544094E-08  5.87897501E-13  1.02812645E-06  4.28615550E-02
  1.65809857E-08 -1.54605932E-07 -1.93360962E-02  2.14059617E-08 -3.39149293E-13
 -5.98786198E-07 -2.49627928E-02 -1.00828034E-17  3.18228348E-17 -4.12103607E-16
 -1.88257956E-17 -1.33006294E-16 -3.27089455E-17 -3.68828873E-16  8.44972412E-17
  1.42749317E-16  7.03176430E-19  1.25620872E-16  7.94202787E-16  4.56123971E-17
  8.46239416E-16 -3.78002253E-16 -9.60896317E-19 -3.15572558E-17  5.97609821E-17
 -4.07035291E-14 -9.63429407E-14 -2.63623299E-13  3.54846609E-13 -2.07964227E-13
  6.06616744E-14  4.37148282E-16 -3.11093442E-16 -6.80986467E-16  1.68214304E-15
  8.93053561E-16 -3.22460998E-15 -2.84377156E-15 -1.20967757E-15  6.13216087E-15
  2.09631583E-15  1.21687002E-15 -4.50664469E-15 -9.48551794E-16 -7.22956572E-16
  1.73921703E-15 -3.19224879E-16 -1.14266967E-11  4.16701404E-16 -1.94620011E-15
 -2.78933029E-16 -1.96018351E-15  2.65069816E-10 -4.93923239E-15  4.73990553E-16
  4.08250375E-15  1.11861208E-15 -1.47480961E-10  3.76666234E-15 -3.88525080E-15
 -4.40084245E-15 -6.36394269E-16  5.91218647E-11 -1.55730914E-15  2.89027016E-15
  1.83612434E-15  6.72978736E-16 -4.34148313E-16  3.53672807E-16 -3.84641000E-16
 -3.64900003E-16  1.45644406E-16 -1.63033656E-16 -7.61288085E-15  2.64886599E-15
 -5.91188998E-15  3.33604399E-15  2.83843286E-15  1.80569416E-15  3.28463174E-15
  4.07228374E-15 -1.66379407E-15  3.09832586E-15 -6.61817580E-16 -1.45602700E-15
  1.13286997E-16 -1.03479976E-15  5.47954740E-11 -1.83744381E-01  1.46916787E-06
 -5.04687057E-11 -9.09693383E-08  6.94488482E-02 -1.66587978E-06  1.03625641E-11
  3.43831703E-08 -3.08635661E-10  1.03493766E+00 -8.27506756E-06  2.84264208E-10
  5.12383531E-07 -3.91169669E-01  9.38304463E-06 -5.83672082E-11 -1.93662728E-07
  8.69386544E-13  1.95787252E-12  5.13991891E-12 -6.90551483E-12  4.05880512E-12
 -1.19015281E-12  3.04261278E-16 -2.14690521E-17 -3.63780425E-17  6.00663035E-16
 -1.83446979E-17 -1.58374587E-16 -1.22649247E-15  2.68783561E-17  3.14996324E-16
  8.22608068E-16  1.64352281E-17 -2.42759637E-16 -2.46211141E-16 -1.44004778E-17
  9.33947158E-17 -9.87874156E-12 -3.92035204E-17 -4.42283594E-18  5.73674397E-12
 -2.14102064E-16  2.29446342E-10  6.71813739E-16  2.84827271E-16 -1.32622811E-10
  3.99238175E-15 -1.27634442E-10 -3.36283947E-16 -1.17317092E-16  7.38233951E-11
 -2.57785051E-15  5.11693335E-11  4.99517594E-17  2.84583509E-17 -2.95962513E-11
  9.33199624E-16  4.49348896E-17 -2.84581700E-17  1.40230128E-16  1.56928980E-17
 -6.81563601E-17 -1.23765483E-16 -1.48824829E-16 -1.21211638E-16 -1.35995619E-15
 -1.61194434E-15 -7.89878483E-16  7.57801525E-16 -1.27869043E-15  1.53811524E-15
  2.73514292E-16  3.33043593E-16  8.99228409E-16  5.46409993E-16 -3.25163092E-16
  3.81988110E-16 -4.77358460E-16 -1.45262688E-01 -6.98278736E-11 -6.43250305E-08
  1.29926898E-01 -2.07771712E-06  2.79494286E-11  7.29377292E-08 -2.45538758E-02
  7.85303259E-07  8.18190063E-01  3.93303284E-10  3.62309838E-07 -7.31811440E-01
  1.17027127E-05 -1.57422304E-10 -4.10820744E-07  1.38299363E-01 -4.42320965E-06
  5.54963347E-01  1.25131899E+00  3.30046138E+00 -4.46077542E+00  2.64958999E+00
 -7.85821689E-01  3.01083766E-16  9.11276380E-17  3.21753148E-17  7.26533394E-18
 -2.07225998E-16  1.73973247E-16  7.72491932E-16  1.80584140E-15  3.65370460E-16
  1.79515175E-16 -2.76254505E-15 -4.65538751E-16 -1.09493188E-15  1.27306085E-15
  1.26871337E-17  9.79478294E-03  9.49386238E-14  1.18782214E-08  1.69650618E-02
 -2.71295628E-07 -5.28252908E-02 -5.12392066E-13 -6.40617061E-08 -9.14960886E-02
  1.46315346E-06  4.52694639E-02  4.38747951E-13  5.48986862E-08  7.84090123E-02
 -1.25387237E-06 -1.70249321E-02 -1.65017221E-13 -2.06462883E-08 -2.94880477E-02
  4.71556102E-07 -3.33675271E-17  9.84885551E-17 -3.21287671E-17  1.51082315E-17
 -2.55291352E-17 -3.15428170E-17 -6.98435697E-17  4.19466466E-16 -1.23306250E-16
 -6.15189436E-16 -2.18762223E-16  2.27840478E-16 -7.82810029E-16  1.47168431E-16
  2.09432175E-16 -7.04424993E-16  3.70295387E-16  1.50368475E-16 -9.10142235E-17
 -2.56558896E-16 -2.08439017E-16 -8.10372048E-04 -3.08799756E-14 -1.79423336E-09
 -1.20803133E-03  1.93180990E-08 -3.58940673E-14 -1.58238237E-09 -1.59807525E-03
  5.11110423E-08  2.20127321E-03  1.29424604E-13  4.87379060E-09  3.28146437E-03
 -5.24750268E-08  9.00879731E-14  4.29837427E-09  4.34096938E-03 -1.38836742E-07
  4.03925935E-14  8.91834435E-14  2.33398328E-13 -3.17530647E-13  1.91231497E-13
 -5.79969949E-14  3.74836893E-16  6.04193826E-17 -1.04312078E-15  1.80599745E-15
  1.23072773E-15 -3.11464367E-15 -3.18814686E-15 -2.07748993E-15  6.08397195E-15
  2.08234400E-15  1.59837674E-15 -4.48884740E-15 -7.19774293E-16 -7.16406672E-16
  1.55590794E-15  8.42567883E-17 -5.42899847E-16 -4.69883101E-12  1.79229159E-15
  1.02460856E-13  4.85275102E-16  1.45163030E-14  1.76376310E-10 -8.46170054E-15
 -3.85689716E-12 -1.04973642E-15 -7.75707700E-15 -8.03888962E-11  8.46812049E-15
  1.75483249E-12  7.05652550E-16  2.22755522E-15  3.34497802E-11 -3.77384438E-15
 -7.30739103E-13 -1.04176831E-15  3.96545993E-16 -1.34617427E-16  1.83923420E-16
  8.95852183E-16 -3.25943955E-16 -3.67152074E-16  1.13731894E-14 -3.04748142E-15
 -3.62441418E-15 -2.11887935E-15 -4.80534578E-15  1.20380148E-15  5.56377744E-15
 -6.12473926E-15  1.35321416E-15  2.34270899E-15  1.04676315E-15  1.68981230E-15
 -9.16763172E-16 -1.83282366E-15  1.44787425E-07 -1.04874848E-06 -1.30787097E-01
  6.48592057E-08  4.05587231E-03  3.55536374E-06  1.48298629E-01 -1.22449582E-07
 -1.53297564E-03 -8.10426141E-07  5.87021407E-06  7.32061379E-01 -3.63039786E-07
 -2.27021437E-02 -1.99006213E-05 -8.30079581E-01  6.85393374E-07  8.58060379E-03
 -1.54467817E-13 -3.47429176E-13 -9.14728954E-13  1.23782410E-12 -7.36975350E-13
  2.18962412E-13 -4.09461743E-16  2.81864629E-16 -8.44347121E-16  8.79119273E-17
  1.10230774E-15 -3.51051811E-15  3.77404368E-16 -2.37189963E-15  6.67539635E-15
 -3.60155489E-16  2.03625231E-15 -5.12922184E-15  1.27320415E-16 -8.86310602E-16
  1.93420170E-15 -3.29933123E-15  4.85828184E-16 -1.03046372E-13 -4.33738452E-15
 -4.69900341E-12  1.30745165E-14 -8.58280132E-15  3.87078280E-12  3.66539171E-14
  1.76375168E-10 -1.17784784E-14  6.50683480E-15 -1.76398108E-12 -2.69949106E-14
 -8.03883272E-11  4.73064480E-15 -2.51913085E-15  7.33883735E-13  8.26143565E-15
  3.34503605E-11 -1.61993314E-17  2.51290005E-16 -1.82926345E-16 -1.07101726E-15
 -1.39043278E-16 -6.58816826E-16  1.36200722E-16  3.32671577E-15  3.05990922E-16
  2.95285831E-15  1.23156902E-14  1.49733773E-15  2.33304395E-15  5.03529274E-16
 -1.24701863E-15  1.04670074E-16 -1.07528167E-15 -5.73839370E-15 -1.45340282E-15
 -1.75439170E-15  7.55378528E-17  3.17494014E-09  1.14426228E-07 -2.86793481E-03
 -2.95778940E-06 -1.84960887E-01  1.64531627E-07  3.25193241E-03  2.23426864E-06
  6.99086442E-02 -1.77712556E-08 -6.40483841E-07  1.60528398E-02  1.65557875E-05
  1.03529113E+00 -9.20941387E-07 -1.82022094E-02 -1.25059873E-05 -3.91303268E-01
 -7.95577927E-15 -2.04511786E-14 -5.92766336E-14  7.98279687E-14 -4.77095938E-14
  1.45415655E-14 -1.05215191E-16  2.19147847E-16 -2.57217803E-16  5.56911073E-16
 -7.40796443E-16  8.55173576E-16 -5.61736795E-16  7.75337959E-16 -4.91538462E-16
  3.44086973E-16 -2.81480649E-16  2.17915157E-16 -1.97775425E-16 -3.37242689E-17
  2.85979170E-16  1.84872666E-10 -3.00083856E-03  2.39938517E-08 -1.06753238E-10
 -1.05052789E-09 -3.49459861E-10  5.67237963E-03 -4.53547251E-08  2.01791842E-10
  1.98576151E-09  1.42772096E-09 -2.31746054E-02  1.85297554E-07 -8.24424351E-10
 -8.11291661E-09 -4.70145770E-10  7.63135730E-03 -6.10181627E-08  2.71480565E-10
  2.67156958E-09 -2.19353937E-16  4.73677616E-16  8.89386546E-16  2.27960430E-16
 -6.48443625E-17 -1.54338335E-16 -1.10697701E-15 -2.03216833E-15 -5.43117813E-15
 -8.16256203E-15 -1.19019577E-15  1.09183326E-16  1.53657945E-15  1.19741693E-14
  1.07062061E-15  2.77900340E-15  4.49945690E-15  1.24195214E-15 -3.76121528E-16
 -6.46174703E-16 -6.38407182E-15  7.90393835E-09 -7.02705820E-02  5.61863613E-07
  7.06671643E-09 -1.73950152E-07 -1.85918484E-01  4.45965415E-06 -9.35501619E-09
 -9.20454070E-08 -4.40368224E-08  3.91512805E-01 -3.13042518E-06 -3.93722379E-08
  9.69163909E-07  1.03584552E+00 -2.48469795E-05  5.21215090E-08  5.12831325E-07
 -3.21082934E-11 -7.08818955E-11 -1.84746831E-10  2.49728458E-10 -1.46740606E-10
  4.22695916E-11  2.52324184E-16 -1.78756674E-17 -2.09538502E-17  4.75858535E-16
 -1.12588191E-17 -9.49309433E-17 -1.04041930E-15 -3.34327023E-17  1.78876485E-16
  6.76633205E-16  9.14718702E-17 -1.37390802E-16 -1.75470359E-16 -4.27144398E-17
  6.50435812E-17  2.59880243E-03  2.13481191E-10  1.05052865E-09 -1.50041929E-03
  2.39938527E-08 -4.91242493E-03 -4.03534306E-10 -1.98577722E-09  2.83618969E-03
 -4.53547329E-08  2.00697970E-02  1.64865282E-09  8.11292784E-09 -1.15873027E-02
  1.85297561E-07 -6.60894929E-03 -5.42898549E-10 -2.67157306E-09  3.81567865E-03
 -6.10181647E-08  5.80955722E-17  6.35100719E-17  1.88617545E-16  3.77530223E-17
 -6.44847637E-17  3.47569257E-16 -2.11562066E-16 -3.89042360E-16 -2.21072527E-15
 -2.11997145E-15 -9.47338530E-16  7.22993853E-16 -1.82064001E-16  2.23045789E-15
  3.83410619E-16  8.31907475E-16  1.10876072E-15  6.04217541E-16 -3.12381356E-16
  7.91841838E-16 -8.41250162E-16  1.11107546E-01  5.00046282E-09  1.96801959E-07
  9.93776096E-02 -1.58919025E-06  1.32258242E-08 -3.13570426E-13 -1.31464221E-01
  4.20460226E-06 -6.19036097E-01 -2.78600973E-08 -1.09648284E-06 -5.53682717E-01
  8.85417932E-06 -7.36877272E-08  1.74619028E-12  7.32453391E-01 -2.34259569E-05
 -1.21480379E-15 -2.96549134E-15 -8.19549229E-15  9.93130163E-15 -5.20701710E-15
  1.42889930E-15  1.01290636E-16 -1.52291163E-16  8.53843765E-16  2.89918433E-16
 -8.50042450E-16  3.25841175E-15 -5.38710306E-16  1.44276568E-15 -6.69742038E-15
  4.69954001E-16 -1.20078219E-15  5.19947374E-15 -2.34283217E-16  8.06721063E-16
 -2.24890592E-15 -3.55566000E-14 -1.51839279E-09  5.90980276E-08  6.93809835E-08
  4.33863620E-03  7.85146847E-14  3.40800858E-09 -1.32644489E-07 -1.55724425E-07
 -9.73799388E-03 -2.82553564E-13 -1.19883820E-08  4.66605013E-07  5.47793500E-07
  3.42554480E-02  9.26324248E-14  3.94491154E-09 -1.53541586E-07 -1.80257563E-07
 -1.12721375E-02 -2.12279940E-16 -2.59242438E-16 -2.65181161E-16  1.60459134E-16
 -6.74612022E-16  8.26615512E-16 -1.49670140E-16  9.30869111E-16  2.33300964E-15
 -1.98004471E-15 -2.59508491E-15  7.56055268E-15 -5.42453047E-15 -7.39264172E-16
  3.09955287E-16 -1.19750965E-15  1.75074486E-15  1.30825679E-15 -3.23095929E-15
  3.09962741E-15  2.75188911E-16 -2.25729515E-12 -5.23184487E-08  2.03630918E-06
  1.12694836E-06  7.04721797E-02 -1.38421583E-07  1.79585884E-06  5.96326354E-06
  1.86451861E-01  1.25433469E-11  2.90691538E-07 -1.13141322E-05 -6.26154561E-06
 -3.91557220E-01  7.69097399E-07 -9.97814311E-06 -3.31330591E-05 -1.03596302E+00
 -9.13382383E-15 -1.99820698E-14 -5.26748722E-14  7.20951803E-14 -4.28352832E-14
  1.24581105E-14 -3.97188685E-16  3.59841137E-16  1.13329850E-15 -1.60567994E-15
 -2.52277932E-17  1.63600408E-15  2.45689565E-15  1.64975351E-16 -4.07232086E-15
 -1.33334130E-15 -3.87574291E-16  3.08652097E-15  3.88664497E-16  4.94606679E-16
 -1.12071415E-15  2.63075171E-09 -3.46905225E-08 -4.33863620E-03  1.51980978E-09
  5.90979924E-08 -5.90468472E-09  7.78622659E-08  9.73799406E-03 -3.41118488E-09
 -1.32644426E-07  2.07709516E-08 -2.73896985E-07 -3.42554482E-02  1.19995708E-08
  4.66604740E-07 -6.83491339E-09  9.01288596E-08  1.12721375E-02 -3.94859319E-09
 -1.53541497E-07  2.64718883E-16 -7.40576038E-17  9.23718992E-16 -1.93684526E-16
 -9.57612023E-16  2.33756523E-16  9.05176835E-17 -7.57383969E-15  1.23920381E-15
 -7.73918633E-15  4.74175145E-15  8.05841955E-15 -3.09232702E-15  2.76656614E-16
  3.44646962E-15 -4.51622329E-16  3.65635600E-15 -1.84325846E-15 -3.28325251E-15
  1.73421747E-15 -6.79707558E-16  1.65496930E-07 -1.19531281E-06 -1.49494068E-01
  1.97381956E-07  9.59921993E-07 -3.16250043E-06 -1.31841375E-01  6.53540984E-08
  2.53972115E-06 -9.19533325E-07  6.64139188E-06  8.30618295E-01 -1.09669277E-06
 -5.33351442E-06  1.75714712E-05  7.32536480E-01 -3.63120159E-07 -1.41111876E-05
 -2.29824773E-03 -5.20944546E-03 -1.37751866E-02  1.82415933E-02 -1.02316380E-02
  2.98032941E-03 -2.73137787E-16  2.01395119E-17  2.46271483E-17 -5.08212402E-16
  1.40179515E-17  1.06406034E-16  1.11549139E-15  2.38568228E-17 -2.05296093E-16
 -7.33344457E-16 -8.51006177E-17  1.59274990E-16  1.93217577E-16  4.10350023E-17
 -7.26018682E-17 -2.44091077E-03 -2.34461522E-14 -2.96011450E-09 -4.22778144E-03
  6.76082786E-08  6.01002066E-03  5.55601328E-14  7.28840587E-09  1.04096609E-02
 -1.66465386E-07 -1.93399899E-02 -1.85110488E-13 -2.34537800E-08 -3.34978449E-02
  5.35678502E-07  6.37047360E-03  6.10159025E-14  7.72553074E-09  1.10339838E-02
 -1.76449200E-07 -6.03682391E-17 -1.21066285E-16 -2.26631041E-16 -3.57311751E-17
  8.65966279E-17 -2.58044279E-16  2.41205337E-16  3.78189135E-16  3.07368284E-15
  2.57464829E-15  1.00005400E-15 -9.66534124E-16  5.02237935E-17 -2.53573513E-15
 -3.98299157E-16 -1.22973088E-15 -1.32607582E-15 -6.45068082E-16  4.30496976E-16
 -5.71135166E-16  1.01156151E-15 -7.48122819E-02 -1.32147212E-12 -1.65641393E-07
 -1.11523565E-01  1.78342148E-06 -3.50069255E-12 -1.46081982E-07 -1.47531808E-01
  4.71848969E-06  4.15312863E-01  7.33683564E-12  9.19541544E-07  6.19111862E-01
 -9.90048508E-06  1.94328887E-11  8.10959441E-07  8.19008006E-01 -2.61942213E-05
 -2.27039810E-10 -4.95786341E-10 -1.32871131E-09  1.91292020E-09 -1.26762049E-09
  4.24437587E-10 -4.56766213E-16 -2.93978124E-16 -1.52890274E-16 -9.35252409E-16
  4.65387343E-16 -1.13348885E-16 -8.06158787E-16 -4.10993934E-15 -1.24780933E-15
 -9.18950263E-16  6.40817848E-15  1.29534465E-15  2.73252855E-15 -2.96521454E-15
 -8.66243873E-17 -6.07024288E-02  7.51993668E-06 -2.45982546E-08  3.50465637E-02
 -5.60442099E-07  1.23388161E+00 -1.52855689E-04  5.00001970E-07 -7.12381882E-01
  1.13919527E-05 -9.29346175E-01  1.15129238E-04 -3.76596032E-07  5.36558265E-01
 -8.58029458E-06  3.12343267E-01 -3.86937004E-05  1.26569881E-07 -1.80331470E-01
  2.88374484E-06 -1.98202573E-16 -1.52563438E-16 -2.08984617E-16 -3.06483023E-16
  2.37079913E-16  2.33190922E-16  1.82986445E-16  2.06347631E-15  1.93421547E-15
  3.09220369E-15  3.35981307E-15 -2.55396881E-15 -2.15977662E-15 -1.85087485E-15
 -9.51681941E-16 -4.76954380E-16 -2.09897451E-15 -1.75898146E-15  1.25199840E-15
  6.59835143E-16  1.15332811E-15  7.13995702E-03 -4.84467069E-07  1.26506995E-08
  6.38617166E-03 -1.02125229E-07 -1.28177964E-06  3.07450974E-11 -8.44811104E-03
  2.70194148E-07 -4.18963152E-03  2.84278821E-07 -7.42325870E-09 -3.74732009E-03
  5.99257228E-08  7.52131156E-07 -1.80348349E-11  4.95723858E-03 -1.58546313E-07
  2.42409417E-14  5.29268530E-14  1.41827231E-13 -2.04207837E-13  1.35357355E-13
 -4.53405163E-14 -1.00861434E-16  8.25407485E-16  1.29444414E-15  5.74044393E-16
  3.56004810E-15  3.58182311E-15 -1.43366287E-15 -7.06582101E-15 -6.23492073E-15
  1.50660597E-15  4.51458858E-15  4.09692057E-15 -6.80949152E-16 -1.23356591E-15
 -1.73216170E-15  6.51245637E-06  7.00931273E-02 -5.60442095E-07 -3.75996805E-06
  2.45982542E-08 -1.32376913E-04 -1.42476376E+00  1.13919527E-05  7.64278387E-05
 -5.00001963E-07  9.97048476E-05  1.07311653E+00 -8.58029453E-06 -5.75646147E-05
  3.76596025E-07 -3.35097283E-05 -3.60662939E-01  2.88374483E-06  1.93468487E-05
 -1.26569877E-07  1.80367816E-16 -5.35945913E-16 -5.72326850E-16  1.75769546E-15
 -1.05538893E-15 -1.69311585E-16 -6.76721116E-16 -1.62674150E-15  6.19096987E-15
  6.35317192E-15 -1.83319958E-14  1.23540416E-14  1.83678540E-15  5.42855014E-15
  7.05526274E-16 -2.97830929E-15 -2.50234860E-15  8.15310039E-15 -5.41330585E-15
 -1.15827104E-15 -1.44748334E-15 -7.66009852E-07 -4.51570533E-03  3.61049399E-08
 -6.85140215E-07 -1.11673634E-08 -1.19474332E-02  2.86584847E-07  9.06354888E-07
 -5.94399902E-09  4.49484360E-07  2.64975571E-03 -2.11858992E-08  4.02031110E-07
  6.55285305E-09  7.01059406E-03 -1.68164170E-07 -5.31836927E-07  3.48785969E-09
  1.77792305E-17  1.00737852E-17 -1.38809388E-16  4.15805712E-16 -5.53390786E-16
  3.35082621E-16  6.64248992E-17 -2.24397172E-15  2.33679845E-16  4.06628076E-16
 -6.75286463E-15 -1.08513272E-15 -6.97728470E-16  1.33036305E-14  1.64497340E-15
  4.50170543E-16 -9.31495311E-15 -7.16182545E-16 -9.51097393E-17  3.60737104E-15
 -7.68866297E-19  4.11998569E-13  2.34366743E-08 -6.79371626E-07 -1.07082356E-06
 -6.69623467E-02 -8.75098486E-12 -4.97793312E-07  1.44298053E-05  2.27442168E-05
  1.42227551E+00  6.63407453E-12  3.77371091E-07 -1.09390609E-05 -1.72421157E-05
 -1.07820987E+00 -2.21726304E-12 -1.26120213E-07  3.65591516E-06  5.76244274E-06
  3.60345722E-01  1.70408629E-14 -8.92922949E-15 -3.35205752E-15 -9.28015990E-15
  1.45550603E-15  2.51805783E-15  5.27313570E-16 -1.84852072E-13  1.04783042E-13
  3.52714284E-14  1.04780019E-13 -1.46883104E-14 -2.87269438E-14 -7.12680887E-15
  8.84992945E-14 -5.02410706E-14 -1.65358234E-14 -5.04432137E-14  6.80588289E-15
  1.40901821E-14  3.97247326E-15 -1.54578498E-13 -4.81365556E-09  1.39536031E-07
  1.03678796E-07  6.48340824E-03 -1.27357361E-08  1.23059481E-07  5.48617534E-07
  1.71534858E-02  1.02160092E-13  3.16651988E-09 -9.17895781E-08 -6.82019713E-08
 -4.26491490E-03  8.37783200E-09 -8.09509640E-08 -3.60891514E-07 -1.12839038E-02
  8.52731968E-17  1.92339294E-16  5.28161534E-16 -7.64851713E-16  5.31750100E-16
 -2.00365917E-16  1.12351537E-16 -2.92982162E-15 -7.21139164E-16 -1.84855530E-16
 -9.77262050E-15 -3.14750969E-15 -1.98274131E-17  1.96325677E-14  4.57322731E-15
  1.47696274E-16 -1.40159070E-14 -2.23900011E-15 -5.04797052E-17  4.85125355E-15
  2.58442816E-16  4.06029204E-08 -5.35412135E-07 -6.69623467E-02  2.34529711E-08
  6.79371063E-07 -8.62403159E-07  1.13721159E-05  1.42227551E+00 -4.98139448E-07
 -1.44297934E-05  6.53777407E-07 -8.62106356E-06 -1.07820987E+00  3.77633493E-07
  1.09390519E-05 -2.18497250E-07  2.88122328E-06  3.60345722E-01 -1.26207909E-07
 -3.65591214E-06 -1.27902658E-14  4.91571635E-15  3.42999244E-15  8.13377999E-15
 -3.24829059E-16 -9.61884588E-16 -1.32120882E-15  1.44688766E-13 -5.67183981E-14
 -3.68529296E-14 -9.01027437E-14  3.15382331E-15  1.15507522E-14  1.64145909E-14
 -6.95170775E-14  2.74089114E-14  1.75657600E-14  4.39539556E-14 -8.46214783E-16
 -5.43822333E-15 -7.99394380E-15 -1.52256416E-08  1.09968214E-07  1.37533858E-02
 -1.81586891E-08 -6.57776075E-08  2.90948547E-07  1.21293461E-02 -6.01064007E-09
 -1.74031768E-07  1.00157299E-08 -7.23392791E-08 -9.04725066E-03  1.19451470E-08
  4.32698202E-08 -1.91391744E-07 -7.97892491E-03  3.95391852E-09  1.14481566E-07
 -4.56650764E-02 -8.83582501E-02 -2.18354121E-01  3.23411431E-01 -2.17203562E-01
  6.57660380E-02 -5.05018580E-18  1.34972958E-17  1.17591919E-17 -1.96678407E-16
 -1.15472910E-16  1.04412247E-16  4.07078305E-16  4.10300327E-16 -1.09595304E-16
 -1.47032711E-16 -4.72614439E-16  2.80380928E-17 -9.07800005E-17  2.03071477E-16
 -2.53419896E-17  3.24657962E-02  3.14782687E-13  3.93715633E-08  5.62324085E-02
 -8.99236723E-07 -7.08752182E-01 -6.87182959E-12 -8.59510150E-07 -1.22759479E+00
  1.96309983E-05  5.37624284E-01  5.21267120E-12  6.51981808E-07  9.31192574E-01
 -1.48911025E-05 -1.79228345E-01 -1.73775258E-12 -2.17351827E-07 -3.10432599E-01
  4.96426172E-06  1.71498551E-14 -3.30072877E-16  1.89949440E-16 -1.36266498E-14
  1.35005096E-17 -4.35420592E-17  1.04362909E-16 -2.02833216E-13  4.42885524E-15
 -2.10161494E-15  1.60988148E-13 -1.85289966E-16  7.88808414E-16 -1.22488138E-15
  9.88209650E-14 -2.15559875E-15  6.13141733E-16 -7.84046069E-14  1.31305191E-16
 -2.14905192E-16  5.37275871E-16 -7.56997747E-03 -1.32732781E-13 -1.67606384E-08
 -1.12846561E-02  1.80457808E-07 -3.55002253E-13 -1.47814935E-08 -1.49281968E-02
  4.77446482E-07  5.21365911E-03  8.39750689E-14  1.15435278E-08  7.77206407E-03
 -1.24286425E-07  2.45128818E-13  1.01804333E-08  1.02814742E-02 -3.28830981E-07
  8.18328215E-15  1.58910988E-14  3.93678767E-14 -5.82317286E-14  3.90412452E-14
 -1.18178186E-14 -5.72055633E-12  9.99838960E-16  1.07979311E-11 -3.73567615E-11
  1.24184229E-15  7.05113209E-11  7.42537103E-11 -2.60495171E-15 -1.40156804E-10
 -4.90760467E-11  1.97764262E-15  9.26361684E-11  8.96672205E-12 -3.21814940E-16
 -1.69312731E-11 -5.62958346E-15  1.68298656E-15 -9.61960877E-15 -9.60670545E-15
  1.16308016E-14  1.21994480E-13 -8.15443650E-15  1.91407167E-13  2.14256668E-13
 -2.54421644E-13 -9.25523668E-14  9.55477540E-15 -1.46902033E-13 -1.62274290E-13
  1.94725081E-13  3.08990409E-14 -4.87132687E-15  5.05257014E-14  5.39381032E-14
 -6.62040752E-14  7.82727586E-02 -5.08021557E-02  4.39759634E-07 -6.06298181E-02
  9.47061457E-07  1.31170602E-02 -3.40636342E-07 -9.25660729E-01  6.00790893E-01
 -5.20063724E-06  7.17013718E-01 -1.12000345E-05 -1.55123542E-01  4.02839622E-06
  4.50240005E-01 -2.92223799E-01  2.52958224E-06 -3.48754409E-01  5.44768017E-06
  7.54518605E-02 -1.95940595E-06  1.41441002E-15  9.20222574E-16  1.28795881E-15
  2.31280151E-15 -9.07979050E-16 -1.99007102E-16  4.18475800E-15  2.65754426E-15
 -3.65106580E-15 -1.56322043E-15 -6.03043274E-15 -5.84796891E-16 -3.36209338E-15
 -2.63092166E-15  2.23603907E-15 -1.32357550E-14 -2.06130320E-15  2.89559831E-15
  4.15997634E-15  8.10482132E-15  2.00697687E-14 -2.95248384E-14  1.96289838E-14
 -5.89012187E-15  1.07942341E-11  8.52883629E-17  5.72254567E-12  7.04908696E-11
 -4.20766982E-16  3.73680787E-11 -1.40116157E-10  1.24939411E-15 -7.42772906E-11
  9.26070703E-11 -3.03243889E-16  4.90932372E-11 -1.69206997E-11 -1.08875009E-16
 -8.97302744E-12 -2.87755997E-15  8.12403298E-16 -1.42907047E-15 -5.38300082E-15
  9.83908974E-17  6.47135090E-14 -1.11069163E-14  3.04560230E-14  1.08356498E-13
 -2.31344164E-15 -4.88715364E-14  9.83800526E-15 -2.29584762E-14 -8.32045526E-14
  1.94943066E-15  1.61006347E-14 -3.85017072E-15  7.97846514E-15  2.84566737E-14
 -8.42770655E-16  4.14797865E-02  9.58641597E-02 -7.48717814E-07 -3.21301044E-02
  5.56256816E-07 -2.47520196E-02  5.79954332E-07 -4.90543710E-01 -1.13369823E+00
  8.85440465E-06  3.79973524E-01 -6.57834347E-06  2.92719625E-01 -6.85859243E-06
  2.38599733E-01  5.51429137E-01 -4.30676929E-06 -1.84818558E-01  3.19969650E-06
 -1.42378391E-01  3.33600918E-06  4.59197946E-16  6.58150003E-16  3.43868128E-16
  2.44371705E-16  1.60964871E-16  5.15192600E-16  1.28097874E-15  1.22025341E-15
  1.77381786E-16  8.02420959E-16 -3.41037547E-15 -7.67284977E-16  2.02864834E-15
 -2.91919642E-15 -3.70722426E-15 -3.12139008E-15 -4.10466246E-16 -2.63286026E-15
 -1.18570769E-17 -1.57725682E-17 -4.67822078E-17  1.07191255E-16 -9.30096946E-17
  3.51802045E-17  1.97011297E-16 -4.18623837E-12 -5.22425311E-16 -4.02860149E-15
 -4.00551358E-11  2.86708937E-15  5.87976871E-15  7.97276730E-11 -6.73624764E-15
 -2.11854375E-15 -4.96698636E-11  5.05155437E-15  6.84103569E-17  1.09384034E-11
 -1.72436942E-15 -5.40855338E-17 -9.49153567E-16 -4.28338511E-16  8.61826728E-17
 -3.75798462E-16  7.42433626E-16  1.36630723E-14  1.26908027E-14 -1.09932089E-15
  1.92483949E-15 -5.56310454E-16 -1.01673452E-14 -9.44059456E-15  8.38435131E-16
 -2.19497470E-15  1.76768174E-16  3.33746683E-15  2.45642907E-15 -2.51460523E-16
  1.27244654E-15  2.87917158E-08 -2.10750218E-07 -3.35757692E-02 -1.65988303E-06
 -1.04263148E-01  6.68553641E-07  2.60076790E-02 -3.38849180E-07  2.48031549E-06
  3.95152617E-01  1.95351332E-05  1.22707109E+00 -7.86819565E-06 -3.06083902E-01
  1.64134737E-07 -1.20143697E-06 -1.91407490E-01 -9.46259916E-06 -5.94379456E-01
  3.81126561E-06  1.48263605E-01  3.73645404E-17 -3.82818907E-16 -3.03431659E-16
  2.56030381E-17  5.81270841E-17 -1.58179846E-15  1.23436301E-15 -1.54256164E-17
 -1.02131946E-15 -2.89451865E-16  1.66987152E-15  8.59937043E-16 -4.83141020E-16
  2.05236211E-16  4.67588346E-15 -7.71499034E-15  5.18880023E-18  6.19537893E-15
  2.28235515E-16  5.24683616E-16  1.38248217E-15 -1.83252136E-15  1.03954864E-15
 -2.59312505E-16 -4.54267433E-17 -1.02765268E-11 -3.66367624E-16 -1.92035143E-15
 -9.83323860E-11 -3.47608048E-16  3.08410462E-15  1.95732218E-10  5.61876284E-16
 -2.27759220E-15 -1.21949841E-10 -1.70501460E-16  7.53091246E-16  2.68583698E-11
 -9.94142376E-18  4.23314506E-16  1.06282759E-15 -1.94026412E-15  3.03560172E-16
  1.31249768E-15 -4.56093518E-15 -4.24182892E-15  4.12726365E-14  1.04098650E-15
 -3.83172690E-14  3.27749461E-15  4.46939557E-15 -3.33493684E-14 -3.41700477E-16
  2.95801343E-14 -9.88576491E-16 -1.98839371E-15  1.16066429E-14 -5.71882971E-16
 -9.80566134E-15  7.06825911E-08 -6.82573257E-07 -8.24272557E-02  6.97412056E-07
  4.24703620E-02  1.51331899E-06  6.38478778E-02 -8.31862130E-07  8.03319226E-06
  9.70084874E-01 -8.20782981E-06 -4.99832918E-01 -1.78102237E-05 -7.51424514E-01
  4.02944674E-07 -3.89118812E-06 -4.69898219E-01  3.97578059E-06  2.42113452E-01
  8.62707233E-06  3.63981596E-01  1.65571440E-16 -1.59068616E-15 -1.13068262E-15
  7.44166172E-16  1.34798627E-16 -1.48104187E-15 -5.91597262E-16  1.79708880E-16
  3.96444396E-16 -1.15878930E-15  1.02968368E-14  7.96665441E-15 -4.57857115E-15
 -2.27370252E-15  8.17091493E-15  2.13232356E-15 -3.76650417E-16 -2.60913349E-15
 -5.13804165E-16 -1.21157950E-15 -3.22608884E-15  4.15758029E-15 -2.20900901E-15
  5.43501397E-16 -8.56479809E-04  6.84817683E-09  2.19091812E-08 -3.68795704E-02
  2.94878897E-07  9.43397832E-07  6.95448949E-02 -5.56061844E-07 -1.77899315E-06
 -3.98521162E-02  3.18646555E-07  1.01943704E-06  1.14531262E-02 -9.15760460E-08
 -2.92976690E-07  3.73629711E-16  9.60862565E-17  3.11037751E-16  5.23435561E-16
  3.38926024E-16 -2.63938449E-15 -3.78937191E-15 -3.43400351E-15 -1.40402429E-15
 -2.06944548E-15  1.71268451E-15  2.73585274E-15  2.81921614E-15  1.39421022E-15
  1.17881974E-15 -5.90956750E-16 -1.04532596E-15 -8.59793617E-16 -1.15557173E-15
 -3.37257129E-16 -1.76590463E-06  2.81827000E-02 -2.25343639E-07 -2.27977207E-06
  6.24356028E-08  1.09151128E-01 -2.61822519E-06  2.07427479E-05 -3.31040891E-01
  2.64694152E-06  2.67787606E-05 -7.33383873E-07 -1.28211586E+00  3.07543138E-05
 -1.00198330E-05  1.59910079E-01 -1.27861131E-06 -1.29355431E-05  3.54262802E-07
  6.19329072E-01 -1.48559434E-05 -2.02452628E-18 -4.94545144E-16  2.14244064E-18
 -3.11449096E-16 -7.94347551E-16  2.15145107E-17  3.20297727E-16  1.47945520E-16
 -5.26967545E-16 -7.76586720E-16  2.14451363E-15 -1.35152949E-15  1.56132522E-15
  3.64922636E-15 -7.45754465E-16 -1.71772104E-15 -1.15683941E-16  2.96222444E-15
  4.71829452E-17  6.06235688E-17  1.41813524E-16 -3.20185250E-16  2.62755578E-16
 -4.68013152E-17  2.19091841E-08  2.99660069E-10  8.56479804E-04  9.43397937E-07
  1.29031897E-08  3.68795703E-02 -1.77899335E-06 -2.43319237E-08 -6.95448949E-02
  1.01943715E-06  1.39432042E-08  3.98521162E-02 -2.92976722E-07 -4.00714723E-09
 -1.14531262E-02  3.17186952E-16  5.69955081E-17  1.07518090E-15 -1.73529986E-17
 -1.41425559E-15 -2.17701373E-15 -1.65867596E-14 -1.95900166E-14  4.80466483E-15
  3.40909313E-14  1.58520132E-15  1.27549340E-14  1.58031604E-14 -3.73280447E-15
 -2.76953570E-14 -5.44627382E-16 -3.73918028E-15 -5.43266403E-15  9.21480178E-16
  1.01687059E-14 -6.90332345E-02 -7.20928416E-07 -1.08522052E-07 -8.91215225E-02
  1.42517916E-06 -2.79214129E-06 -3.81444817E-08  8.10881266E-01  8.46820159E-06
  1.27472659E-06  1.04684321E+00 -1.67405031E-05  3.27971748E-05  4.48054418E-07
 -3.91698098E-01 -4.09058464E-06 -6.15759668E-07 -5.05680069E-01  8.08653931E-06
 -1.58427522E-05 -2.16433738E-07  3.87027637E-17  7.32231796E-17  1.08326544E-16
  1.71122756E-17  1.82581702E-15 -6.30485758E-16 -8.82809291E-16  1.62294598E-16
  2.19584944E-16 -3.53771326E-16  2.24814193E-15 -2.29044087E-15 -1.22519946E-15
 -1.04050225E-14  1.41757338E-15  4.27078167E-15 -9.89231849E-17  2.24328450E-15
  7.31033367E-17  1.87985706E-16  5.22689422E-16 -6.80006935E-16  3.75250012E-16
 -8.19221178E-17  9.38888513E-09  1.17423946E-03 -4.11075765E-10  3.66555425E-07
  4.58439787E-02 -1.60489900E-08 -7.03234480E-07 -8.79514098E-02  3.07898945E-08
  4.01065254E-07  5.01600185E-02 -1.75599427E-08 -1.15142182E-07 -1.44004845E-02
  5.04129977E-09  1.89459333E-16 -5.50159771E-17 -5.43680843E-16  3.09391087E-16
  6.66604496E-16 -1.79713752E-15  9.04812000E-15  1.11365599E-14 -2.24141003E-15
 -1.73311681E-14  1.20089404E-15 -6.21144923E-15 -8.77818073E-15  2.02754630E-15
  1.36046081E-14 -3.51700213E-16  1.48778912E-15  3.54626613E-15 -1.11623264E-15
 -4.81340601E-15  5.92054025E-08 -5.52048678E-07 -6.90430586E-02  7.64338366E-08
 -1.22538198E-12 -2.13807534E-06 -8.91342051E-02 -6.95104935E-07  6.48136391E-06
  8.10604583E-01 -8.97376490E-07  1.43913533E-11  2.51022145E-05  1.04648601E+00
  3.35444667E-07 -3.12778524E-06 -3.91182640E-01  4.33057141E-07 -6.94547577E-12
 -1.21138602E-05 -5.05014616E-01 -5.24530245E-17  2.70895328E-16  1.67830598E-16
 -9.52901088E-17  4.02307857E-16  2.78399376E-16 -5.33602842E-16  5.50399871E-17
  2.84857537E-16  2.27381276E-16 -6.44498911E-16  1.24418546E-15  6.28440062E-16
 -2.64286472E-15 -4.12060930E-15  4.00886019E-15 -3.79123104E-17 -9.14248152E-16
  2.94976071E-17  4.53034517E-17  9.77513581E-17 -1.56490849E-16  1.07834611E-16
 -3.02732571E-17 -1.44385510E+00  1.15446382E-05 -4.85203472E-05  1.84627614E+00
 -1.47622777E-05  6.20435937E-05 -1.23267651E+00  9.85611661E-06 -4.14237495E-05
  5.55534782E-01 -4.44189174E-06  1.86685911E-05 -1.65857609E-01  1.32614836E-06
 -5.57359860E-06  6.05461487E-16  1.33501318E-15 -1.23608685E-15 -1.90810014E-15
  1.32618919E-15 -6.23991222E-16 -9.07583699E-16  1.33055696E-15  1.58081938E-15
 -6.50384324E-16  3.83029445E-16  1.91717494E-16 -7.81180592E-16 -9.01341240E-16
 -3.71024109E-16 -1.83019379E-16  8.47838469E-17  1.57741961E-16  4.12055910E-16
  1.80380878E-16  7.81088070E-07  9.48907959E-03 -7.58707509E-08  1.00838070E-06
  2.09935883E-08  3.67510473E-02 -8.81552365E-07 -5.32807209E-07 -6.47282965E-03
  5.17540663E-08 -6.87851377E-07 -1.43204521E-08 -2.50691615E-02  6.01337383E-07
  2.15932158E-07  2.62326045E-03 -2.09745050E-08  2.78767310E-07  5.80368603E-09
  1.01598440E-02 -2.43705559E-07 -7.02055983E-16  1.52247454E-14  1.97185421E-14
  8.87478154E-15  5.69413203E-15 -3.55569906E-15 -1.83653572E-14 -7.26326113E-16
 -1.19133095E-14  3.39422933E-16 -6.95383560E-15 -9.41421814E-15 -4.83152799E-15
 -2.94058514E-15  1.36817698E-15  8.44541112E-15  3.46241065E-16  5.53142949E-15
  1.01621206E-18 -1.66115376E-19 -6.15781506E-18  1.08046699E-17 -9.27946871E-18
  3.70104363E-18 -4.85203432E-05  5.05851248E-07  1.44385510E+00  6.20435886E-05
 -6.46838521E-07 -1.84627614E+00 -4.14237461E-05  4.31865331E-07  1.23267651E+00
  1.86685896E-05 -1.94630313E-07 -5.55534782E-01 -5.57359813E-06  5.81078248E-08
  1.65857609E-01  1.62906963E-17  3.58374253E-15  5.69123447E-15 -5.39639859E-17
  8.10951538E-15 -4.17857670E-17 -1.42962998E-15 -4.86294557E-15  4.05135888E-17
 -6.87908498E-15  2.43556116E-17  1.25933543E-16  2.67908307E-15 -2.40366197E-17
  2.97142172E-15 -5.15013269E-18 -4.11546941E-16 -1.34102886E-15  1.02612318E-17
 -3.40257443E-16 -2.32434032E-02  3.18877576E-07 -3.65437558E-08 -3.00071045E-02
  4.79857260E-07  1.23500837E-06 -1.28953965E-08  1.58551299E-02 -2.17517432E-07
  2.49277609E-08  2.04688846E-02 -3.27327246E-07 -8.42441956E-07  8.79639553E-09
 -6.42564956E-03  8.81538535E-08 -1.01025391E-08 -8.29547791E-03  1.32656761E-07
  3.41418634E-07 -3.56493878E-09 -1.96221822E-16 -2.59110956E-14  1.31460240E-15
  2.51017831E-15 -1.29494973E-14 -6.28720604E-15  3.61825242E-14 -2.18354539E-16
 -2.66916784E-14  1.02315197E-16  1.31573433E-14 -1.16065544E-15 -1.24271151E-15
  7.21892247E-15  3.15454116E-15 -1.91916639E-14  1.04729902E-16  1.31823786E-14
  2.75754074E-18  7.11989497E-18  1.96980146E-17 -2.66294487E-17  1.50739363E-17
 -3.27256722E-18 -1.15194498E-05 -1.44070275E+00  5.04359723E-07  1.48443355E-05
  1.85653614E+00 -6.49934240E-07 -9.90585180E-06 -1.23889492E+00  4.33711039E-07
  4.45143732E-06  5.56727800E-01 -1.94898684E-07 -1.32687112E-06 -1.65947757E-01
  5.80948161E-08  1.10888777E-16 -1.18705401E-14 -3.44958113E-14  2.63548426E-16
 -1.78020984E-14 -9.44819038E-17  8.70717824E-15  2.54035313E-14 -2.22216219E-16
  1.24414878E-14  4.01886044E-17 -1.65521841E-15 -9.20205062E-15  1.15597580E-16
 -3.33262760E-15 -1.02982927E-17 -1.06173935E-15  1.76808153E-15 -5.85089788E-17
  2.40021550E-16 -2.57015443E-08  2.39648685E-07  2.99721359E-02 -3.31805622E-08
  5.31003745E-13  9.28155361E-07  3.86938611E-02  1.74686324E-08 -1.62882623E-07
 -2.03712369E-02  2.25519164E-08 -3.60701794E-13 -6.30841686E-07 -2.62991538E-02
 -7.04039586E-09  6.56467081E-08  8.21023518E-03 -9.08911650E-09  1.45030113E-13
  2.54248606E-07  1.05993680E-02 -1.53399770E-15  1.21773326E-14  3.38090681E-15
  5.05655066E-16 -7.04638515E-15  2.02770323E-14  6.36343618E-15  1.73197196E-16
 -1.24304305E-14  7.26721337E-16 -5.92486955E-15 -1.41791915E-15 -2.09475556E-16
  3.53643831E-15 -9.43829395E-15 -2.79882445E-15 -8.17945761E-17  5.92718838E-15
  9.15508164E-15  1.00980176E-14  3.49075251E-15 -4.44663311E-15  3.47628549E-15
 -1.46262446E-15  1.88318769E-14  4.91377774E-15  2.54677800E-14 -2.47471097E-14
 -6.21580811E-15 -3.32735507E-14  1.71760879E-14  3.61866352E-15  2.29286343E-14
 -8.46857282E-15 -1.56174846E-15 -1.07316215E-14  2.77442136E-15  3.24023407E-16
  3.33267980E-15 -1.11429284E-14  3.14079473E-11 -6.76277323E-15  2.60687463E-14
 -2.29703055E-15  1.03075118E-14 -1.64725742E-11  6.34971626E-15 -2.26550058E-14
  1.42931058E-15 -6.21971484E-15  3.34027508E-12 -2.94320802E-15  1.36724570E-14
 -9.34036384E-16  2.81223530E-15 -2.96122269E-12  7.17963152E-16 -6.01173451E-15
  3.89261870E-16 -5.62647714E-15  5.94719125E-16 -6.04093227E-15 -4.13214398E-15
  3.17191466E-15 -8.58224164E-15  6.06901317E-15  2.57927835E-15  3.43766533E-16
  2.59870516E-15  1.70889087E-15 -1.97529190E-15  5.39440691E-15 -3.64354659E-15
 -9.15702259E-16 -4.03123516E-16 -7.26816285E-16 -8.86320229E-16  9.48285801E-17
 -2.64873024E-15  1.50192921E-15  4.08548370E-11  1.15963619E+00 -9.27212161E-06
 -2.74366646E-11  5.74119959E-07 -4.38301281E-01  1.05135976E-05 -2.78563724E-14
 -2.16996890E-07 -1.95338543E-11 -5.54456599E-01  4.43327749E-06  1.31168807E-11
 -2.74503852E-07  2.09564896E-01 -5.02686415E-06  1.33162944E-14  1.03752677E-07
 -1.77779553E-15  1.20682319E-15  1.99920272E-14 -3.53483036E-14  2.79228947E-14
 -9.71414822E-15 -7.36875652E-15 -1.69780541E-15  2.12848972E-15  9.36606701E-15
  2.23579107E-15 -2.78710906E-15 -6.23837834E-15 -1.55796705E-15  1.94297947E-15
  2.70180370E-15  7.57632047E-16 -9.25145445E-16 -6.66186662E-16 -2.32344212E-16
  2.91775421E-16  2.71935202E-11  4.30223490E-16 -1.34949376E-15 -1.56964638E-11
 -8.88565823E-16 -1.42579694E-11 -7.24684720E-17  1.19505614E-15  8.23738557E-12
  8.54205465E-16  2.88964771E-12 -2.19630453E-17 -5.77571494E-16 -1.67637890E-12
 -3.89375806E-16 -2.56393378E-12  2.27181650E-17  1.54454615E-16  1.48484611E-12
  9.41410092E-17 -1.88822195E-17 -9.68136399E-16  3.77917877E-16 -1.18276098E-15
  4.93381477E-16  7.30205083E-15 -2.00628910E-16 -4.40721188E-17  1.07448181E-15
 -3.14489537E-16  2.98848210E-16 -3.51351345E-16 -4.95412094E-15  1.98146164E-16
  1.25715861E-16 -6.10335955E-16  1.86878414E-16 -3.30547922E-17  1.30207900E-16
  2.13468201E-15  2.38212925E-17  9.16772903E-01 -4.84913976E-11  4.05964174E-07
 -8.19986613E-01  1.31127599E-05  8.48150799E-12 -4.60320104E-07  1.54962904E-01
 -4.95615738E-06 -4.38336429E-01  2.31857685E-11 -1.94103562E-07  3.92060021E-01
 -6.26960102E-06 -4.05562166E-12  2.20092752E-07 -7.40923796E-02  2.36968645E-06
 -2.53994005E-15 -2.34185550E-15  2.02774124E-15 -4.95059590E-15  3.96220814E-15
 -1.29436519E-15  1.06480097E-14 -2.34378256E-15  1.81898937E-15 -1.36392596E-14
  3.29899237E-15 -2.10779202E-15  9.78505514E-15 -1.31281294E-15  1.52151528E-15
 -3.89164944E-15 -6.74855135E-16 -7.83979968E-16  2.54977869E-16  4.33516641E-16
  2.85656971E-16  1.59731192E-14 -5.19906376E-15 -7.61130463E-13 -2.49025294E-14
  2.32245029E-11 -1.48037165E-14  2.38044817E-15  3.22520595E-13  2.33341304E-14
 -9.81658917E-12  7.93713196E-15 -6.73311109E-16 -3.95805961E-14 -1.39298652E-14
  1.19502908E-12 -3.24634504E-15 -3.59505855E-17  5.75104337E-14  6.28029033E-15
 -1.74960085E-12 -9.29988819E-15  7.34971472E-16 -5.57199461E-15 -6.15558299E-16
  7.97706498E-15  7.39369979E-15  4.08107447E-15  5.55931973E-15 -1.04924394E-15
  4.11013448E-15  1.05652629E-15 -5.27641626E-15 -4.88990114E-15 -2.58163111E-15
 -1.75989913E-15  5.52560831E-16 -1.76036895E-15 -5.48345332E-16  1.42473176E-15
  2.39205677E-15  7.33456442E-16  2.97739573E-08 -1.07561092E-06 -2.68948152E-02
  1.85310574E-05  1.15881165E+00  1.89401851E-07  3.04958540E-02 -1.40232608E-05
 -4.37989636E-01 -1.42093669E-08  5.13326145E-07  1.28353214E-02 -8.84378924E-06
 -5.53032985E-01 -9.03904174E-08 -1.45538864E-02  6.69248172E-06  2.09026821E-01
  6.41899599E-15  6.85015282E-15  2.31567744E-16  1.49622251E-15 -2.52815125E-15
  9.35664619E-16  3.25079899E-14 -3.15509498E-15  3.10986483E-14 -4.32398091E-14
  4.43716713E-15 -4.11393186E-14  3.01927862E-14 -3.52494373E-15  2.94000782E-14
 -1.40784530E-14  2.15936564E-15 -1.43955106E-14  4.32405887E-15 -9.90079180E-16
  4.70827551E-15  1.21292562E-14  3.14838232E-15  2.32119101E-11 -2.35493191E-14
  7.57399413E-13 -1.19193065E-14 -2.19505524E-15 -9.81017959E-12  2.03605405E-14
 -3.19970805E-13  6.10077130E-15  8.93832341E-16  1.19308699E-12 -1.30504299E-14
  3.82660310E-14 -2.43995564E-15 -4.52925098E-16 -1.74948060E-12  5.64021513E-15
 -5.69638017E-14 -4.58500736E-16 -7.89880188E-16  4.01439999E-15  8.21524753E-16
 -3.83056987E-15  6.01748444E-15  9.75600818E-16 -7.13431322E-16 -9.99350453E-17
 -3.65224355E-15  4.69891338E-16  2.89520480E-15 -4.01638148E-15 -8.05925292E-17
 -5.47484065E-17  3.06653605E-17  1.86965729E-15 -8.69878614E-16 -1.44734783E-15
  2.51293361E-15 -3.32392511E-16 -9.07117985E-07  6.52347241E-06  8.19403578E-01
  6.08234365E-07  3.80350124E-02 -2.23046438E-05 -9.29116324E-01  2.10902435E-10
 -1.43758834E-02  4.32914328E-07 -3.11327162E-06 -3.91053374E-01 -2.90274666E-07
 -1.81518855E-02  1.06447012E-05  4.43412848E-01 -1.00651431E-10  6.86076786E-03
  1.63043147E-15  1.27594855E-15 -3.29967446E-15  6.13187320E-15 -4.72347434E-15
  1.64516857E-15 -2.51094608E-15 -2.68880430E-14 -1.80351717E-14  3.29063310E-15
  3.50325798E-14  2.36124262E-14 -2.30725987E-15 -2.37274903E-14 -1.62396618E-14
  1.18771208E-15  1.05315107E-14  7.31236084E-15 -5.03006316E-16 -3.11085493E-15
 -1.94050471E-15  1.71030156E-13  8.30533973E-03 -6.64071321E-08 -3.05867478E-14
  2.90751949E-09  1.17953681E-13  6.50722648E-03 -5.20299404E-08 -4.95294489E-14
  2.27804848E-09 -8.56115452E-14 -4.60718398E-03  3.68377369E-08  3.26014662E-14
 -1.61288100E-09  2.22002111E-14  1.20980977E-03 -9.67329571E-09 -9.82923386E-15
  4.23529614E-10 -1.11024279E-14  2.14308432E-15  4.34291128E-15  5.99471581E-15
  2.55087059E-15 -2.29021212E-15 -1.15093912E-14  6.88216239E-15 -9.87448524E-16
 -3.30724379E-15 -4.04040158E-15 -1.87566154E-15  1.52937962E-15  6.62126824E-15
 -2.42805490E-15  2.51467153E-16  1.00592176E-15  1.67446340E-15  1.75717825E-15
 -6.99142626E-16 -2.53882371E-15 -1.55398764E-11 -4.38138547E-01  3.50323143E-06
 -3.11971158E-11 -1.08458205E-06 -1.15920563E+00  2.78060368E-05  3.59040259E-14
 -5.73907040E-07  7.40652076E-12  2.08817689E-01 -1.66964695E-06  1.48681815E-11
  5.16913928E-07  5.52479674E-01 -1.32524116E-05 -1.69824222E-14  2.73525220E-07
 -8.47458493E-14  6.25151853E-14  5.12948642E-13 -3.68917621E-13 -3.46131663E-16
  6.55402124E-14 -5.70142896E-15  8.49097968E-16  1.50549956E-15  7.39815581E-15
 -1.02947506E-15 -2.01266484E-15 -5.02941245E-15  4.00524069E-16  1.36799925E-15
  2.23292856E-15  1.21053229E-16 -5.93156780E-16 -5.50779210E-16 -7.98544340E-17
  1.70590781E-16  7.19263518E-03 -1.62448834E-13  2.90752295E-09 -4.15266989E-03
  6.64071357E-08  5.63542344E-03 -1.28040152E-13  2.27804420E-09 -3.25361324E-03
  5.20299346E-08 -3.98993837E-03  9.05215413E-14 -1.61287865E-09  2.30359199E-03
 -3.68377343E-08  1.04772600E-03 -2.37646944E-14  4.23529066E-10 -6.04904887E-04
  9.67329526E-09  2.21972241E-16 -6.42570718E-17  6.56911810E-17 -1.16789618E-15
  3.67935036E-16 -9.92564586E-15  2.83866502E-16 -2.24294911E-16  4.56909038E-16
 -1.93999854E-16  2.89117481E-16 -2.75430371E-16  6.56980403E-15 -7.46582829E-17
  1.82279901E-16 -3.22329845E-16  1.20553843E-16 -1.14023720E-17  9.71358992E-17
 -3.21407038E-15  1.33813311E-16 -6.92757869E-01 -3.04704931E-14 -1.22706453E-06
 -6.19621474E-01  9.90863460E-06  2.59991415E-11 -7.47310738E-14  8.19682165E-01
 -2.62157828E-05  3.30169756E-01  1.48445830E-14  5.84821358E-07  2.95312807E-01
 -4.72247464E-06 -1.23916646E-11  3.62945279E-14 -3.90662124E-01  1.24944934E-05
  5.54611269E-15  6.28225385E-15  2.56562075E-15 -3.36817145E-15  1.85994818E-15
 -2.29487596E-16 -1.08214654E-14 -1.69909444E-14  3.55060946E-14  1.46322285E-14
  2.34621478E-14 -4.75286174E-14 -1.01096614E-14 -1.65748244E-14  3.40341187E-14
  5.24636983E-15  7.57342313E-15 -1.67549811E-14 -2.24057303E-15 -2.43861054E-15
  5.12571295E-15 -8.31546383E-13  3.58420292E-09  1.37941103E-06 -1.63220917E-07
 -1.02067421E-02 -8.69398511E-13  3.69441905E-09  1.42183398E-06 -1.68240654E-07
 -1.05206443E-02  5.87575773E-13 -2.50018532E-09 -9.62220594E-07  1.13856207E-07
  7.11980496E-03 -1.56956846E-13  6.67481549E-10  2.56886658E-07 -3.03965010E-08
 -1.90079376E-03  8.78570489E-16 -2.75244134E-15 -1.06822737E-14  3.61792395E-15
  9.48464916E-16  5.89652489E-15 -5.80911246E-15 -2.02454734E-15  1.53814156E-15
  5.46287355E-15 -1.52192928E-15 -3.85883522E-16 -3.65539284E-15  3.60058499E-15
  4.26301994E-17 -7.81847668E-16 -2.23038640E-15 -2.00930756E-16 -5.38421863E-16
  1.54299631E-15 -1.28896956E-15  1.39168324E-10 -3.26333296E-07 -1.25592402E-04
  7.00564616E-06  4.38077108E-01 -8.63396590E-07 -1.10762069E-04  3.70695717E-05
  1.15904308E+00 -6.62737903E-11  1.55404439E-07  5.98088430E-05 -3.33618581E-06
 -2.08618391E-01  4.11161424E-07  5.27464327E-05 -1.76530439E-05 -5.51952382E-01
 -2.42404920E-15 -2.42242770E-15  1.21374532E-16 -4.68848546E-16  1.07967303E-16
  2.35811897E-16  3.20978891E-15  8.12543884E-15 -2.93679852E-14 -4.02063378E-15
 -1.17064885E-14  3.90119112E-14  2.45345439E-15  9.33386823E-15 -2.78206070E-14
 -9.30218142E-16 -5.73750825E-15  1.36186400E-14  2.40108878E-16  2.08321590E-15
 -4.32578710E-15  6.18891054E-09 -8.16097366E-08 -1.02067421E-02  3.55111266E-09
 -1.37941111E-06  6.37923442E-09 -8.41195790E-08 -1.05206443E-02  3.66031369E-09
 -1.42183407E-06 -4.31712300E-09  5.69275987E-08  7.11980496E-03 -2.47710473E-09
  9.62220656E-07  1.15255378E-09 -1.51981163E-08 -1.90079376E-03  6.61319145E-10
 -2.56886675E-07 -4.26964118E-15 -1.30521126E-15 -4.22806360E-15  2.24230589E-15
  4.53816650E-15  6.07001670E-16 -4.09104145E-15  2.79331559E-15  1.13240229E-15
  2.95994232E-15 -1.04082421E-15 -2.32791192E-15 -4.11445843E-16  8.60613490E-16
 -1.23541560E-15 -6.10770155E-16 -3.73661435E-16 -6.11718175E-17  1.33536813E-15
  2.02695692E-16 -8.69141141E-16 -1.02878068E-06  7.43038992E-06  9.29301881E-01
 -1.22594579E-06  5.92048471E-05  1.96589638E-05  8.19567223E-01 -4.00746764E-07
  1.56641263E-04  4.89919621E-07 -3.53845468E-06 -4.42546438E-01  5.83812377E-07
 -2.81941689E-05 -9.36187107E-06 -3.90289272E-01  1.90841164E-07 -7.45947406E-05
  9.02423618E-05  6.40546090E-06 -2.74564866E-04  2.10891680E-04 -9.40581636E-05
  2.93896818E-05 -5.21645595E-15  2.15715277E-16  1.37661713E-15  6.77826247E-15
 -2.77702401E-16 -1.81681007E-15 -4.48515300E-15  3.29689121E-16  1.34937031E-15
  1.86015152E-15 -2.95887362E-16 -7.06477024E-16 -4.14130533E-16  1.09151662E-16
  2.24306798E-16  5.32207917E-03  5.23179696E-14  6.45413192E-09  9.21811152E-03
 -1.47410805E-07  5.99546544E-03  5.78421383E-14  7.27075678E-09  1.03844507E-02
 -1.66062237E-07 -4.00531662E-03 -3.87734384E-14 -4.85728448E-09 -6.93741188E-03
  1.10939150E-07  1.07436684E-03  1.04069597E-14  1.30289460E-09  1.86085796E-03
 -2.97577834E-08  2.00045558E-16 -6.43798649E-16  2.99630230E-16 -1.32003306E-15
  5.03127428E-16 -7.71888305E-15 -1.52926226E-16 -1.24601986E-16  8.08198785E-16
 -1.82384042E-16  4.73242889E-16 -4.22400652E-16  4.89805392E-15  2.15942446E-16
  1.28073373E-16 -5.19398519E-16  1.54542500E-16 -1.25489272E-16  1.65934912E-16
 -2.44125164E-15 -7.38833957E-18 -4.64627736E-01 -8.27164847E-12 -1.02872928E-06
 -6.92626135E-01  1.10760837E-05 -2.17755103E-11 -9.07254032E-07 -9.16258251E-01
  2.93045628E-05  2.21201640E-01  3.93828815E-12  4.89761125E-07  3.29747935E-01
 -5.27314167E-06  1.03666366E-11  4.31928755E-07  4.36215515E-01 -1.39514214E-05
  3.98585138E-13 -3.44124898E-12 -2.45080332E-11  4.56964761E-11 -4.21167958E-11
  1.95355053E-11 -1.55106729E-15  2.95420075E-17  2.02078175E-16  1.27847328E-15
 -1.34002537E-17 -3.16470704E-16 -3.79196164E-16 -1.35748005E-16  1.84287390E-16
  1.90376202E-16  2.11065550E-16 -4.25935203E-17 -1.52648806E-16 -8.42499129E-17
  6.60714595E-18 -1.20482568E+00  2.72422684E-11 -4.87034315E-07  6.95606429E-01
 -1.11237427E-05  1.02742085E+00 -2.32309715E-11  4.15320838E-07 -5.93181705E-01
  9.48582476E-06 -4.82788069E-01  1.09163001E-11 -1.95160479E-07  2.78737822E-01
 -4.45741686E-06  1.51851756E-01 -3.43351350E-12  6.13839971E-08 -8.76716521E-02
  1.40199524E-06  3.14219025E-15  2.16844838E-14 -1.86995304E-16  3.13903489E-15
 -2.49575151E-15  1.38958611E-15 -6.95970215E-18 -1.82289994E-15 -1.44050742E-14
  2.54334525E-16 -1.74902710E-15  1.45127315E-15 -8.24016544E-16  1.38151859E-17
  6.72290399E-16  5.15624634E-15 -4.06370491E-16  4.97133705E-16 -4.93740420E-16
  5.91685202E-16 -2.25636943E-17 -4.27037575E-03 -2.08960050E-14 -7.56399294E-09
 -3.81954022E-03  6.10799457E-08  1.67307159E-13 -1.40959305E-14  5.05277677E-03
 -1.61602269E-07  1.21547222E-03  1.13866399E-14  2.15292666E-09  1.08715142E-03
 -1.73851234E-08 -4.94049292E-14  7.37713789E-15 -1.43816614E-03  4.59966706E-08
 -5.00389415E-18 -9.07833556E-18 -2.71123980E-17  4.68769331E-17 -3.24750228E-17
  1.11498875E-17 -1.32325102E-15  1.54069182E-14  2.18004712E-15  1.64394553E-15
 -2.14360390E-14 -1.91292924E-15 -9.78652824E-16  1.51052560E-14  1.04100925E-15
  4.36376025E-16 -6.22204012E-15 -7.84564462E-16 -1.67484686E-16  1.54931596E-15
  3.63952544E-16 -2.69646358E-11 -1.39121286E+00  1.11237426E-05  7.78040429E-12
 -4.87034390E-07  2.29942282E-11  1.18636341E+00 -9.48582466E-06 -6.63476875E-12
  4.15320902E-07 -1.08050585E-11 -5.57475643E-01  4.45741681E-06  3.11769766E-12
 -1.95160509E-07  3.39852402E-12  1.75343304E-01 -1.40199523E-06 -9.80616192E-13
  6.13840067E-08 -1.51017913E-13  3.96543720E-14  5.74941707E-14  4.44883428E-14
  1.09938129E-14 -4.78749907E-15  1.61238151E-14  9.14094844E-14 -2.38198521E-14
 -3.44399776E-14 -2.78353491E-14 -8.36575182E-15  2.95852811E-15 -1.08494852E-14
 -3.26103978E-14  8.30821884E-15  1.14059720E-14  9.77562787E-15  3.33806180E-15
 -1.05947812E-15  4.13297629E-15 -9.58485635E-14 -2.70082276E-03  2.15950074E-08
 -1.93061715E-13 -6.68570439E-09 -7.14570543E-03  1.71405083E-07 -9.85108373E-17
 -3.53773377E-09  2.73522712E-14  7.68732122E-04 -6.14656192E-09  5.51875119E-14
  1.90294489E-09  2.03387406E-03 -4.87868333E-08  3.63231219E-17  1.00693970E-09
  3.96954720E-16  7.15179142E-16  1.57818494E-15 -2.18225877E-15  1.35281264E-15
 -4.23802106E-16  1.32322596E-15 -1.79319840E-14 -8.96181106E-15 -2.27298581E-15
  2.43753660E-14  1.20868516E-14  7.66459440E-16 -2.02441336E-14 -9.30374038E-15
 -7.17971239E-16  1.31600266E-14  4.61588297E-15  1.14102144E-15 -4.92381078E-15
 -9.69901723E-16 -5.49028863E-11 -4.86323594E-07  9.05445872E-05  2.22480555E-05
  1.39125049E+00  4.69466728E-11  4.15848773E-07 -7.74234603E-05 -1.90240134E-05
 -1.18963960E+00 -2.19998337E-11 -1.94872419E-07  3.62816916E-05  8.91491270E-06
  5.57481377E-01  6.90880988E-12  6.11973634E-08 -1.13938335E-05 -2.79962225E-06
 -1.75070393E-01 -3.37884373E-13  3.46324330E-14  5.57092578E-14  2.63507970E-13
 -3.28757177E-14 -6.49951506E-15  3.38161843E-14  2.11510073E-13 -2.12991573E-14
 -3.33543971E-14 -1.65980460E-13  2.07334299E-14  4.19829565E-15 -2.20255802E-14
 -7.81753230E-14  7.79103509E-15  1.16018685E-14  6.13355039E-14 -7.72850402E-15
 -1.56025853E-15  8.68168649E-15 -5.07363846E-13 -2.46089985E-09  4.58174678E-07
  5.30701170E-08  3.31869745E-03 -6.51093406E-09  4.04072221E-07  2.80823676E-07
  8.78044818E-03  1.31520704E-13  6.37838587E-10 -1.18753923E-07 -1.37552003E-08
 -8.60170498E-04  1.68756496E-09 -1.04731151E-07 -7.27864610E-08 -2.27579725E-03
 -1.85660274E-17 -2.88720266E-17 -5.54768394E-17  8.64755493E-17 -6.25828031E-17
  2.25962502E-17 -1.43569766E-15 -3.93175632E-14 -8.04515772E-15  1.88587975E-15
  5.66441215E-14  1.12331745E-14 -1.51581219E-15 -4.47970021E-14 -8.74246269E-15
  8.70432615E-16  2.44270123E-14  4.75654199E-15 -2.83468831E-16 -8.19370770E-15
 -1.34777020E-15 -8.43590993E-07  1.11240752E-05  1.39125049E+00 -4.88495423E-07
 -9.05445755E-05  7.21343327E-07 -9.51204727E-06 -1.18963960E+00  4.17705875E-07
  7.74234503E-05 -3.38031342E-07  4.45747535E-06  5.57481377E-01 -1.95742682E-07
 -3.62816870E-05  1.06154720E-07 -1.39981709E-06 -1.75070393E-01  6.14706600E-08
  1.13938321E-05 -8.31488290E-14  2.73051393E-14  2.85533062E-14  2.25023466E-14
  7.10885460E-15 -4.66460330E-15 -2.89680580E-14  5.14238351E-14 -1.69340410E-14
 -1.89587724E-14 -1.36356752E-14 -4.65598446E-15  2.66882772E-15  1.82696451E-14
 -1.86192974E-14  6.15465760E-15  7.00243415E-15  4.99608972E-15  1.91224676E-15
 -1.07733886E-15 -6.63012965E-15 -7.79363247E-09  5.62901713E-08  7.04002043E-03
 -9.29790496E-09 -2.15985457E-07  1.48929777E-07  6.20871445E-03 -3.09212646E-09
 -5.71444102E-07  2.02002536E-09 -1.45898053E-08 -1.82469718E-03  2.40991698E-09
  5.59810951E-08 -3.86009880E-08 -1.60923167E-03  8.01445775E-10  1.48112134E-07
 -2.92946692E-03 -9.53359229E-03 -3.37284882E-02  4.61940653E-02 -2.56808480E-02
  7.57034712E-03 -1.60932072E-15  2.86818319E-16  2.01114820E-16  1.34632404E-15
 -2.01452239E-16 -4.07984819E-16 -7.04696709E-16 -1.02193341E-15 -3.36540253E-18
  6.06049921E-16  1.66424715E-15  3.17905156E-16 -3.08597741E-16 -6.68880543E-16
 -1.42266796E-16  6.95587286E-01  6.74527227E-12  8.43544961E-07  1.20479252E+00
 -1.92663574E-05 -5.95241426E-01 -5.77237576E-12 -7.21854633E-07 -1.03098839E+00
  1.64869805E-05  2.78670691E-01  2.70244446E-12  3.37946454E-07  4.82671795E-01
 -7.71861307E-06 -8.74642806E-02 -8.48192609E-13 -1.06068720E-07 -1.51492578E-01
  2.42258322E-06  4.83981020E-15  1.60298347E-13 -1.50104166E-15  3.93324523E-15
 -3.96531596E-15 -4.10331050E-14  2.80106195E-15 -3.14957157E-15 -1.01690579E-13
  7.13995645E-16 -2.52359215E-15  2.55211307E-15  2.64747646E-14 -1.73198516E-15
  1.26588166E-15  3.76865541E-14 -6.90700301E-16  8.30728258E-16 -9.24377248E-16
 -9.76703539E-15  7.12680439E-16  3.67162959E-03  5.60290938E-14  8.12933405E-09
  5.47334224E-03 -8.75265642E-08  1.94177995E-13  7.16938172E-09  7.24055122E-03
 -2.31573560E-07 -9.16409652E-04 -1.10616492E-14 -2.02901801E-09 -1.36610285E-03
  2.18459326E-08 -5.47410510E-14 -1.78941665E-09 -1.80718422E-03  5.77989252E-08
  3.16336744E-17  9.13745028E-17  3.25369873E-16 -4.81941236E-16  3.09130467E-16
 -1.07075007E-16 -2.69383832E-12 -1.05148725E-14  2.96419416E-11  4.07987050E-12
  1.56949369E-14 -4.49003315E-11 -3.27914783E-12 -1.41897773E-14  3.60948073E-11
  1.65354423E-12  9.09881232E-15 -1.82068507E-11 -3.14809406E-13 -3.49373929E-15
  3.47594046E-12 -6.37462040E-15  1.71260144E-13 -9.24914802E-14 -1.40559174E-14
 -4.87871358E-13  5.46358031E-15 -1.45682274E-13  7.65354069E-14  1.20311050E-14
  4.21924786E-13 -2.56840587E-15  6.68081449E-14 -3.24335439E-14 -5.55419927E-15
 -2.01752578E-13  8.19030657E-16 -1.94979299E-14  8.51100393E-15  1.66551836E-15
  6.47614499E-14 -9.71522563E-01  1.08334920E-01 -1.28276263E-06  7.52538141E-01
 -1.19861898E-05 -2.79719562E-02  9.93623606E-07  6.12235447E-01 -6.82706517E-02
  8.08373150E-07 -4.74235538E-01  7.55347387E-06  1.76274065E-02 -6.26163116E-07
 -2.27275176E-01  2.53435577E-02 -3.00085776E-07  1.76046594E-01 -2.80401455E-06
 -6.54367845E-03  2.32445432E-07 -3.30041243E-18  2.66532539E-15 -4.61359965E-15
 -1.59022088E-15 -8.79185960E-15  1.38925876E-14 -3.24223078E-15 -1.47630270E-16
 -1.57416566E-15 -3.77378295E-17 -1.21165623E-15  1.82306765E-15  4.54955952E-16
  4.46912767E-15 -7.30348839E-15  1.19405562E-15  4.96593721E-17 -2.01675975E-16
  3.95796723E-16  1.18933292E-15  4.12034562E-15 -5.74807277E-15  3.33071189E-15
 -1.05602162E-15 -2.95673861E-11  2.66366582E-15 -2.69855329E-12  4.47909965E-11
 -3.58136829E-15  4.08766733E-12 -3.60074126E-11  2.99810629E-15 -3.28611607E-12
  1.81610020E-11 -1.49077411E-15  1.65764196E-12 -3.46012089E-12  5.15700734E-16
 -3.16447949E-13 -7.27912062E-14  2.99757025E-14 -2.30253441E-14 -1.73018426E-13
  4.26491692E-15  6.23635883E-14 -2.56487988E-14  1.94533951E-14  1.48110238E-13
 -3.18232844E-15 -2.92997036E-14  1.19133887E-14 -8.83071486E-15 -6.90119038E-14
  1.18618453E-15  9.28153578E-15 -3.58978530E-15  2.73239302E-15  2.13253899E-14
 -5.30540593E-17  8.84550921E-02  1.18986728E+00 -9.47591488E-06 -6.85170197E-02
  1.62258075E-06 -3.07222410E-01  7.34001209E-06 -5.57427537E-02 -7.49832224E-01
  5.97154529E-06  4.31781513E-02 -1.02252021E-06  1.93605848E-01 -4.62553908E-06
  2.06929282E-02  2.78354106E-01 -2.21676809E-06 -1.60286732E-02  3.79581844E-07
 -7.18707211E-02  1.71710118E-06  3.87595205E-15 -2.70972860E-15  3.06589622E-15
 -2.35237008E-16  3.65731968E-15  2.44115622E-15 -8.86649817E-16 -1.33477991E-15
  3.62857453E-15 -2.26723732E-15  2.06392222E-15 -1.81756893E-15 -6.63059217E-16
 -2.19366103E-15 -1.37193479E-15  8.95802705E-16  3.98877347E-16 -1.77458593E-15
 -8.16933922E-18 -2.72563531E-17 -9.30550300E-17  1.17047378E-16 -5.13463872E-17
  9.63249036E-18  3.30316985E-15  6.27389624E-12  1.57026058E-14 -4.07451041E-15
 -9.63549782E-12 -2.31659006E-14  2.70512510E-15  7.41714415E-12  1.74887339E-14
 -1.13444249E-15 -3.59188108E-12 -8.77734367E-15  4.64408754E-16  7.82917909E-13
  2.46555738E-15 -5.16890788E-16  5.10105627E-15  2.60818226E-16  4.74742887E-15
  4.18386561E-14  3.86223445E-16 -4.26321935E-15  4.79354275E-16 -4.06717150E-15
 -3.66222862E-14 -1.76870056E-16  3.47519180E-15 -1.30357500E-15  1.94550609E-15
  1.76906180E-14  7.95920963E-17 -1.96581535E-15  1.12851404E-15 -6.67644847E-16
 -5.81205670E-15  1.48877338E-07 -2.06026123E-06 -1.73615032E-01  1.94551407E-05
  1.21419400E+00  2.70523595E-06  1.34481625E-01 -9.37300297E-08  1.29709698E-06
  1.09304359E-01 -1.22485459E-05 -7.64430909E-01 -1.70315945E-06 -8.46667926E-02
  3.47226129E-08 -4.80514041E-07 -4.04921760E-02  4.53751598E-06  2.83186061E-01
  6.30941280E-07  3.13651047E-02  7.46304716E-17 -4.58280221E-15 -2.98996652E-16
  7.82286475E-16 -9.77304944E-15  2.38767905E-15 -7.14919428E-15  4.23425717E-17
  1.84477861E-15 -3.92935765E-17  2.15276984E-15 -1.66862092E-16 -4.08805163E-16
  4.70839635E-15 -1.06058855E-15  4.03600999E-15 -1.42430057E-17 -8.44207582E-16
 -7.39972932E-18  2.52078948E-18  4.52189116E-17 -4.78371383E-17  1.34099420E-17
 -4.09527270E-18 -8.08330176E-15  3.47551661E-11 -2.00585502E-14  1.12270905E-14
 -5.33881970E-11  3.04672070E-14 -7.93500407E-15  4.10976707E-11 -2.18105630E-14
  3.87074854E-15 -1.99056095E-11  1.01439292E-14 -1.55104365E-15  4.34516347E-12
 -2.63846829E-15 -1.43513881E-15 -4.27235601E-14  4.66972998E-14 -3.78009041E-15
  1.98589851E-14  1.29859287E-15  3.61352054E-14 -3.93881354E-14  3.15557687E-15
 -1.71701899E-14 -6.29767397E-16 -1.67045852E-14  1.79713657E-14 -1.45686735E-15
  8.55793190E-15  1.49864594E-16  4.59707519E-15 -5.60470724E-15  4.75905535E-16
 -2.98759893E-15  8.23132127E-07 -7.55356679E-06 -9.59904636E-01 -3.29930787E-06
 -2.19607575E-01  1.79295365E-05  7.43538934E-01 -5.18226611E-07  4.75556620E-06
  6.04335696E-01  2.07717459E-06  1.38260293E-01 -1.12880577E-05 -4.68116418E-01
  1.91978832E-07 -1.76171587E-06 -2.23878239E-01 -7.69496477E-07 -5.12190015E-02
  4.18169982E-06  1.73415338E-01  2.70159345E-16 -1.20057972E-14  1.79120717E-15
 -5.69495497E-16 -7.09116304E-15 -8.57989628E-15 -1.53404385E-15 -3.10173540E-16
 -2.66802877E-15 -1.53806277E-16  5.43958281E-15 -1.17342512E-15  1.83021031E-16
  2.92151243E-15  4.54991128E-15  1.67494721E-15  1.41889461E-16  1.57774680E-15
  1.61028283E-16 -1.34207300E-17 -6.83111598E-16  5.12136012E-16  3.34281046E-16
 -4.16171068E-16 -4.21782554E-02  3.37244328E-07 -2.89162677E-06  6.63326428E-02
 -5.30375363E-07  4.54758605E-06 -4.67842480E-02  3.74072424E-07 -3.20740113E-06
  2.06563897E-02 -1.65162124E-07  1.41614604E-06 -6.04588960E-03  4.83410694E-08
 -4.14489790E-07 -6.63936178E-15 -6.09962853E-15  2.58509581E-15  4.24057385E-15
  2.76992102E-15  5.69894453E-15  5.20568211E-15 -2.11050865E-15 -3.93327707E-15
 -2.36789055E-15 -2.71923161E-15 -2.37576634E-15  8.37223438E-16  2.06866325E-15
  1.37074785E-15  8.32644886E-16  6.73718735E-16 -2.15803040E-16 -7.30850024E-16
 -5.26042206E-16 -5.17738728E-05 -3.08305592E-01  2.46504251E-06 -6.68397933E-05
 -6.81548568E-07 -1.19406242E+00  2.86421229E-05  3.25721318E-05  1.93962125E-01
 -1.55081482E-06  4.20504482E-05  4.28777849E-07  7.51212080E-01 -1.80194169E-05
 -1.20506910E-05 -7.17600447E-02  5.73753979E-07 -1.55573777E-05 -1.58634669E-07
 -2.77925458E-01  6.66663229E-06  1.47624336E-14 -7.24928924E-15  4.89456371E-15
  5.21613471E-15  9.98105311E-15  4.70051780E-15 -4.98671266E-15  1.51319802E-16
  1.91450989E-15 -8.15509918E-15  3.89107654E-15 -2.67812684E-15 -2.68501557E-15
 -5.36264006E-15 -2.60838022E-15  2.76052303E-15 -6.17679519E-17 -1.29328893E-15
  1.56999435E-17  5.43740203E-17  1.80216422E-16 -2.14962582E-16  8.84638082E-17
 -1.83831558E-17 -2.89162666E-06  1.47888316E-08  4.21782554E-02  4.54758586E-06
 -2.32580107E-08 -6.63326428E-02 -3.20740100E-06  1.64038175E-08  4.67842480E-02
  1.41614599E-06 -7.24268662E-09 -2.06563897E-02 -4.14489773E-07  2.11985117E-09
  6.04588960E-03  9.79572245E-16 -6.65426402E-14  3.83808369E-14 -8.58167781E-15
 -1.03948919E-15 -7.37752417E-16  5.76622968E-14 -3.27572952E-14  7.26689287E-15
 -1.00546919E-15  2.80531744E-16 -2.77574199E-14  1.44853482E-14 -3.25085182E-15
  2.72020636E-15 -7.10721325E-17  8.47745364E-15 -4.33585686E-15  9.56484244E-16
 -1.83219805E-15  7.55191386E-01 -2.11365856E-05  1.18741290E-06  9.74947887E-01
 -1.55908596E-05 -8.18616706E-05  4.19979780E-07 -4.75108236E-01  1.32975112E-05
 -7.47028710E-07 -6.13362095E-01  9.80856765E-06  5.15010561E-05 -2.64218922E-07
  1.75775494E-01 -4.91967180E-06  2.76377740E-07  2.26925186E-01 -3.62886957E-06
 -1.90538131E-05  9.77529087E-08 -8.96158731E-17  5.31229025E-15  2.23233191E-16
 -1.65760214E-15  4.63592168E-15 -5.34790826E-15  2.54071315E-15 -9.25483882E-17
 -6.80275550E-15  2.77413031E-17 -2.73311448E-15  1.84557676E-17  6.68124277E-16
 -2.51415311E-15  2.62489466E-15 -1.32023195E-15  3.11022327E-17  3.01473155E-15
  1.14533150E-16  2.54036290E-16  6.65635040E-16 -9.02835393E-16  5.37066789E-16
 -1.61964029E-16  4.34164517E-07  5.42996430E-02 -1.90091437E-08 -6.80865600E-07
 -8.51538014E-02  2.98105265E-08  4.78249962E-07  5.98132764E-02 -2.09393477E-08
 -2.10837727E-07 -2.63688368E-02  9.23116301E-09  6.16924797E-08  7.71569180E-03
 -2.70109698E-09 -8.40448736E-16  5.64651829E-14  7.92357158E-15 -1.22288368E-15
 -6.95771447E-14  5.78051600E-16 -4.88787928E-14 -7.90848823E-15  1.16147175E-15
  6.06140645E-14 -2.25778405E-16  2.34791119E-14  5.03992305E-15 -5.94085704E-16
 -2.92927547E-14  7.58896139E-17 -7.50847085E-15 -2.16983820E-15  1.72817428E-16
  9.67576803E-15 -6.47365515E-07  6.03622406E-06  7.54932288E-01 -8.35745212E-07
  1.36513196E-11  2.33781952E-05  9.74613392E-01  4.07160910E-07 -3.79648656E-06
 -4.74815092E-01  5.25642425E-07 -8.58649059E-12 -1.47037292E-05 -6.12983647E-01
 -1.50568999E-07  1.40394906E-06  1.75587663E-01 -1.94383722E-07  3.17528998E-12
  5.43747132E-06  2.26682698E-01  1.97040246E-16 -3.92540743E-15  2.46210917E-15
  2.30203076E-16  4.60538048E-15 -6.88262691E-15  6.78578265E-15 -1.44429291E-16
  1.17829275E-14 -1.02496036E-16  1.93085578E-15 -1.34312596E-15 -1.98709915E-16
 -2.49583770E-15  3.12970933E-15 -4.02775412E-15  6.64645428E-17 -6.71880783E-15
 -9.95173356E+00 -1.07314984E+01 -2.27342615E+00  1.93202783E+00 -1.00282755E+00
  2.99080621E-01 -3.53970679E-18  1.61553995E-19  3.21835845E-19  3.03382193E-18
 -2.27098898E-19 -4.08441973E-19 -6.49675385E-19  6.95785698E-20  2.81906348E-19
 -1.48026521E-19 -2.19063774E-20 -1.27964043E-19  4.71076766E-20  6.20103712E-21
  3.69376214E-20  1.80813046E-04  1.75396122E-15  2.19273610E-10  3.13177384E-04
 -5.00815476E-09  4.14565871E-04  4.02030847E-15  5.02747765E-10  7.18049150E-04
 -1.14826340E-08 -4.82195217E-04 -4.67772863E-15 -5.84762480E-10 -8.35186613E-04
  1.33558297E-08  1.98407346E-04  1.92443923E-15  2.40610374E-10  3.43651602E-04
 -5.49548115E-09 -1.16298798E-19 -1.71446975E-19  1.07052120E-18 -8.17219877E-20
  1.52654730E-19 -1.04398023E-16  1.97754036E-20  1.86996404E-19 -2.19617488E-19
 -4.94376223E-19  2.85972140E-19 -1.81476769E-19  9.48989924E-18 -5.76548258E-20
 -1.70428405E-19  1.35350546E-21  2.33071437E-19 -1.84879580E-19  7.64189821E-20
  7.20741796E-17  2.63422041E-20  7.93255419E-07  3.31505805E-15  1.75757901E-12
  1.18251536E-06 -1.89102168E-11 -1.82325428E-15  1.54586909E-12  1.56432078E-06
 -5.00289113E-11 -2.35940994E-06  4.86477744E-16 -5.22493587E-12 -3.51720067E-06
  5.62450717E-11  1.29240159E-15 -4.60462765E-12 -4.65281914E-06  1.48809384E-10
Alpha Orbital Energies                     R   N=          80
 -1.13649889E+01 -7.25629141E-01 -3.58432966E-01  1.88582963E-02  1.88582965E-02
  8.34194749E-02  8.99008883E-02  1.08244855E-01  1.08244856E-01  2.32374305E-01
  2.32374305E-01  2.41640571E-01  2.41640571E-01  2.45417779E-01  4.45331476E-01
  4.63968773E-01  4.63968773E-01  5.03207707E-01  7.44144994E-01  7.44144994E-01
  7.62264779E-01  7.62264779E-01  7.73568578E-01  7.73568578E-01  7.75669959E-01
  7.75669959E-01  7.77426360E-01  7.91145091E-01  7.91145091E-01  7.98434790E-01
  1.59145201E+00  1.59145201E+00  1.60860566E+00  2.08999004E+00  2.08999004E+00
  2.10756228E+00  2.11833480E+00  2.11833480E+00  2.13862796E+00  2.13862796E+00
  2.15082201E+00  2.15082201E+00  2.15489052E+00  2.19727008E+00  2.19727008E+00
  2.23152604E+00  2.23152604E+00  2.24477443E+00  2.24517072E+00  2.24517072E+00
  2.28314373E+00  2.28314373E+00  2.30666424E+00  2.30666424E+00  2.31466545E+00
  5.76711589E+00  5.76711589E+00  5.81420968E+00  5.87388404E+00  5.87388404E+00
  5.92115770E+00  5.92115770E+00  5.95483192E+00  5.95483192E+00  5.97500101E+00
  5.97500101E+00  5.98171820E+00  6.32804633E+00  6.32804633E+00  6.38281444E+00
  6.38281444E+00  6.40136996E+00  6.41813125E+00  6.41813125E+00  6.47304751E+00
  6.47304751E+00  6.50666278E+00  6.50666278E+00  6.51803098E+00  2.04225807E+01
Total SCF Density                          R   N=        3240
  1.97348346E+00  6.94013931E-04  2.37518849E-01  3.16023232E-02  1.93647857E-01
  1.58368174E-01 -6.25653090E-03  4.07974302E-01  3.32502141E-01  7.00785261E-01
  3.49333710E-03  1.87108532E-01  1.52594934E-01  3.21375888E-01  1.47401555E-01
 -7.98969037E-04  2.02059362E-03  1.63472120E-03  3.47371094E-03  1.59054688E-03
  1.75176295E-05  5.91193837E-18 -8.63767953E-18 -6.94887359E-18 -1.48589465E-17
 -6.79556186E-18 -7.58933477E-20  3.54702980E-12 -5.84649569E-19  1.47786574E-19
  1.11873310E-18 -2.92811212E-18  2.18758770E-18  1.20102988E-18  4.43616288E-07
  5.54817474E-02 -4.10980792E-19 -1.03134400E-18 -8.47265651E-19 -1.76994732E-18
 -8.13064379E-19 -8.60776641E-21 -1.55300717E-13 -1.94229910E-08  6.79957997E-15
 -4.20763978E-18 -9.30588484E-18 -7.65276777E-18 -1.59685264E-17 -7.33704010E-18
 -7.74422645E-20  6.93040391E-12  8.66764654E-07 -3.03436046E-13  1.35410473E-11
  4.37731533E-19  1.27877518E-19  2.07954366E-18 -6.00342043E-18  4.14986975E-18
  2.34463249E-18  8.66764654E-07  1.08403634E-01 -3.79498284E-08  1.69353783E-06
  2.11805654E-01  1.55990744E-19 -2.95558294E-18 -2.40708273E-18 -5.07727686E-18
 -2.32805413E-18 -2.52113652E-20 -3.03436045E-13 -3.79498284E-08  1.32854355E-14
 -5.92871916E-13 -7.41486972E-08  2.59578968E-14  2.71468851E-18 -4.31048885E-17
 -3.50984914E-17 -7.40499100E-17 -3.39521456E-17 -3.67830150E-19  9.40972620E-12
  1.17684599E-06 -4.11988991E-13  1.83852989E-11  2.29939373E-06 -8.04969303E-13
  2.49625608E-11 -1.23481586E-19 -8.12262843E-19  2.00845872E-18 -9.84183069E-18
  4.85675444E-18  3.17531926E-18  1.17684599E-06  1.47184569E-01 -5.15262169E-08
  2.29939373E-06  2.87578218E-01 -1.00675076E-07  3.12199198E-06  3.90458094E-01
 -7.33455308E-20 -3.17022649E-18 -2.58567758E-18 -5.44509538E-18 -2.49748434E-18
 -2.69443724E-20 -4.11988994E-13 -5.15262174E-08  1.80382432E-14 -8.04969312E-13
 -1.00675077E-07  3.52442235E-14 -1.09294363E-12 -1.36691154E-07  4.78526940E-14
 -9.00759490E-19  1.81891320E-18  1.46871463E-18  3.12763232E-18  1.43154817E-18
  1.58598310E-20  6.15393849E-12  7.69654473E-07 -2.69439817E-13  1.20239417E-11
  1.50379801E-06 -5.26448004E-13  1.63254552E-11  2.04177531E-06 -7.14782529E-13
  1.06768088E-11  1.93830120E-19  1.41984170E-19  1.86667277E-18 -5.28123697E-18
  3.70703652E-18  2.08226702E-18  7.69654473E-07  9.62583570E-02 -3.36980230E-08
  1.50379801E-06  1.88075469E-01 -6.58412595E-08  2.04177531E-06  2.55358662E-01
 -8.93956889E-08  1.33531618E-06  1.67003956E-01  3.88999512E-20 -7.19303054E-19
 -5.85799750E-19 -1.23566387E-18 -5.66580281E-19 -6.13662486E-21 -2.69439815E-13
 -3.36980227E-08  1.17969678E-14 -5.26448000E-13 -6.58412590E-08  2.30496377E-14
 -7.14782516E-13 -8.93956872E-08  3.12955471E-14 -4.67466060E-13 -5.84645662E-08
  2.04672128E-14  3.91909932E-19  9.25495203E-18  7.55125262E-18  1.58953896E-17
  7.29125478E-18  7.85852465E-20  5.06421319E-13  6.33365826E-08 -2.21728033E-14
  9.89476967E-13  1.23750891E-07 -4.33225800E-14  1.34345811E-12  1.68022242E-07
 -5.88210480E-14  8.78618401E-13  1.09886146E-07 -3.84688244E-14  7.23034671E-14
 -2.91099414E-20 -2.00943860E-19 -2.04407477E-20 -7.99657659E-19  1.37493461E-19
  1.69563675E-19  6.33365827E-08  7.92131483E-03 -2.77308545E-09  1.23750892E-07
  1.54771497E-02 -5.41822406E-09  1.68022243E-07  2.10140337E-02 -7.35657057E-09
  1.09886146E-07  1.37431279E-02 -4.81117952E-09  9.04277596E-09  1.13095264E-03
 -2.00464361E-20 -4.84886711E-19 -3.95618597E-19 -8.32795290E-19 -3.82003670E-19
 -4.11743563E-21 -2.21728017E-14 -2.77308524E-09  9.70798725E-16 -4.33225769E-14
 -5.41822366E-09  1.89680596E-15 -5.88210432E-14 -7.35656995E-09  2.57538019E-15
 -3.84688219E-14 -4.81117920E-09  1.68429247E-15 -3.16568513E-15 -3.95922664E-10
  1.38604174E-16  2.10190483E-04 -7.64940657E-04 -6.20311290E-04 -1.31470225E-03
 -6.02274678E-04 -6.59405363E-06  2.84578214E-20  8.56481237E-20  3.27754822E-21
  2.95214040E-20  1.68032785E-19  9.53625577E-21  1.39128921E-19  2.31243938E-19
  1.02028861E-20 -5.95423001E-21  1.49094250E-19  2.32091049E-21 -2.97666368E-20
  1.29492935E-20  1.55959092E-21  2.48639297E-06  2.03866957E-15 -7.41684173E-15
 -6.01450919E-15 -1.27473162E-14 -5.83963626E-15 -6.39360195E-17 -9.51918742E-23
 -1.19053598E-17  4.16781570E-24 -1.85991710E-22 -2.32614206E-17  8.14333340E-24
 -2.52529446E-22 -3.15830941E-17  1.10565761E-23 -1.65153656E-22 -2.06552682E-17
  7.23097423E-24 -1.35908629E-23 -1.69976808E-18  5.95052967E-25  2.41080638E-17
  2.33754319E-28  2.54899890E-10 -9.27650418E-10 -7.52257083E-10 -1.59435125E-09
 -7.30383922E-10 -7.99666817E-12  4.47250430E-23  5.58930976E-18 -1.95272485E-24
  8.73548973E-23  1.09207355E-17 -3.81155465E-24  1.18725852E-22  1.48275818E-17
 -5.17845084E-24  7.75288588E-23  9.69720312E-18 -3.39197184E-24  6.34451859E-24
  7.98004468E-19 -2.77473197E-25  3.01527112E-12  2.92360659E-23  3.65664642E-18
  3.64060596E-04 -1.32491608E-03 -1.07441067E-03 -2.27713110E-03 -1.04317034E-03
 -1.14212359E-05  4.92903625E-20  1.44593611E-19  5.67688135E-21  5.11325129E-20
  2.83707913E-19  1.65172821E-20  2.40978280E-19  3.90569345E-19  1.76719205E-20
 -1.03130810E-20  2.51727024E-19  4.01993717E-21 -5.15573316E-20  2.18929643E-20
  2.70129091E-21  4.30655894E-06  4.17563914E-17  5.22260278E-12  7.45917888E-06
 -5.82185019E-09  2.11873051E-08  1.71813649E-08  3.64145865E-08  1.66817873E-08
  1.82641915E-10  3.10055874E-24  4.86355916E-19 -2.61045231E-25  6.78045859E-24
  9.50271935E-19 -5.96806763E-25  6.46275522E-24  1.29022756E-18 -7.34282991E-25
  6.91178461E-24  8.43805808E-19 -3.59684595E-25  1.37969000E-24  6.94386426E-20
 -6.75066359E-26 -6.88680434E-11 -6.67744483E-22 -8.35168960E-17 -1.19282950E-10
  1.90750516E-15 -1.00888272E-03  2.30063203E-04  1.71692265E-04  3.98978520E-04
  1.79727877E-04  2.36890898E-06 -1.14021451E-20  2.03663682E-19 -7.90341657E-22
 -6.87204908E-21  3.96966205E-19 -2.94716361E-21 -4.32006861E-20  5.38389952E-19
 -3.03812076E-21  2.22814888E-21  3.52618354E-19 -7.17822624E-22  8.77802201E-21
  2.88345303E-20 -4.60146237E-22 -8.49597915E-07 -8.23801817E-18 -1.03031504E-12
 -1.47154675E-06  2.35321395E-11  7.39289920E-07 -9.78361564E-15  2.23146837E-15
  1.66533706E-15  3.86983349E-15  1.74325022E-15  2.29761473E-17  2.30767089E-22
  2.88613418E-17 -1.01037478E-23  4.50886861E-22  5.63910559E-17 -1.97413207E-23
  6.12189703E-22  7.65647145E-17 -2.68036939E-23  4.00370606E-22  5.00731407E-17
 -1.75295515E-23  3.29473899E-23  4.12063040E-18 -1.44254579E-24 -8.24035959E-18
 -7.99077917E-29 -9.99315823E-24 -1.42727215E-17  2.28241252E-22  7.16966904E-18
  6.95468078E-29 -1.22348115E-09  2.78999716E-10  2.08212755E-10  4.83844841E-10
  2.17957613E-10  2.87279723E-12 -4.28100741E-23 -5.35239687E-18  1.87280302E-24
 -8.36262596E-23 -1.04578406E-17  3.65749579E-24 -1.13584270E-22 -1.41990882E-17
  4.96711758E-24 -7.42468769E-23 -9.28616984E-18  3.25002204E-24 -6.09951822E-24
 -7.64179622E-19  2.66965156E-25 -1.03031504E-12 -9.99031876E-24 -1.24947232E-18
 -1.78455799E-12  2.85376373E-17  8.96543540E-13  8.69472217E-24  1.08724642E-18
 -1.74743613E-03  3.98481159E-04  2.97379729E-04  6.91051073E-04  3.11297816E-04
  4.10307073E-06 -1.97710922E-20 -2.39839578E-18 -1.36794880E-21 -1.19457182E-20
 -4.68780278E-18 -5.10275534E-21 -7.48841396E-20 -6.36586468E-18 -5.25962455E-21
  3.82110253E-21 -4.16237245E-18 -1.24163429E-21  1.52008396E-20 -3.42848257E-19
 -7.96859160E-22 -1.47154676E-06 -1.42686661E-17 -1.78455800E-12 -2.54879376E-06
  4.07588615E-11  1.28048771E-06  1.24182311E-17  1.55285896E-12  2.21786977E-06
  2.79440056E-08 -6.37228427E-09 -4.75552766E-09 -1.10508961E-08 -4.97809780E-09
 -6.56139757E-11 -9.78088633E-23 -1.22721625E-17  4.31811446E-24 -1.91531663E-22
 -2.39781022E-17  8.47585504E-24 -2.59113158E-22 -3.25561655E-17  1.14813724E-23
 -1.70303658E-22 -2.12916546E-17  7.47363847E-24 -1.42527224E-23 -1.75213772E-18
  6.26131299E-25  2.35321397E-11  2.28176401E-22  2.85376376E-17  4.07588615E-11
 -6.51792553E-16 -2.04768318E-11 -1.98585295E-22 -2.48324382E-17 -3.54669131E-11
  5.67166721E-16  9.41181958E-05 -2.95693398E-03 -2.40915653E-03 -5.07936613E-03
 -2.32920939E-03 -2.51968053E-05  1.07848148E-19  7.83654434E-19  1.28179523E-20
  1.15645981E-19  1.53323709E-18  3.68028562E-20  5.36788550E-19  2.09398244E-18
  3.94629085E-20 -2.26804058E-20  1.36109285E-18  8.95644879E-21 -1.15197412E-19
  1.14652113E-19  6.03547159E-21  9.53400625E-06  9.24414743E-17  1.15619752E-11
  1.65133832E-05 -2.64072641E-10 -2.91668370E-06 -2.82898979E-17 -3.53708857E-12
 -5.05184440E-06  8.07862251E-11  3.68169914E-05  9.11705750E-16 -2.86695517E-14
 -2.33584777E-14 -4.92480188E-14 -2.25833221E-14 -2.44300383E-16 -8.31900224E-22
 -1.04043245E-16  3.64233484E-23 -1.62541757E-21 -2.03286059E-16  7.11661672E-23
 -2.20690374E-21 -2.76010776E-16  9.66255594E-23 -1.44330978E-21 -1.80510389E-16
  6.31928840E-23 -1.18773181E-22 -1.48546024E-17  5.20028304E-24  9.24387966E-17
  8.96306469E-28  1.12101360E-22  1.60108692E-16 -2.56036722E-21 -2.82788691E-17
 -2.74340403E-28 -3.42940390E-23 -4.89804385E-17  7.83267341E-22  3.56966545E-16
  3.46123605E-27  1.14137981E-10 -3.58590043E-09 -2.92160579E-09 -6.15979299E-09
 -2.82465317E-09 -3.05563924E-11  1.73368799E-22  2.16663549E-17 -7.56938964E-24
  3.38623271E-22  4.23330501E-17 -1.47752772E-23  4.60224847E-22  5.74775174E-17
 -2.00738103E-23  3.00532716E-22  3.75901593E-17 -1.31486606E-23  2.45940697E-23
  3.09337803E-18 -1.07560708E-24  1.15619751E-11  1.12104607E-22  1.40213113E-17
  2.00259284E-11 -3.20243267E-16 -3.53708856E-12 -3.43074136E-23 -4.28945912E-18
 -6.12641714E-12  9.79701817E-17  4.46482966E-11  4.32896540E-22  5.41453909E-17
  1.63017497E-04 -5.12155985E-03 -4.17278148E-03 -8.79772014E-03 -4.03430897E-03
 -4.36421466E-05  1.86798301E-19  1.33624032E-18  2.22013518E-20  2.00304384E-19
  2.61443960E-18  6.37444307E-20  9.29744588E-19  3.57093815E-18  6.83517817E-20
 -3.92839074E-20  2.32089353E-18  1.55130371E-20 -1.99527793E-19  1.95572341E-19
  1.04537444E-20  1.65133831E-05  1.60113329E-16  2.00259283E-11  2.86020185E-05
 -4.57387228E-10 -5.05184433E-06 -4.89995401E-17 -6.12641707E-12 -8.75005111E-06
  1.39925845E-10  6.37688992E-05  6.18284189E-16  7.73331176E-11  1.10450973E-04
 -2.60688319E-09  8.19010748E-08  6.67287503E-08  1.40688141E-07  6.45143766E-08
  6.97900409E-10  1.51078665E-22  1.92685269E-17 -7.10054424E-24  2.97820108E-22
  3.76480271E-17 -1.41991605E-23  3.93845097E-22  5.11164471E-17 -1.89878543E-23
  2.67925562E-22  3.34300347E-17 -1.19512395E-23  2.51872305E-23  2.75103202E-18
 -1.13024972E-24 -2.64072639E-10 -2.56044137E-21 -3.20243266E-16 -4.57387227E-10
  7.31427663E-15  8.07862237E-11  7.83572802E-22  9.79701804E-17  1.39925845E-10
 -2.23761461E-15 -1.01975600E-09 -9.88724941E-21 -1.23666727E-15 -1.76626919E-09
  2.82451732E-14 -8.86856113E-05 -1.50442376E-03 -1.22787432E-03 -2.58375566E-03
 -1.18525504E-03 -1.27638874E-05  5.44815153E-20  3.09916544E-18  6.54878283E-21
  5.91696495E-20  6.05629058E-18  1.87112538E-20  2.72967050E-19  8.22917764E-18
  2.00797972E-20 -1.14391338E-20  5.37758690E-18  4.55236895E-21 -5.86321074E-20
  4.43882283E-19  3.07187107E-21  4.83599474E-06  4.68896317E-17  5.86465434E-12
  8.37618859E-06 -1.33947248E-10 -1.41408103E-06 -1.37157783E-17 -1.71486879E-12
 -2.44926021E-06  3.91671775E-11  1.87245741E-05  1.81547932E-16  2.27074594E-11
  3.24319135E-05 -5.18632731E-10  9.53248958E-06 -8.59691339E-16 -1.45860259E-14
 -1.19047594E-14 -2.50506066E-14 -1.14915497E-14 -1.23751360E-16 -3.56961544E-22
 -4.46441007E-17  1.56289592E-23 -6.97453312E-22 -8.72283762E-17  3.05368171E-23
 -9.46964243E-22 -1.18433954E-16  4.14612329E-23 -6.19312358E-22 -7.74555234E-17
  2.71155468E-23 -5.09645953E-23 -6.37398773E-18  2.23139869E-24  4.68870349E-17
  4.54624590E-28  5.68603291E-23  8.12107266E-17 -1.29867579E-21 -1.37101932E-17
 -1.33004267E-28 -1.66264747E-23 -2.37467514E-17  3.79744556E-22  1.81542689E-16
  1.76026794E-27  2.20158452E-22  3.14441159E-16 -5.02836433E-21  9.24215197E-17
  8.96101660E-28 -1.07549838E-10 -1.82442818E-09 -1.48905419E-09 -3.13334365E-09
 -1.43736942E-09 -1.54788807E-11 -1.29295471E-22 -1.61788530E-17  5.67181868E-24
 -2.52682742E-22 -3.16112331E-17  1.10891206E-23 -3.42845306E-22 -4.29200163E-17
  1.50497481E-23 -2.24450377E-22 -2.80695883E-17  9.83209442E-24 -1.85404841E-23
 -2.30990901E-18  8.12375895E-25  5.86465417E-12  5.68634767E-23  7.11211888E-18
  1.01578790E-11 -1.62439029E-16 -1.71486874E-12 -1.66332473E-23 -2.07963675E-18
 -2.97023981E-12  4.74983872E-17  2.27074589E-11  2.20164805E-22  2.75375396E-17
  3.93304722E-11 -6.28950562E-16  1.15601356E-11  1.12080405E-22  1.40190800E-17
 -1.53607985E-04 -2.60573835E-03 -2.12674067E-03 -4.47519601E-03 -2.05292192E-03
 -2.21077012E-05  9.43151720E-20 -8.32805416E-19  1.13449952E-20  1.02387967E-19
 -1.62553819E-18  3.24130831E-20  4.72661267E-19 -2.19619878E-18  3.47849871E-20
 -1.98991783E-20 -1.44371440E-18  7.88870033E-21 -1.01560866E-19 -1.16470520E-19
  5.32094660E-21  8.37618847E-06  8.12152233E-17  1.01578791E-11  1.45079840E-05
 -2.32003436E-10 -2.44926015E-06 -2.37564245E-17 -2.97023982E-12 -4.24224305E-06
  6.78395404E-11  3.24319132E-05  3.14450238E-16  3.93304729E-11  5.61737211E-05
 -8.98298227E-10  1.65107560E-05  1.60078765E-16  2.00227418E-11  2.85974679E-05
  2.45641160E-09  4.16694870E-08  3.40096282E-08  7.15647914E-08  3.28291608E-08
  3.53533794E-10 -8.59872150E-23 -1.05655172E-17  3.51734696E-24 -1.66697532E-22
 -2.06435542E-17  6.70855093E-24 -2.31668312E-22 -2.80286974E-17  9.25600715E-24
 -1.46249047E-22 -1.83307012E-17  6.29104872E-24 -1.04372432E-23 -1.50847431E-18
  4.42996136E-25 -1.33947246E-10 -1.29874770E-21 -1.62439030E-16 -2.32003435E-10
  3.71006710E-15  3.91671765E-11  3.79899240E-22  4.74983873E-17  6.78395401E-11
 -1.08485138E-15 -5.18632726E-10 -5.02850952E-21 -6.28950571E-16 -8.98298225E-10
  1.43650748E-14 -2.64030628E-10 -2.55988865E-21 -3.20192309E-16 -4.57314455E-10
  7.31311289E-15 -1.06360316E-19 -1.88358957E-19 -1.55232120E-19 -3.23135397E-19
 -1.48540206E-19 -1.55924777E-21 -5.78084396E-15 -7.22992668E-10  2.53104502E-16
 -1.12949667E-14 -1.41262732E-09  4.94531066E-16 -1.53356927E-14 -1.91798869E-09
  6.71447443E-16 -1.00295064E-14 -1.25436003E-09  4.39125018E-16 -8.25350445E-16
 -1.03224084E-10  3.61365745E-17  5.95228397E-22  1.55140899E-25 -7.21134645E-26
  1.03096587E-21 -2.28244423E-26 -1.28320896E-22 -3.76097358E-25  6.95924374E-26
 -2.22222463E-22  1.63474921E-25  2.33940998E-21  1.35580633E-24 -2.79501147E-25
  4.05197719E-21 -3.15888849E-25  1.19752815E-21  5.81765349E-25  2.12281857E-25
  2.07426037E-21  1.04510943E-25  9.42144801E-18 -8.65126127E-20 -1.39953725E-19
 -1.15457540E-19 -2.40066947E-19 -1.10378659E-19 -1.15533593E-21  5.39022633E-14
  6.74139304E-09 -2.36001969E-15  1.05317541E-13  1.31717463E-08 -4.61115089E-15
  1.42994440E-13  1.78838821E-08 -6.26077042E-15  9.35180226E-14  1.16960162E-08
 -4.09452885E-15  7.69580659E-15  9.62491254E-10 -3.36947887E-16  4.41469842E-22
 -1.44657862E-24  6.79672838E-25  7.64647740E-22  4.68678748E-26 -9.14886943E-23
  3.50684068E-24 -6.50461999E-25 -1.58797351E-22 -1.48861280E-24  1.73793242E-21
 -1.26419307E-23  2.63471048E-24  3.01018467E-21  2.29311673E-24  8.90509010E-22
 -5.42454849E-24 -1.96475636E-24  1.54165340E-21 -1.30843390E-24 -8.78483099E-17
  8.19123085E-16 -1.86096364E-20  4.86398633E-18  3.98037565E-18  8.30636302E-18
  3.86310651E-18  5.96204029E-20  6.74139302E-09  8.43125635E-04 -2.95160523E-10
  1.31717463E-08  1.64735046E-03 -5.76702693E-10  1.78838820E-08  2.23668303E-03
 -7.83015618E-10  1.16960162E-08  1.46278537E-03 -5.12090337E-10  9.62491251E-10
  1.20375870E-04 -4.21410529E-11 -1.43584930E-20 -1.80919213E-19  8.49376507E-20
 -2.49266761E-20  7.39131742E-21  7.81633900E-21  4.38589956E-19 -8.13374291E-20
 -2.82694435E-20 -1.86493443E-19 -4.86175531E-20 -1.58108803E-18  3.29251619E-19
 -8.45285490E-20  2.92814894E-19  1.63034946E-20 -6.78431872E-19 -2.45861178E-19
 -6.59904143E-20 -1.60557508E-19 -1.09869224E-11  1.02445246E-10  1.28125171E-05
 -1.82123498E-19 -1.84402183E-19 -1.53197880E-19 -3.16053032E-19 -1.45536354E-19
 -1.49468740E-21 -7.46303762E-15 -9.33379542E-10  3.26756515E-16 -1.45817397E-14
 -1.82369407E-09  6.38436876E-16 -1.97982945E-14 -2.47611281E-09  8.66834941E-16
 -1.29480374E-14 -1.61937187E-09  5.66907973E-16 -1.06552287E-15 -1.33261722E-10
  4.66521181E-17  5.74328698E-22  2.00286042E-25 -9.33334808E-26  9.94766548E-22
 -2.40898344E-26 -8.57257366E-23 -4.85539611E-25  8.99403913E-26 -1.48435050E-22
  2.08831160E-25  2.28620254E-21  1.75033848E-24 -3.61724520E-25  3.95981928E-21
 -3.87481477E-25  1.17569096E-21  7.51055849E-25  2.73605625E-25  2.03646076E-21
  1.45179922E-25  1.21630374E-17 -1.13411683E-16 -1.41840561E-11  1.57024141E-17
  1.34476335E-20 -1.77435795E-19 -1.44442821E-19 -3.04825345E-19 -1.39756479E-19
 -1.51515782E-21  1.19327769E-19  1.49239632E-14 -5.22456511E-21  2.33149899E-19
  2.91593526E-14 -1.02080750E-20  3.16558276E-19  3.95909860E-14 -1.38599703E-20
  2.07028357E-19  2.58924104E-14 -9.06438735E-21  1.70368251E-20  2.13074419E-15
 -7.45928597E-22  5.72943658E-22 -3.19685202E-30  6.96317391E-28  9.92367525E-22
 -1.58692467E-26 -1.79010636E-22  7.76163857E-30 -2.18527543E-28 -3.10055520E-22
  4.95493061E-27  2.20967161E-21 -2.79650330E-29  2.68551664E-27  3.82726347E-21
 -6.11982395E-26  1.12326641E-21 -1.19978681E-29  1.35784331E-27  1.94555446E-21
 -3.11150433E-26 -1.94476859E-22  1.81335856E-21  2.26791269E-16 -2.51068551E-22
  4.01437747E-27 -2.03772649E-17 -2.04493766E-18 -1.98760103E-18 -3.43560079E-18
 -1.64134151E-18 -9.08758544E-21  2.08762568E-13  2.61093029E-08 -9.14031693E-15
  4.07893082E-13  5.10139540E-08 -1.78589106E-14  5.53815084E-13  6.92639774E-08
 -2.42478596E-14  3.62193744E-13  4.52984760E-08 -1.58580420E-14  2.98057307E-14
  3.72771259E-09 -1.30499355E-15  4.39309265E-21 -5.60257487E-24  2.63561562E-24
  7.60905790E-21  1.07196881E-25  8.44049310E-21  1.35819356E-23 -2.50856292E-24
  1.46180682E-20 -6.00897146E-24  2.43976084E-20 -4.89619869E-23  1.02256143E-23
  4.22578872E-20  8.39187322E-24  1.38239990E-20 -2.10091858E-23 -7.59688670E-24
  2.39409502E-20 -5.35491117E-24 -3.40235041E-16  3.17245006E-15  3.96768733E-10
 -4.39241559E-16  7.02310748E-21  1.22868462E-14  1.03338974E-20  3.74795675E-21
  2.29826280E-20 -5.60699520E-20  4.36183105E-20  2.35607725E-20  8.70310098E-09
  1.08847051E-03 -3.81050597E-10  1.70046513E-08  2.12672031E-03 -7.44519976E-10
  2.30879925E-08  2.88754538E-03 -1.01086882E-09  1.50994920E-08  1.88844779E-03
 -6.61105783E-10  1.24257086E-09  1.55404580E-04 -5.44038655E-11  1.67990432E-21
 -2.33565699E-19  1.09654060E-19  2.83604558E-21  9.54158981E-21  3.98525199E-21
  5.66217198E-19 -1.05006177E-19 -4.70709011E-20 -2.40761830E-19  1.53647214E-20
 -2.04117588E-18  4.25062107E-19  2.61987433E-20  3.78020239E-19  6.07947746E-20
 -8.75851781E-19 -3.17405368E-19 -1.63493434E-20 -2.07279953E-19 -1.41840558E-11
  1.32256245E-10  1.65408884E-05 -1.83115377E-11  2.92786270E-16  5.12226232E-10
  2.13541952E-05  1.13245021E-19  6.02591923E-21  6.69357234E-21  9.92315556E-21
  4.91599515E-21  5.04858717E-24 -1.30488522E-14 -1.63198048E-09  5.71321986E-16
 -2.54956461E-14 -3.18866334E-09  1.11628386E-15 -3.46166042E-14 -4.32939398E-09
  1.51562964E-15 -2.26391766E-14 -2.83141334E-09  9.91218153E-16 -1.86302832E-15
 -2.33003317E-10  8.15695467E-17 -7.22149085E-24  3.50192914E-25 -1.64416778E-25
 -1.25078786E-23 -1.41060759E-26 -5.20918713E-23 -8.48948504E-25  1.57376130E-25
 -9.01448432E-23  3.62424990E-25 -6.91456504E-23  3.06040370E-24 -6.37393750E-25
 -1.19763158E-22 -5.64863913E-25 -4.30949173E-23  1.31319406E-24  4.75844400E-25
 -7.44601929E-23  3.11972927E-25  2.12666323E-17 -1.98296239E-16 -2.48003108E-11
  2.74551049E-17 -4.38984310E-22 -7.67998031E-16 -3.20170636E-11  4.80042611E-17
 -3.44022389E-19  5.25096806E-19  4.22674424E-19  9.03236019E-19  4.13136385E-19
  4.60830676E-21  1.21671275E-13  1.52170583E-08 -5.32717155E-15  2.37728783E-13
  2.97320198E-08 -1.04085538E-14  3.22775236E-13  4.03685225E-08 -1.41321694E-14
  2.11094234E-13  2.64009174E-08 -9.24240493E-15  1.73714152E-14  2.17259036E-09
 -7.60578060E-16 -1.72827112E-21 -3.26530010E-24  1.53089207E-24 -2.99345442E-21
  1.81263790E-25  6.85443027E-22  7.91584155E-24 -1.46717838E-24  1.18646759E-21
 -3.38488742E-24 -6.55484434E-21 -2.85360898E-23  5.93451280E-24 -1.13533291E-20
  5.46636832E-24 -3.31030816E-21 -1.22446015E-23 -4.44141264E-24 -5.73532252E-21
 -2.80610718E-24 -1.98296234E-16  1.84897152E-15  2.31245275E-10 -2.55999344E-16
  4.09321675E-21  7.16103590E-15  2.98536367E-10 -4.47605623E-16  4.17360437E-15
 -1.68952587E-18 -2.97680202E-17 -2.42603541E-17 -5.12342219E-17 -2.33814582E-17
 -2.11438788E-19  1.52170583E-08  1.90315145E-03 -6.66253232E-10  2.97320198E-08
  3.71849379E-03 -1.30176634E-09  4.03685225E-08  5.04876900E-03 -1.76746768E-09
  2.64009174E-08  3.30188289E-03 -1.15591963E-09  2.17259036E-09  2.71719305E-04
 -9.51231975E-11  9.86532292E-20 -4.08381205E-19  1.91726287E-19  1.70743659E-19
  1.66804747E-20 -2.10428566E-20  9.90010359E-19 -1.83599549E-19 -1.30818121E-19
 -4.20962605E-19  3.97451692E-19 -3.56892243E-18  7.43206220E-19  6.87683119E-19
  6.60944496E-19  2.94956251E-19 -1.53139526E-18 -5.54971614E-19  2.98180349E-19
 -3.62426750E-19 -2.48003103E-11  2.31245276E-10  2.89211471E-05 -3.20170636E-11
  5.11926238E-16  8.95609100E-10  3.73370404E-05 -5.59806814E-11  5.21980075E-10
  6.52824691E-05  2.11383007E-19 -3.76722981E-19 -3.03798602E-19 -6.47880176E-19
 -2.96451197E-19 -3.29152119E-21 -1.68459953E-14 -2.10687768E-09  7.37573491E-16
 -3.29147366E-14 -4.11654655E-09  1.44111622E-15 -4.46898426E-14 -5.58922344E-09
  1.95666940E-15 -2.92270505E-14 -3.65533880E-09  1.27965710E-15 -2.40515915E-15
 -3.00805980E-10  1.05305829E-16  1.23612262E-21  4.52097107E-25 -2.10750778E-25
  2.14102732E-21 -5.27071806E-26 -4.73603756E-22 -1.09598778E-24  2.02678916E-25
 -8.20201300E-22  4.79143803E-25  4.70095655E-21  3.95096411E-24 -8.17062622E-25
  8.14229633E-21 -8.61915622E-25  2.37693749E-21  1.69532621E-24  6.17262464E-25
  4.11721190E-21  3.35377973E-25  2.74551035E-17 -2.55999336E-16 -3.20170626E-11
  3.54443870E-17 -5.66726290E-22 -9.91481165E-16 -4.13338501E-11  6.19732328E-17
 -5.77856358E-16 -7.22707468E-11  8.00070971E-17 -1.13380831E-19  2.84093940E-19
  2.29824112E-19  4.88405089E-19  2.23628130E-19  2.46339227E-21  2.69425664E-19
  3.36962529E-14 -1.17963483E-20  5.26420351E-19  6.58378011E-14 -2.30484272E-20
  7.14744976E-19  8.93909922E-14 -3.12939035E-20  4.67441510E-19  5.84614957E-14
 -2.04661379E-20  3.84668040E-20  4.81092684E-15 -1.68420401E-21 -9.27231603E-22
 -7.23958490E-30 -1.12106750E-27 -1.60601225E-21  2.56827306E-26  3.33602107E-22
  1.75318665E-29  4.01311555E-28  5.77815801E-22 -9.24755535E-27 -3.54270632E-21
 -6.32239141E-29 -4.28311298E-27 -6.13614730E-21  9.81374832E-26 -1.79454826E-21
 -2.71315216E-29 -2.18609081E-27 -3.10824871E-21  4.96989302E-26 -4.39101955E-22
  4.09431381E-21  5.12063443E-16 -5.66878200E-22  9.06391129E-27  1.58572092E-20
  6.61071063E-16 -9.91166095E-22  9.24191952E-21  1.15585892E-15 -1.27958989E-21
  2.04650630E-26 -7.75814865E-18 -3.98696355E-19 -4.47046285E-19 -6.55546712E-19
 -3.25657992E-19 -2.26829279E-22  4.71230820E-13  5.89354133E-08 -2.06320467E-14
  9.20719616E-13  1.15151617E-07 -4.03121554E-14  1.25010311E-12  1.56346615E-07
 -5.47336568E-14  8.17564454E-13  1.02250313E-07 -3.57956803E-14  6.72792017E-14
  8.41440628E-09 -2.94570616E-15  4.49150063E-22 -1.26464528E-23  5.93778153E-24
  7.77946740E-22  5.04192908E-25  3.58220015E-21  3.06579225E-23 -5.68123265E-24
  6.20163025E-21 -1.31353022E-23  4.56040700E-21 -1.10519800E-22  2.30205865E-23
  7.89883417E-21  2.03416765E-23  2.85991133E-21 -4.74231373E-23 -1.71825011E-23
  4.94692495E-21 -1.13023294E-23 -7.67998013E-16  7.16103590E-15  8.95609099E-10
 -9.91481193E-16  1.58529603E-20  2.77345728E-14  1.15622638E-09 -1.73356912E-15
  1.61643002E-14  2.02162013E-09 -2.23802805E-15  3.57938004E-20  6.26040654E-14
  2.90468001E-20  6.37020834E-20  9.70036247E-20 -3.16988873E-20  1.41983630E-19
  5.36504055E-20  1.96451378E-08  2.45695796E-03 -8.60129223E-10  3.83838725E-08
  4.80055483E-03 -1.68057311E-09  5.21155383E-08  6.51793274E-03 -2.28179097E-09
  3.40834378E-08  4.26271247E-03 -1.49228582E-09  2.80480209E-09  3.50788114E-04
 -1.22803520E-10  3.61466518E-21 -5.27217868E-19  2.47517422E-19  6.09457274E-21
  2.15378277E-20  9.04640307E-21  1.27809788E-18 -2.37025954E-19 -1.06163380E-19
 -5.43461388E-19  3.39946965E-20 -4.60745904E-18  9.59474522E-19  5.79466356E-20
  8.53288944E-19  1.36879310E-19 -1.97702278E-18 -7.16465567E-19 -3.75111261E-20
 -4.67884166E-19 -3.20170628E-11  2.98536367E-10  3.73370403E-05 -4.13338513E-11
  6.60893930E-16  1.15622637E-09  4.82019118E-05 -7.22707488E-11  6.73873378E-10
  8.42793051E-05 -9.33011328E-11  1.49220745E-15  2.60990037E-09  1.08804115E-04
  7.68071638E-20  1.62626873E-18  1.32702144E-18  2.79308895E-18  1.28122167E-18
  1.38053936E-20 -1.08541738E-14 -1.35749869E-09  4.75231695E-16 -2.12075492E-14
 -2.65236402E-09  9.28536768E-16 -2.87944590E-14 -3.60123589E-09  1.26071683E-15
 -1.88315075E-14 -2.35519968E-09  8.24505785E-16 -1.54968674E-15 -1.93814633E-10
  6.78504151E-17 -5.22972123E-21  2.91294134E-25 -1.43098467E-25 -9.05814278E-21
  1.32952711E-25  1.53835502E-21 -7.06164365E-25  1.32825261E-25  2.66457638E-21
  2.57659471E-25 -2.02421101E-20  2.54567610E-24 -5.54668928E-25 -3.50603623E-20
  8.92125203E-26 -1.03037983E-20  1.09232866E-24  3.83360388E-25 -1.78465502E-20
  5.43903825E-25  1.76898106E-17 -1.64944917E-16 -2.06291619E-11  2.28374478E-17
 -3.65151810E-22 -6.38828917E-16 -2.66321335E-11  3.99304541E-17 -3.72323110E-16
 -4.65653252E-11  5.15499931E-17 -8.24462483E-22 -1.44200120E-15 -6.01155763E-11
  3.32145757E-17 -1.47019773E-19 -2.95851218E-18 -2.41423524E-18 -5.08116753E-18
 -2.33081220E-18 -2.51116126E-20  1.01207462E-13  1.26577111E-08 -4.43119801E-15
  1.97745333E-13  2.47314106E-08 -8.65794585E-15  2.68487878E-13  3.35789668E-08
 -1.17552890E-14  1.75590432E-13  2.19605642E-08 -7.68793082E-15  1.44497281E-14
  1.80718379E-09 -6.32656928E-16  9.51315298E-21 -2.71611128E-24  1.28669239E-24
  1.64772634E-20 -1.52536345E-25 -2.79481172E-21  6.58448125E-24 -1.22449533E-24
 -4.84138358E-21 -2.72238254E-24  3.68242623E-20 -2.37366229E-23  4.98766021E-24
  6.37814880E-20  3.37600585E-24  1.87455766E-20 -1.01851897E-23 -3.66834214E-24
  3.24668760E-20 -2.92963202E-24 -1.64944919E-16  1.53799420E-15  1.92352282E-10
 -2.12942980E-16  3.40478127E-21  5.95662591E-15  2.48325728E-10 -3.72323123E-16
  3.47164855E-15  4.34188584E-10 -4.80667071E-16  7.68752706E-21  1.34456370E-14
  5.60535050E-10 -3.09702327E-16  2.88775423E-15  1.10478702E-18  3.75091282E-17
  3.06253897E-17  6.43329521E-17  2.96089062E-17  3.52913877E-19  1.26577111E-08
  1.58306164E-03 -5.54196531E-10  2.47314106E-08  3.09308271E-03 -1.08282310E-09
  3.35789667E-08  4.19961980E-03 -1.47019843E-09  2.19605641E-08  2.74654133E-03
 -9.61506252E-10  1.80718379E-09  2.26019010E-04 -7.91244882E-11 -1.18233618E-19
 -3.39695833E-19  1.59479724E-19 -2.04893726E-19  1.38805441E-20  4.16211439E-20
  8.23501155E-19 -1.52719987E-19 -6.40871961E-21 -3.50162813E-19 -4.44495692E-19
 -2.96866767E-18  6.18205905E-19 -7.70490849E-19  5.49802136E-19 -1.49167531E-19
 -1.27383088E-18 -4.61631775E-19 -4.35290911E-19 -3.01459502E-19 -2.06291621E-11
  1.92352282E-10  2.40569180E-05 -2.66321343E-11  4.25825694E-16  7.44977183E-10
  3.10573477E-05 -4.65653267E-11  4.34188583E-10  5.43026527E-05 -6.01155765E-11
  9.61455754E-16  1.68160515E-09  7.01044231E-05 -3.87335332E-11  3.61162686E-10
  4.51695246E-05 -2.67972995E-19  2.55877394E-18  2.08182285E-18  4.39611834E-18
  2.01529577E-18  2.18800163E-20 -1.40126791E-14 -1.75252339E-09  6.13521519E-16
 -2.73788299E-14 -3.42418745E-09  1.19873589E-15 -3.71734890E-14 -4.64917583E-09
  1.62757853E-15 -2.43113732E-14 -3.04054990E-09  1.06443246E-15 -2.00063710E-15
 -2.50213631E-10  8.75945147E-17 -8.27030428E-21  3.76059119E-25 -1.86581155E-25
 -1.43245871E-20  2.13707872E-25  2.61935745E-21 -9.11654326E-25  1.72244754E-25
  4.53694712E-21  3.15094469E-25 -3.18692101E-20  3.28645386E-24 -7.23031569E-25
 -5.51990901E-20  2.74069404E-25 -1.61953850E-20  1.41019030E-24  4.91407509E-25
 -2.80510335E-20  7.82313681E-25  2.28374487E-17 -2.12942986E-16 -2.66321351E-11
  2.94830201E-17 -4.71408989E-22 -8.24724637E-16 -3.43819386E-11  5.15499978E-17
 -4.80667099E-16 -6.01155802E-11  6.65507591E-17 -1.06437656E-21 -1.86161567E-15
 -7.76088801E-11  4.28798356E-17 -3.99824010E-16 -5.00047795E-11  5.53576332E-17
 -2.48790866E-20 -4.08054808E-18 -3.32705295E-18 -7.00890538E-18 -3.21452363E-18
 -3.47082953E-20  2.24262665E-19  2.80478532E-14 -9.81896254E-21  4.38178120E-19
  5.48016121E-14 -1.91848899E-20  5.94934465E-19  7.44066540E-14 -2.60482023E-20
  3.89085721E-19  4.86617742E-14 -1.70354619E-20  3.20187315E-20  4.00448591E-15
 -1.40188605E-21  1.31402030E-20 -5.89114503E-30  1.59380680E-26  2.27594992E-20
 -3.63956732E-25 -3.94583310E-21  1.45520881E-29 -4.78785312E-27 -6.83438346E-21
  1.09285373E-25  5.07991306E-20 -5.21047586E-29  6.16155156E-26  8.79866745E-20
 -1.40702316E-24  2.58463905E-20 -2.23184736E-29  3.13359705E-26  4.47672609E-20
 -7.15897937E-25 -3.65496639E-22  3.40799652E-21  4.26227816E-16 -4.71854143E-22
  7.54455560E-27  1.31991138E-20  5.50257745E-16 -8.25019958E-22  7.69272486E-21
  9.62105830E-16 -1.06509615E-21  1.70345672E-26  2.97937952E-20  1.24207328E-15
 -6.86260362E-22  6.39889044E-21  8.00289871E-16 -8.85958373E-22  1.41791149E-26
  3.39030962E-17 -9.75992675E-19 -2.62489561E-19 -1.80438966E-18 -7.18223761E-19
 -2.21301414E-20  3.91974819E-13  4.90231050E-08 -1.71619563E-14  7.65864390E-13
  9.57843428E-08 -3.35320805E-14  1.03984909E-12  1.30050781E-07 -4.55280391E-14
  6.80058827E-13  8.50529005E-08 -2.97752284E-14  5.59635571E-14  6.99919283E-09
 -2.45026978E-15  6.79294364E-21 -1.05194542E-23  4.94689475E-24  1.17657202E-20
  2.41590448E-25 -1.82901173E-20  2.55015865E-23 -4.75150399E-24 -3.16818434E-20
 -1.03369532E-23  1.39165461E-20 -9.19315478E-23  1.91610456E-23  2.41041461E-20
  1.66400325E-23  4.73642784E-21 -3.94470711E-23 -1.42897286E-23  8.19825462E-21
 -9.46669665E-24 -6.38828933E-16  5.95662599E-15  7.44977194E-10 -8.24724625E-16
  1.31866613E-20  2.30699132E-14  9.61761423E-10 -1.44200127E-15  1.34456372E-14
  1.68160518E-09 -1.86161559E-15  2.97736647E-20  5.20747289E-14  2.17094294E-09
 -1.19947197E-15  1.11842242E-14  1.39877709E-09 -1.54851175E-15  2.47827964E-20
  4.33163146E-14 -6.11095952E-20 -1.42967822E-19 -8.04051852E-20 -3.62631474E-19
 -3.63897459E-20  4.29945090E-20  1.63410350E-08  2.04372382E-03 -7.15464654E-10
  3.19281142E-08  3.99315267E-03 -1.39791863E-09  4.33502602E-08  5.42168592E-03
 -1.89801804E-09  2.83509668E-08  3.54576966E-03 -1.24129925E-09  2.33306427E-09
  2.91789292E-04 -1.02149276E-10  3.62868528E-21 -4.38545441E-19  2.05887630E-19
  6.14681117E-21  1.79153774E-20  7.37841797E-21  1.06313543E-18 -1.97160715E-19
 -8.85615356E-20 -4.52056970E-19  3.07122466E-20 -3.83253354E-18  7.98101135E-19
  5.24183385E-20  7.09774770E-19  1.15102454E-19 -1.64450862E-18 -5.95963693E-19
 -2.90461233E-20 -3.89191070E-19 -2.66321341E-11  2.48325731E-10  3.10573481E-05
 -3.43819380E-11  5.49738615E-16  9.61761421E-10  4.00948640E-05 -6.01155791E-11
  5.60535057E-10  7.01044242E-05 -7.76088766E-11  1.24123406E-15  2.17094294E-09
  9.05044223E-05 -5.00047770E-11  4.66259029E-10  5.83136063E-05 -6.45558936E-11
  1.03316979E-15  1.80581348E-09  7.52825430E-05 -1.00939613E-05 -1.71939381E-05
 -1.41760818E-05 -2.94952630E-05 -1.35597425E-05 -1.42174061E-07  5.95519627E-22
  5.70476598E-20  7.67150800E-23  6.95818072E-22  1.11466811E-19  2.13077142E-22
  3.10710680E-21  1.51418592E-19  2.29765159E-22 -1.26267927E-22  9.89772775E-20
  5.18268669E-23 -6.71755778E-22  8.16067913E-21  3.51928049E-23  5.42927822E-08
  5.26417788E-19  6.58413456E-14  9.40378572E-08 -1.50379998E-12 -1.15162551E-08
 -1.11710163E-19 -1.39658662E-14 -1.99467392E-08  3.18976920E-13  2.13528840E-07
  2.07031632E-18  2.58948344E-13  3.69842796E-07 -5.91431584E-12  1.09333890E-07
  1.06003762E-18  1.32590189E-13  1.89371850E-07 -3.02832701E-12  1.41730236E-23
  1.05763635E-23  5.15103395E-22  1.42720208E-23  1.27734606E-23  2.51735904E-22
  1.11901904E-21 -1.01414628E-24 -3.62373394E-23  4.12018713E-21  2.61873259E-23
 -1.99842403E-23  6.84000922E-23  2.52188658E-21 -1.18093352E-22  2.14883312E-22
 -1.09238039E-21 -1.83829037E-22  2.95455930E-22 -1.01856651E-22  2.11234840E-21
  1.29578139E-09 -4.89424352E-16 -3.38609172E-16 -2.83747768E-16 -5.79768594E-16
 -2.67473021E-16 -2.68137245E-18  2.76678050E-22  3.46032869E-17 -1.21138818E-23
  5.40590507E-22  6.76100196E-17 -2.36688435E-23  7.33984445E-22  9.17972144E-17
 -3.21362712E-23  4.80024076E-22  6.00351592E-17 -2.10170443E-23  3.95022515E-23
  4.94042712E-18 -1.72953933E-24  1.03793166E-18  1.00561635E-29  1.25870907E-24
  1.79775037E-18 -2.87486024E-23 -7.81163479E-20 -7.40152244E-31 -9.47324003E-26
 -1.35301488E-19  2.16366451E-24  4.19000117E-18  4.05603206E-29  5.08125212E-24
  7.25729486E-18 -1.16054535E-22  2.16558274E-18  2.09683605E-29  2.62622159E-24
  3.75089928E-18 -5.99822497E-23 -4.50921679E-25  4.20452434E-24  5.25847140E-19
 -5.82137397E-25  9.30814269E-30  1.62840527E-23  6.78865739E-19 -1.01784625E-24
  9.49069303E-24  1.18697227E-18 -1.31403382E-24  2.10155638E-29  3.67572960E-23
  1.53237461E-18 -8.46655324E-25  7.89445952E-24  9.87336171E-19 -1.09302739E-24
  1.74989233E-29  3.05751106E-23  1.27464553E-18  2.69976572E-20  6.25193396E-31
 -2.23493858E-11 -3.80690198E-11 -3.13872042E-11 -6.53053255E-11 -3.00225645E-11
 -3.14786779E-13 -8.67486387E-23 -1.08495546E-17  3.79837042E-24 -1.69495835E-22
 -2.11985238E-17  7.42162847E-24 -2.30127456E-22 -2.87822049E-17  1.00765525E-23
 -1.50507586E-22 -1.88234933E-17  6.58982324E-24 -1.23870691E-23 -1.54902724E-18
  5.42359690E-25  1.20209359E-13  1.16553881E-24  1.45778971E-19  2.08208717E-13
 -3.32955549E-18 -2.54978873E-14 -2.47335023E-25 -3.09215173E-20 -4.41636367E-14
  7.06239785E-19  4.72773208E-13  4.58387774E-24  5.73336322E-19  8.18867211E-13
 -1.30948591E-17  2.42075684E-13  2.34702462E-24  2.93567352E-19  4.19287377E-13
 -6.70500547E-18  1.41413888E-25 -1.31826803E-24 -1.64874722E-19  1.82555636E-25
  2.53632504E-29 -5.10516343E-24 -2.12852350E-19  3.19134451E-25 -2.97580315E-24
 -3.72164656E-19  4.12061673E-25 -5.08363550E-29 -1.15247738E-23 -4.80462510E-19
  2.65199823E-25 -2.47476223E-24 -3.09570532E-19  3.42302062E-25  6.48682820E-28
 -9.58678123E-24 -3.99653836E-19  2.86898566E-15  5.97754799E-26  6.35221247E-21
 -1.50471891E-05 -2.56312096E-05 -2.11324551E-05 -4.39689420E-05 -2.02136706E-05
 -2.11940576E-07  8.84868167E-22 -2.75160915E-19  1.14486188E-22  1.03163707E-21
 -5.37620867E-19  3.17883030E-22  4.62416094E-21 -7.29840614E-19  3.42848198E-22
 -1.93225918E-22 -4.77388736E-19  7.74777084E-23 -1.00180559E-21 -3.92621012E-20
  5.24803397E-23  8.09349012E-08  7.84737305E-19  9.81504829E-14  1.40183361E-07
 -2.24173265E-12 -1.71674195E-08 -1.66527679E-19 -2.08190841E-14 -2.97348432E-08
  4.75502717E-13  3.18310000E-07  3.08624535E-18  3.86017400E-13  5.51329089E-07
 -8.81654150E-12  1.62985341E-07  1.58021078E-18  1.97653783E-13  2.82298886E-07
 -4.51436337E-12  2.11325900E-23  1.57225449E-23 -4.70592939E-21  2.12815322E-23
  1.90415508E-23  3.75096221E-22 -5.39851059E-21 -1.50120476E-24 -5.41182294E-23
 -6.21376287E-21  3.90514390E-23 -2.97907468E-23  1.01582213E-22 -1.21918306E-20
 -1.76034361E-22  3.20246951E-22 -1.19060899E-20 -2.74024771E-22  4.40439695E-22
 -1.52157202E-22 -1.01195060E-20  1.93163685E-09  4.02457312E-20  4.27683131E-15
  2.87951421E-09  2.40625872E-10  4.09879693E-10  3.37938173E-10  7.03126258E-10
  3.23245498E-10  3.38923297E-12 -4.41582916E-23 -5.52096983E-18  1.93094597E-24
 -8.62680223E-23 -1.07872087E-17  3.77129413E-24 -1.17181585E-22 -1.46462864E-17
  5.12187784E-24 -7.65850262E-23 -9.57863639E-18  3.35204248E-24 -6.28658653E-24
 -7.88247347E-19  2.75109754E-25 -1.29426483E-12 -1.25490719E-23 -1.56956660E-18
 -2.24173244E-12  3.58485113E-17  2.74531690E-13  2.66301671E-24  3.32927050E-19
  4.75502840E-13 -7.60397123E-18 -5.09023209E-12 -4.93534766E-23 -6.17297024E-18
 -8.81654055E-12  1.40989106E-16 -2.60636865E-12 -2.52698300E-23 -3.16076663E-18
 -4.51436286E-12  7.21911255E-17  7.16068717E-26 -6.71085691E-25 -8.38991370E-20
  9.25400330E-26 -3.05986707E-28 -2.60412826E-24 -1.08313331E-19  1.62421959E-25
 -1.51338008E-24 -1.89382006E-19  2.09030361E-25  4.73043548E-28 -5.86627207E-24
 -2.44491051E-19  1.37899382E-25 -1.26468674E-24 -1.57529861E-19  1.78775194E-25
 -7.04605159E-27 -4.87584320E-24 -2.03370263E-19 -3.08896345E-14 -6.43586747E-25
 -6.83926462E-20 -4.60475483E-14  7.36366120E-19 -3.97886877E-16 -8.78980697E-16
 -7.22845384E-16 -1.50828931E-15 -6.93018615E-16 -7.31633726E-18 -4.27893321E-22
 -5.35153234E-17  1.87345874E-23 -8.36044159E-22 -1.04561514E-16  3.66047833E-23
 -1.13513537E-21 -1.41967948E-16  4.96999882E-23 -7.42375827E-22 -9.28466991E-17
  3.25036731E-23 -6.10917620E-23 -7.64056190E-18  2.67479956E-24  2.78824670E-18
  2.70461060E-29  3.38133186E-24  4.82938494E-18 -7.72287797E-23 -6.49160435E-19
 -6.32466939E-30 -7.87242695E-25 -1.12437887E-18  1.79804280E-23  1.09220755E-17
  1.05997716E-28  1.32452991E-23  1.89175895E-17 -3.02519341E-22  5.58427194E-18
  5.41849140E-29  6.77209665E-24  9.67224257E-18 -1.54673007E-22  6.97367843E-25
 -6.50245974E-24 -8.13242970E-19  9.00298035E-25 -1.43943635E-29 -2.51839182E-23
 -1.04989216E-18  1.57413866E-24 -1.46777244E-23 -1.83569859E-18  2.03220421E-24
 -3.25029945E-29 -5.68465821E-23 -2.36987669E-18  1.30938524E-24 -1.22090874E-23
 -1.52695363E-18  1.69040918E-24 -2.70386576E-29 -4.72855929E-23 -1.97128869E-18
  6.56411338E-20  1.31754755E-30  1.45335824E-25  9.78520248E-20 -1.56479376E-24
  3.38363118E-30 -1.97093991E-11 -3.35736443E-11 -2.76808366E-11 -5.75937575E-11
 -2.64773524E-11 -2.77615573E-13 -7.64995771E-23 -9.56771604E-18  3.34960567E-24
 -1.49470469E-22 -1.86939891E-17  6.54478792E-24 -2.02938666E-22 -2.53816836E-17
  8.88604158E-24 -1.32725618E-22 -1.65995606E-17  5.81125767E-24 -1.09235784E-23
 -1.36601485E-18  4.78281712E-25  1.06014545E-13  1.02790721E-24  1.28564792E-19
  1.83622577E-13 -2.93638792E-18 -2.24874135E-14 -2.18132775E-25 -2.72706887E-20
 -3.89493432E-14  6.22855765E-19  4.16945888E-13  4.04259154E-24  5.05634028E-19
  7.22171456E-13 -1.15485556E-17  2.13490170E-13  2.06987616E-24  2.58901443E-19
  3.69775816E-13 -5.91324471E-18  1.24706312E-25 -1.16251907E-24 -1.45395325E-19
  1.60987300E-25  2.23684206E-29 -4.50200542E-24 -1.87704557E-19  2.81429783E-25
 -2.62422197E-24 -3.28194646E-19  3.63377968E-25 -4.48329931E-29 -1.01631604E-23
 -4.23697471E-19  2.33867335E-25 -2.18237732E-24 -2.72995809E-19  3.01860193E-25
  5.72083523E-28 -8.45413509E-24 -3.52436072E-19  2.53019746E-15  5.27166864E-26
  5.60210253E-21  3.77179567E-15 -6.03164044E-20  1.28173688E-25  4.94057038E-21
 -1.99055601E-05 -3.39069032E-05 -2.79556104E-05 -5.81654429E-05 -2.67401727E-05
 -2.80371029E-07  1.17377124E-21  3.62961290E-20  1.51310855E-22  1.37098125E-21
  7.09247014E-20  4.20245914E-22  6.12568085E-21  9.64456247E-20  4.53173774E-22
 -2.50060820E-22  6.29763697E-20  1.02250244E-22 -1.32480725E-21  5.21326552E-21
  6.94049560E-23  1.07066810E-07  1.03810988E-18  1.29840884E-13  1.85445155E-07
 -2.96553354E-12 -2.27103614E-08 -2.20295413E-19 -2.75410595E-14 -3.93355002E-08
  6.29030968E-13  4.21084550E-07  4.08271884E-18  5.10653021E-13  7.29339830E-07
 -1.16631881E-11  2.15609339E-07  2.09042238E-18  2.61471378E-13  3.73446324E-07
 -5.97194140E-12  2.79505725E-23  2.08476109E-23 -1.42223206E-22  2.81460866E-23
  2.51896040E-23  4.96394037E-22  7.11736872E-22 -1.99768194E-24 -7.14818973E-23
  5.51116773E-21  5.16449969E-23 -3.94094534E-23  1.34805854E-22  1.59863137E-21
 -2.32881365E-22  4.23738220E-22 -4.32851532E-21 -3.62513342E-22  5.82646951E-22
 -2.00931357E-22  1.35858228E-21  2.55531537E-09  5.32400980E-20  5.65771602E-15
  3.80923924E-09 -6.09151806E-14  1.29446061E-19  4.98961667E-15  5.03914985E-09
  6.36636370E-10  1.08443988E-09  8.94100481E-10  1.86029746E-09  8.55227311E-10
  8.96706870E-12  2.74081723E-23  3.43255114E-18 -1.20650360E-24  5.35812657E-23
  6.70672848E-18 -2.36132582E-24  7.26133513E-23  9.10603185E-18 -3.20232483E-24
  4.76250854E-23  5.95532312E-18 -2.08810411E-24  3.96088744E-24  4.90076817E-19
 -1.73785384E-25 -3.42430330E-12 -3.32017276E-23 -4.15268342E-18 -5.93106729E-12
  9.48462577E-17  7.26342635E-13  7.04568052E-24  8.80842247E-19  1.25806236E-12
 -2.01182184E-17 -1.34674900E-11 -1.30577042E-22 -1.63321462E-17 -2.33263767E-11
  3.73022161E-16 -6.89580417E-12 -6.68576946E-23 -8.36260354E-18 -1.19438830E-11
  1.90999790E-16 -4.56241481E-26  4.16410655E-25  5.21626161E-20 -5.86466450E-26
 -8.04712369E-28  1.59945781E-24  6.73416192E-20 -1.00903699E-25  9.43737230E-25
  1.17744257E-19 -1.32000350E-25  1.26251194E-27  3.64191270E-24  1.52007358E-19
 -7.65377008E-26  7.69556632E-25  9.79412114E-20 -9.68311403E-26 -1.86329830E-26
  3.03939448E-24  1.26441340E-19 -8.17263018E-14 -1.70277071E-24 -1.80949957E-19
 -1.21830378E-13  1.94824189E-18 -4.14005571E-24 -1.59582227E-19 -1.61166440E-13
  5.15456422E-18 -2.66461764E-06 -1.04047816E-04 -8.48667567E-05 -1.78708844E-04
 -8.19685313E-05 -8.84181113E-07  3.77295340E-21 -4.72557502E-19  4.52445297E-22
  4.07416696E-21 -9.23243184E-19  1.29485278E-21  1.88691634E-20 -1.25309674E-18
  1.38926900E-21 -8.02266202E-22 -8.19817510E-19  3.15336766E-22 -4.05521215E-21
 -6.73714136E-20  2.12456003E-22  3.34836804E-07  3.24656684E-18  4.06059606E-13
  5.79954357E-07 -9.27430052E-12 -9.95741978E-08 -9.65809379E-19 -1.20754526E-13
 -1.72467571E-07  2.75800340E-12  1.29519543E-06  1.25578303E-17  1.57069515E-12
  2.24334427E-06 -3.58742868E-11  6.59130654E-07  6.39055083E-18  7.99333652E-13
  1.14164776E-06 -1.82565823E-11  8.26454921E-23  6.13538933E-23 -9.31090848E-21
  8.10046130E-23  7.77110494E-23  9.19952996E-22 -9.27128295E-21 -2.76126171E-24
 -2.29740841E-22 -3.16547720E-21  1.64791537E-22 -1.24313947E-22  1.83430122E-22
 -2.09518767E-20 -7.12480023E-22  1.29606741E-21 -2.99141519E-20 -1.12055543E-21
  1.78754569E-21  3.86570235E-22 -1.73420523E-20  7.54401276E-09  1.48915820E-19
  1.67031647E-14  1.12459502E-08 -1.79838826E-13  3.85520291E-19  1.47307725E-14
  1.48769938E-08 -4.75808870E-13  4.55821452E-08  4.83723422E-16 -1.70223858E-15
 -1.38014045E-15 -2.92569497E-15 -1.34023068E-15 -1.46804048E-17 -3.94949258E-23
 -4.93951092E-18  1.72921872E-24 -7.71676033E-23 -9.65111874E-18  3.37865338E-24
 -1.04773982E-22 -1.31037651E-17  4.58735218E-24 -6.85219348E-23 -8.56983113E-18
  3.00011732E-24 -5.63882286E-24 -7.05230512E-19  2.46886331E-25  5.53474302E-18
  5.36659283E-29  6.71203267E-24  9.58645611E-18 -1.53301159E-22 -1.89880397E-18
 -1.84193003E-29 -2.30269666E-24 -3.28882498E-18  5.25930202E-23  2.12170574E-17
  2.05723328E-28  2.57301163E-23  3.67490211E-17 -5.87669463E-22  1.07609585E-17
  1.04336065E-28  1.30499108E-23  1.86385265E-17 -2.98056725E-22  6.43676601E-26
 -6.00182692E-25 -7.50630339E-20  8.30982933E-26 -1.32739753E-30 -2.32449756E-24
 -9.69059601E-20  1.45294368E-25 -1.35476674E-24 -1.69436578E-19  1.87574219E-25
 -3.00202406E-30 -5.24698899E-24 -2.18741681E-19  1.20857386E-25 -1.12690937E-24
 -1.40939149E-19  1.56026221E-25 -2.46784462E-30 -4.36450136E-24 -1.81951661E-19
  1.20737535E-19  2.30269495E-30  2.67324329E-25  1.79984890E-19 -2.87821582E-24
  6.20630717E-30  2.35757582E-25  2.38097630E-19 -7.61504425E-24  7.45100286E-19
  1.23209778E-29 -5.89987698E-12 -2.30371572E-10 -1.87902920E-10 -3.95678053E-10
 -1.81485976E-10 -1.95765941E-12  1.04505937E-22  1.30691956E-17 -4.57424867E-24
  2.04182794E-22  2.55353942E-17 -8.93653735E-24  2.77257844E-22  3.46705720E-17
 -1.21343620E-23  1.81296869E-22  2.26744714E-17 -7.93715715E-24  1.49104912E-23
  1.86593281E-18 -6.52753375E-25  7.41359908E-13  7.18820172E-24  8.99053832E-19
  1.28407303E-12 -2.05341662E-17 -2.20466480E-13 -2.13839125E-24 -2.67361684E-19
 -3.81859148E-13  6.10647451E-18  2.86768352E-12  2.78042079E-23  3.47766559E-18
  4.96697352E-12 -7.94290180E-17  1.45937677E-12  1.41492759E-23  1.76979929E-18
  2.52771468E-12 -4.04217767E-17 -1.70124077E-25  1.58812821E-24  1.98605381E-19
 -2.19686124E-25  1.75574979E-28  6.15230484E-24  2.56398451E-19 -3.84432972E-25
  3.58399861E-24  4.48303476E-19 -4.95928061E-25 -2.67305229E-28  1.38831431E-23
  5.78757261E-19 -3.21347840E-25  2.98450093E-24  3.72903543E-19 -4.15302777E-25
  3.96439986E-27  1.15486645E-23  4.81416458E-19  1.67031490E-14  3.29713569E-25
  3.69823669E-20  2.48995844E-14 -3.98179959E-19  8.53577914E-25  3.26153064E-20
  3.29390540E-14 -1.05348529E-18  1.00923123E-13  1.64972151E-24  2.23453210E-19
 -3.97217745E-06 -1.55105326E-04 -1.26511891E-04 -2.66403415E-04 -1.22191472E-04
 -1.31805938E-06  5.62093096E-21 -1.13666472E-18  6.74616936E-22  6.06665718E-21
 -2.22078286E-18  1.93054819E-21  2.81193201E-20 -3.01461332E-18  2.07140135E-21
 -1.20194366E-21 -1.97199003E-18  4.70338812E-22 -6.04564675E-21 -1.62140526E-19
  3.16732313E-22  4.99145237E-07  4.83969609E-18  6.05317920E-13  8.64544910E-07
 -1.38253109E-11 -1.48436450E-07 -1.43974362E-18 -1.80010218E-13 -2.57099475E-07
  4.11138872E-12  1.93076335E-06  1.87201082E-17  2.34145408E-12  3.34418019E-06
 -5.34782293E-11  9.82573965E-07  9.52647071E-18  1.19157625E-12  1.70186800E-06
 -2.72153060E-11  1.23206258E-22  9.14084667E-23 -2.04480561E-20  1.20761819E-22
  1.15844793E-22  1.37118156E-21 -2.23002878E-20 -4.10353236E-24 -3.42595969E-22
 -1.95448715E-20  2.45673133E-22 -1.85316291E-22  2.72982358E-22 -5.03735705E-20
 -1.06209193E-21  1.93196462E-21 -5.69258565E-20 -1.67041176E-21  2.66471579E-21
  5.75882979E-22 -4.17731580E-20  1.12459502E-08  2.21990598E-19  2.48996078E-14
  1.67644728E-08 -2.68087893E-13  5.74699718E-19  2.19593391E-14  2.21773129E-08
 -7.09293985E-13  6.79498501E-08  1.11072993E-18  1.50447308E-13  1.01293656E-07
  6.35211219E-11  2.48035618E-09  2.02310623E-09  4.26017192E-09  1.95401654E-09
  2.10776560E-11  1.32637173E-22  1.65997901E-17 -5.82201854E-24  2.59233238E-22
  3.24336858E-17 -1.13852099E-23  3.51654871E-22  4.40366979E-17 -1.54494282E-23
  2.30294749E-22  2.87998954E-17 -1.00897469E-23  1.90465652E-23  2.37000761E-18
 -8.34753769E-25 -7.98204677E-12 -7.73936676E-23 -9.67989994E-18 -1.38253105E-11
  2.21086510E-16  2.37371114E-12  2.30235596E-23  2.87862086E-18  4.11138833E-12
 -6.57469860E-17 -3.08756696E-11 -2.99361325E-22 -3.74432022E-17 -5.34782280E-11
  8.55193433E-16 -1.57127641E-11 -1.52341903E-22 -1.90550099E-17 -2.72153054E-11
  4.35211698E-16 -2.18284870E-25  2.01551846E-24  2.52257941E-19 -2.81192141E-25
 -1.84805890E-27  7.78980362E-24  3.25663537E-19 -4.88212146E-25  4.55832181E-24
  5.69410642E-19 -6.34292534E-25  2.97355442E-27  1.76287205E-23  7.35106379E-19
 -3.89170261E-25  3.75620858E-24  4.73642484E-19 -4.97631133E-25 -4.26042279E-26
  1.46581796E-23  6.11469318E-19 -1.79838843E-13 -3.54994747E-24 -3.98180372E-19
 -2.68087919E-13  4.28710917E-18 -9.19027118E-24 -3.51161268E-19 -3.54646981E-13
  1.13426262E-17 -1.08661536E-12 -1.77621613E-23 -2.40586781E-18 -1.61983055E-12
  2.59034090E-17 -9.18065925E-16 -4.66925926E-15 -3.82104595E-15 -8.01674056E-15
 -3.67961950E-15 -3.93529333E-17  2.00202280E-22  2.50386936E-17 -8.76551914E-24
  3.91167467E-22  4.89221319E-17 -1.71266077E-23  5.31105953E-22  6.64238150E-17
 -2.32535785E-23  3.47342026E-22  4.34410166E-17 -1.52077846E-23  2.85835496E-23
  3.57485812E-18 -1.25148241E-24  1.49402176E-17  1.44854224E-28  1.81181364E-23
  2.58772160E-17 -4.13813733E-22 -4.06002577E-18 -3.93675478E-29 -4.92362979E-24
 -7.03217098E-18  1.12454482E-22  5.80817311E-17  5.63096605E-28  7.04362378E-23
  1.00600509E-16 -1.60874617E-21  2.96133116E-17  2.87093388E-28  3.59123285E-23
  5.12917596E-17 -8.20228671E-22 -3.26283734E-25  3.04236407E-24  3.80499271E-19
 -4.21230500E-25  6.73860739E-30  1.17830254E-23  4.91222447E-19 -7.36506349E-25
  6.86739834E-24  8.58884740E-19 -9.50825573E-25  1.52014534E-29  2.65973194E-23
  1.10881543E-18 -6.12633834E-25  5.71237512E-24  7.14429469E-19 -7.90906937E-25
  1.27381087E-29  2.21239338E-23  9.22324491E-19  3.42609584E-19  6.89600140E-30
  7.58570489E-25  5.10732213E-19 -8.16733833E-24  1.74364419E-29  6.68994392E-25
  6.75635210E-19 -2.16087489E-23  2.04650362E-18  3.32372278E-29  4.53115003E-24
  3.05074747E-18 -4.87858189E-23  9.22163200E-29 -5.20386768E-12 -2.03168704E-10
 -1.65714870E-10 -3.48955367E-10 -1.60055646E-10 -1.72649368E-12  5.09071862E-23
  6.36588548E-18 -2.22767926E-24  9.94591368E-23  1.24380566E-17 -4.35177384E-24
  1.35066260E-22  1.68877181E-17 -5.90932250E-24  8.83073490E-23  1.10445274E-17
 -3.86584114E-24  7.25921916E-24  9.08878783E-19 -3.17764486E-25  6.53818150E-13
  6.33939966E-24  7.92891153E-19  1.13244625E-12 -1.81094370E-17 -1.94432891E-13
 -1.88588122E-24 -2.35790516E-19 -3.36767648E-13  5.38539688E-18  2.52906003E-12
  2.45210151E-23  3.06701384E-18  4.38046043E-12 -7.00498340E-17  1.28704983E-12
  1.24784932E-23  1.56081687E-18  2.22923567E-12 -3.56486700E-17 -8.27936376E-26
  7.73616390E-25  9.67388602E-20 -1.06936293E-25  1.53454629E-28  2.99753575E-24
  1.24889337E-19 -1.87256206E-25  1.74553218E-24  2.18364529E-19 -2.41417974E-25
 -2.38875012E-28  6.76251265E-24  2.81907361E-19 -1.57148438E-25  1.45485616E-24
  1.81637886E-19 -2.03269762E-25  3.49366474E-27  5.62558699E-24  2.34493548E-19
  1.47308015E-14  2.90780302E-25  3.26154013E-20  2.19593823E-14 -3.51161925E-19
  7.52785374E-25  2.87640136E-20  2.90495323E-14 -9.29087243E-19  8.90058611E-14
  1.45491798E-24  1.97067281E-19  1.32682104E-13 -2.12177676E-18  3.99610047E-24
  1.73797071E-19 -5.25469685E-06 -2.05185060E-04 -1.67359501E-04 -3.52418591E-04
 -1.61644123E-04 -1.74362867E-06  7.44722398E-21 -7.39926807E-20  8.91933822E-22
  8.04776819E-21 -1.44436180E-19  2.55289730E-21  3.72286893E-20 -1.95254240E-19
  2.73887867E-21 -1.57018927E-21 -1.28278008E-19  6.21331421E-22 -7.99600682E-21
 -1.03724958E-20  4.18926008E-22  6.60307082E-07  6.40231613E-18  8.00760340E-13
  1.14368541E-06 -1.82891672E-11 -1.96362966E-07 -1.90460178E-18 -2.38131135E-13
 -3.40110636E-07  5.43885604E-12  2.55415983E-06  2.47643753E-17  3.09745259E-12
  4.42393456E-06 -7.07450476E-11  1.29982318E-06  1.26023362E-17  1.57630722E-12
  2.25135975E-06 -3.60024657E-11  1.62967929E-22  1.21095750E-22 -5.32427430E-21
  1.59728818E-22  1.53248256E-22  1.81457549E-21 -1.45241239E-21 -5.47051650E-24
 -4.52819748E-22  2.31856490E-20  3.24940715E-22 -2.45150408E-22  3.62640384E-22
 -3.32620331E-21 -1.40505054E-21  2.55607513E-21 -3.45129341E-20 -2.20979221E-21
  3.52508764E-21  7.63084817E-22 -2.59729144E-21  1.48769938E-08  2.93665957E-19
  3.29390849E-14  2.21773129E-08 -3.54646946E-13  7.60256265E-19  2.90494751E-14
  2.93378273E-08 -9.38307744E-13  8.98892023E-08  1.46935758E-18  1.99023081E-13
  1.33998911E-07 -2.14283439E-12  4.03575955E-18  1.75521925E-13  1.77263897E-07
  1.68060939E-10  6.56240576E-09  5.35263609E-09  1.12713557E-08  5.16984194E-09
  5.57662375E-11 -2.65409074E-22 -3.31641188E-17  1.15815336E-23 -5.18364505E-22
 -6.47980850E-17  2.26027971E-23 -7.04648394E-22 -8.79793223E-17  3.07121126E-23
 -4.60009448E-22 -5.75382669E-17  2.01230644E-23 -3.76036006E-23 -4.73495229E-18
  1.64420859E-24 -2.11185112E-11 -2.04764403E-22 -2.56106086E-17 -3.65783344E-11
  5.84939938E-16  6.28024959E-12  6.09146153E-23  7.61611519E-18  1.08777115E-11
 -1.73950181E-16 -8.16893452E-11 -7.92035637E-22 -9.90654036E-17 -1.41490095E-10
  2.26262920E-15 -4.15720673E-11 -4.03058799E-22 -5.04148187E-17 -7.20049317E-11
  1.15146195E-15  4.26955470E-25 -4.03352934E-24 -5.03976760E-19  5.52817467E-25
 -4.91023883E-27 -1.56648272E-23 -6.50631373E-19  9.75688550E-25 -9.08148853E-24
 -1.13760632E-18  1.24899005E-24  7.82047014E-27 -3.52401425E-23 -1.46864238E-18
  8.56380100E-25 -7.64787613E-24 -9.46271329E-19  1.11824339E-24 -1.12759163E-25
 -2.93278842E-23 -1.22163239E-18 -4.75808865E-13 -9.39227842E-24 -1.05348627E-18
 -7.09293978E-13  1.13426250E-17 -2.43151725E-23 -9.29085406E-19 -9.38307736E-13
  3.00097688E-17 -2.87491409E-12 -4.69942627E-23 -6.36532805E-18 -4.28566889E-12
  6.85339800E-17 -1.29075147E-22 -5.61369378E-18 -5.66940704E-12  1.81323872E-16
Pure Switching                             I                1
Dipole_Data                                R   N=           3
  6.17380612E-16 -6.69476289E-18 -8.03879267E-17
Quadrupole_Data                            R   N=           6
 -5.07235351E+00 -3.57236731E-05 -9.54020525E+00  1.25056845E-11  1.56410077E-06
 -5.07235351E+00
Octapole_Data                              R   N=          10
  1.28655805E-15  5.52807145E-17  2.11880591E-16  1.36306574E-16  9.17460061E-17
  1.58779979E-15  3.48793923E-16  2.01923102E-16 -2.25143965E-16  1.65100839E-16
Hexadecapole_Data                          R   N=          15
 -5.42579293E+00 -4.47639587E-05 -3.67476195E+00 -4.18572336E-05 -1.62592434E+01
  1.56703293E-11  6.53304804E-07  4.20610531E-12  1.83264835E-06 -1.80859764E+00
 -1.49213196E-05 -3.67476195E+00  1.56699672E-11  1.95991441E-06 -5.42579293E+00
