Jobname.Temp
SP        R                             STO-3G              
Number of atoms                            I               20
Charge                                     I                0
Multiplicity                               I                1
Number of electrons                        I               70
Number of alpha electrons                  I               35
Number of beta electrons                   I               35
Atomic numbers                             I   N=          20
           6           6           6           6           6           6
           1           1           1           1           6           6
           1           1           1           6           6           1
           1           1
Current cartesian coordinates              R   N=          60
  2.58290277E+00  5.26797819E-01 -7.59359635E-16  8.34595104E-01  2.50022004E+00
 -4.80205391E-15 -1.74784262E+00  1.97341116E+00 -4.04262387E-15 -2.58290277E+00
 -5.26797819E-01  7.59359635E-16 -8.34595104E-01 -2.50022004E+00  4.80205391E-15
  1.74784262E+00 -1.97341116E+00  4.04262387E-15  1.49330241E+00  4.47110415E+00
 -8.58735257E-15 -3.12599029E+00  3.52878408E+00 -7.22893583E-15 -1.49330241E+00
 -4.47110415E+00  8.58735257E-15  3.12599029E+00 -3.52878408E+00  7.22893583E-15
 -5.43458912E+00 -1.10885517E+00  1.59859989E-15 -7.18244858E+00  6.86446481E-01
 -2.09570409E-15 -5.90319098E+00 -3.13067751E+00  5.50345343E-15 -9.21608439E+00
  2.72072857E-01 -1.49860446E-15 -6.71384672E+00  2.70826884E+00 -6.00055767E-15
  5.43458912E+00  1.10885517E+00 -1.59859989E-15  7.18244858E+00 -6.86446481E-01
  2.09570409E-15  5.90319098E+00  3.13067751E+00 -5.50345343E-15  9.21608439E+00
 -2.72072857E-01  1.49860446E-15  6.71384672E+00 -2.70826884E+00  6.00055767E-15
Nuclear charges                            R   N=          20
  6.00000000E+00  6.00000000E+00  6.00000000E+00  6.00000000E+00  6.00000000E+00
  6.00000000E+00  1.00000000E+00  1.00000000E+00  1.00000000E+00  1.00000000E+00
  6.00000000E+00  6.00000000E+00  1.00000000E+00  1.00000000E+00  1.00000000E+00
  6.00000000E+00  6.00000000E+00  1.00000000E+00  1.00000000E+00  1.00000000E+00
Number of basis functions                  I               60
Number of contracted shells                I               30
Number of primitive shells                 I               90
Highest angular momentum                   I                1
Largest degree of contraction              I                3
Shell types                                I   N=          30
           0          -1           0          -1           0          -1
           0          -1           0          -1           0          -1
           0           0           0           0           0          -1
           0          -1           0           0           0           0
          -1           0          -1           0           0           0
Number of primitives per shell             I   N=          30
           3           3           3           3           3           3
           3           3           3           3           3           3
           3           3           3           3           3           3
           3           3           3           3           3           3
           3           3           3           3           3           3
Shell to atom map                          I   N=          30
           1           1           2           2           3           3
           4           4           5           5           6           6
           7           8           9          10          11          11
          12          12          13          14          15          16
          16          17          17          18          19          20
Primitive exponents                        R   N=          90
  7.16168370E+01  1.30450960E+01  3.53051220E+00  2.94124940E+00  6.83483100E-01
  2.22289900E-01  7.16168370E+01  1.30450960E+01  3.53051220E+00  2.94124940E+00
  6.83483100E-01  2.22289900E-01  7.16168370E+01  1.30450960E+01  3.53051220E+00
  2.94124940E+00  6.83483100E-01  2.22289900E-01  7.16168370E+01  1.30450960E+01
  3.53051220E+00  2.94124940E+00  6.83483100E-01  2.22289900E-01  7.16168370E+01
  1.30450960E+01  3.53051220E+00  2.94124940E+00  6.83483100E-01  2.22289900E-01
  7.16168370E+01  1.30450960E+01  3.53051220E+00  2.94124940E+00  6.83483100E-01
  2.22289900E-01  3.42525091E+00  6.23913730E-01  1.68855400E-01  3.42525091E+00
  6.23913730E-01  1.68855400E-01  3.42525091E+00  6.23913730E-01  1.68855400E-01
  3.42525091E+00  6.23913730E-01  1.68855400E-01  7.16168370E+01  1.30450960E+01
  3.53051220E+00  2.94124940E+00  6.83483100E-01  2.22289900E-01  7.16168370E+01
  1.30450960E+01  3.53051220E+00  2.94124940E+00  6.83483100E-01  2.22289900E-01
  3.42525091E+00  6.23913730E-01  1.68855400E-01  3.42525091E+00  6.23913730E-01
  1.68855400E-01  3.42525091E+00  6.23913730E-01  1.68855400E-01  7.16168370E+01
  1.30450960E+01  3.53051220E+00  2.94124940E+00  6.83483100E-01  2.22289900E-01
  7.16168370E+01  1.30450960E+01  3.53051220E+00  2.94124940E+00  6.83483100E-01
  2.22289900E-01  3.42525091E+00  6.23913730E-01  1.68855400E-01  3.42525091E+00
  6.23913730E-01  1.68855400E-01  3.42525091E+00  6.23913730E-01  1.68855400E-01
Contraction coefficients                   R   N=          90
  1.54328970E-01  5.35328140E-01  4.44634540E-01 -9.99672301E-02  3.99512830E-01
  7.00115471E-01  1.54328970E-01  5.35328140E-01  4.44634540E-01 -9.99672301E-02
  3.99512830E-01  7.00115471E-01  1.54328970E-01  5.35328140E-01  4.44634540E-01
 -9.99672301E-02  3.99512830E-01  7.00115471E-01  1.54328970E-01  5.35328140E-01
  4.44634540E-01 -9.99672301E-02  3.99512830E-01  7.00115471E-01  1.54328970E-01
  5.35328140E-01  4.44634540E-01 -9.99672301E-02  3.99512830E-01  7.00115471E-01
  1.54328970E-01  5.35328140E-01  4.44634540E-01 -9.99672301E-02  3.99512830E-01
  7.00115471E-01  1.54328971E-01  5.35328142E-01  4.44634542E-01  1.54328971E-01
  5.35328142E-01  4.44634542E-01  1.54328971E-01  5.35328142E-01  4.44634542E-01
  1.54328971E-01  5.35328142E-01  4.44634542E-01  1.54328970E-01  5.35328140E-01
  4.44634540E-01 -9.99672301E-02  3.99512830E-01  7.00115471E-01  1.54328970E-01
  5.35328140E-01  4.44634540E-01 -9.99672301E-02  3.99512830E-01  7.00115471E-01
  1.54328971E-01  5.35328142E-01  4.44634542E-01  1.54328971E-01  5.35328142E-01
  4.44634542E-01  1.54328971E-01  5.35328142E-01  4.44634542E-01  1.54328970E-01
  5.35328140E-01  4.44634540E-01 -9.99672301E-02  3.99512830E-01  7.00115471E-01
  1.54328970E-01  5.35328140E-01  4.44634540E-01 -9.99672301E-02  3.99512830E-01
  7.00115471E-01  1.54328971E-01  5.35328142E-01  4.44634542E-01  1.54328971E-01
  5.35328142E-01  4.44634542E-01  1.54328971E-01  5.35328142E-01  4.44634542E-01
P(S=P) Contraction coefficients            R   N=          90
  0.00000000E+00  0.00000000E+00  0.00000000E+00  1.55916272E-01  6.07683728E-01
  3.91957395E-01  0.00000000E+00  0.00000000E+00  0.00000000E+00  1.55916272E-01
  6.07683728E-01  3.91957395E-01  0.00000000E+00  0.00000000E+00  0.00000000E+00
  1.55916272E-01  6.07683728E-01  3.91957395E-01  0.00000000E+00  0.00000000E+00
  0.00000000E+00  1.55916272E-01  6.07683728E-01  3.91957395E-01  0.00000000E+00
  0.00000000E+00  0.00000000E+00  1.55916272E-01  6.07683728E-01  3.91957395E-01
  0.00000000E+00  0.00000000E+00  0.00000000E+00  1.55916272E-01  6.07683728E-01
  3.91957395E-01  0.00000000E+00  0.00000000E+00  0.00000000E+00  0.00000000E+00
  0.00000000E+00  0.00000000E+00  0.00000000E+00  0.00000000E+00  0.00000000E+00
  0.00000000E+00  0.00000000E+00  0.00000000E+00  0.00000000E+00  0.00000000E+00
  0.00000000E+00  1.55916272E-01  6.07683728E-01  3.91957395E-01  0.00000000E+00
  0.00000000E+00  0.00000000E+00  1.55916272E-01  6.07683728E-01  3.91957395E-01
  0.00000000E+00  0.00000000E+00  0.00000000E+00  0.00000000E+00  0.00000000E+00
  0.00000000E+00  0.00000000E+00  0.00000000E+00  0.00000000E+00  0.00000000E+00
  0.00000000E+00  0.00000000E+00  1.55916272E-01  6.07683728E-01  3.91957395E-01
  0.00000000E+00  0.00000000E+00  0.00000000E+00  1.55916272E-01  6.07683728E-01
  3.91957395E-01  0.00000000E+00  0.00000000E+00  0.00000000E+00  0.00000000E+00
  0.00000000E+00  0.00000000E+00  0.00000000E+00  0.00000000E+00  0.00000000E+00
Coordinates of each shell                  R   N=          90
  2.58290277E+00  5.26797819E-01 -7.59359635E-16  2.58290277E+00  5.26797819E-01
 -7.59359635E-16  8.34595104E-01  2.50022004E+00 -4.80205391E-15  8.34595104E-01
  2.50022004E+00 -4.80205391E-15 -1.74784262E+00  1.97341116E+00 -4.04262387E-15
 -1.74784262E+00  1.97341116E+00 -4.04262387E-15 -2.58290277E+00 -5.26797819E-01
  7.59359635E-16 -2.58290277E+00 -5.26797819E-01  7.59359635E-16 -8.34595104E-01
 -2.50022004E+00  4.80205391E-15 -8.34595104E-01 -2.50022004E+00  4.80205391E-15
  1.74784262E+00 -1.97341116E+00  4.04262387E-15  1.74784262E+00 -1.97341116E+00
  4.04262387E-15  1.49330241E+00  4.47110415E+00 -8.58735257E-15 -3.12599029E+00
  3.52878408E+00 -7.22893583E-15 -1.49330241E+00 -4.47110415E+00  8.58735257E-15
  3.12599029E+00 -3.52878408E+00  7.22893583E-15 -5.43458912E+00 -1.10885517E+00
  1.59859989E-15 -5.43458912E+00 -1.10885517E+00  1.59859989E-15 -7.18244858E+00
  6.86446481E-01 -2.09570409E-15 -7.18244858E+00  6.86446481E-01 -2.09570409E-15
 -5.90319098E+00 -3.13067751E+00  5.50345343E-15 -9.21608439E+00  2.72072857E-01
 -1.49860446E-15 -6.71384672E+00  2.70826884E+00 -6.00055767E-15  5.43458912E+00
  1.10885517E+00 -1.59859989E-15  5.43458912E+00  1.10885517E+00 -1.59859989E-15
  7.18244858E+00 -6.86446481E-01  2.09570409E-15  7.18244858E+00 -6.86446481E-01
  2.09570409E-15  5.90319098E+00  3.13067751E+00 -5.50345343E-15  9.21608439E+00
 -2.72072857E-01  1.49860446E-15  6.71384672E+00 -2.70826884E+00  6.00055767E-15
Orthonormalization Matrix                  R   N=        1830
 -1.22930373E-03 -3.32276443E-03  2.63853033E-03 -3.14429833E-04 -6.14706342E-16
 -3.50760297E-17 -8.82483787E-18 -9.72348704E-05 -3.32276443E-03 -1.53437252E-02
  1.03671375E+00  2.34456611E-04  2.48977939E-02  8.80327922E-04 -1.00087134E-02
  1.28088556E-05  3.67450530E-03  2.50077900E-01  2.20618014E-06 -5.26494253E-17
  5.91782021E-16  9.73836206E-03 -7.56180560E-03 -1.93551865E-04  7.77112915E-18
  5.23795377E-17  6.14733748E-04  4.01305520E-03  1.24005910E-01 -7.86066353E-18
 -5.19092173E-03  1.61158148E-02 -2.41516969E-05 -2.04673209E-02  2.99639414E-18
  3.12833205E-04  1.31844132E-04  1.01013387E-01 -3.05011237E-01  3.80985449E-04
 -9.29956075E-02 -7.30543415E-03 -8.28117606E-17 -1.06374554E-02 -3.44322219E-04
 -3.70303746E-03  2.74855981E-01 -3.17320074E-04  1.24005910E-01  8.68662787E-02
 -5.25422233E-16  3.32276443E-03  1.70420569E-03 -2.21098378E-17 -3.78375334E-03
  0.00000000E+00  4.45034693E-16  9.23012535E-05 -8.52856058E-05  7.44423363E-17
  1.50726514E-05 -2.48977939E-02 -5.68233839E-02 -6.09484550E-03 -7.26754903E-16
 -2.08352131E-01 -2.15228404E-01 -3.01684858E-03 -4.46306405E-16  3.01178552E-17
 -2.18023280E-17  2.70612225E-16  1.31298446E-18  8.47018577E-04  4.16454517E-04
  6.24452569E-03 -3.44135820E-17  1.30267361E-03  4.32773296E-17 -2.26763237E-17
  3.09094555E-17  2.70357797E-02  7.95247205E-04  3.27818454E-03  7.60075749E-17
 -3.41748359E-18  7.22101116E-17 -1.01397222E-05 -3.19107488E-04  8.52358588E-17
  4.36201315E-17 -5.70635837E-05 -3.79330937E-05  1.57749434E-03 -2.06381851E-16
 -1.55776724E-03  5.26618865E-03 -7.24710979E-04  5.96755777E-18  1.29021550E-04
  2.00136904E-03  1.92669305E-02 -6.37226306E-04  4.85554752E-04 -4.67106144E-05
 -1.37876067E-16 -6.97001263E-04 -1.09216829E-02  1.11350764E-01  4.20173105E-04
 -3.47706690E-16  4.63443297E-17 -1.33162400E-04  9.73836206E-03 -4.15220927E-17
  1.01831245E-16 -6.14733748E-04  2.26598547E-03  7.20583123E-03  6.95660658E-04
  0.00000000E+00 -1.11350764E-01 -1.06631495E-02  1.31674698E-16  1.16056412E-16
  0.00000000E+00  1.61300449E-16 -1.23309252E-02  1.56904849E-04  8.60941226E-17
 -6.03957389E-06 -1.70420569E-03 -9.20194819E-17  7.97931253E-04  4.44263061E-18
  5.15382366E-02  1.87944228E-16  6.15260451E-04  1.47264269E-05  3.27521738E-17
 -1.69538529E-16 -7.56180560E-03  1.90795139E-02 -1.22130205E-04 -1.13995253E-01
  1.28352838E-16 -2.26598547E-03 -2.39411715E-01 -1.34683647E-02 -2.28410246E-16
  4.68780493E-16  2.63853033E-03  5.62927703E-17  6.63838960E-03 -3.05918304E-17
  4.85454834E-04 -4.00950720E-03  2.26239833E-04 -8.42318688E-17 -6.18959920E-17
 -1.24604362E-04 -1.32327368E-03 -1.19675891E-06 -1.19558721E-01  5.39613573E-17
  3.53272295E-04  3.79494874E-04  1.93020349E-04  3.92382632E-05 -1.13275912E-01
 -8.59751749E-18  4.96911586E-17  4.10742509E-05  4.44263061E-18  1.61428040E-04
  6.10941874E-04  3.42727726E-04 -5.77841233E-18  4.49363575E-03 -3.49979152E-04
  1.78555308E-04  8.83193013E-04  7.39088371E-18 -3.04961374E-03 -1.50199273E-03
  1.16103507E-16  1.02604641E-02 -7.42767498E-04  3.47294378E-17  5.80673067E-17
 -9.11681957E-18  2.94372010E-04  1.27515990E+00 -9.23012535E-05  7.56312213E-17
 -6.18929977E-17 -7.90025723E-17  1.71674480E-02  1.41446710E-16  2.52384708E-04
  6.01899668E-17  6.43872407E-03  1.98035856E-03  2.72702729E-16  2.04673209E-02
  4.30193011E-17 -1.37876067E-16  9.78802397E-18 -5.31954735E-03  7.44423363E-17
  0.00000000E+00 -1.61158148E-02 -4.95643845E-04  1.55898106E-04  2.72671244E-18
  0.00000000E+00  8.00525226E-04 -8.82366454E-04 -3.59632100E-16  3.40169819E-04
  0.00000000E+00 -1.14328495E-03  6.88658386E-04  2.12205387E-03  5.62927703E-17
 -4.96577291E-17  2.55566903E-03  2.99977798E-01 -6.55189307E-06 -4.15220927E-17
  2.09026718E-01  1.27515990E+00  6.03543825E-04 -3.35056176E-16 -7.89125045E-16
  3.80471525E-17  1.82401123E-02 -6.57886807E-03 -1.07241934E-16 -5.92431463E-16
 -7.31122590E-17 -8.95410240E-04  5.03076910E-03  2.74970105E-04 -3.80086422E-17
 -5.26646335E-16 -8.80327922E-04  5.10530629E-02 -7.55618606E-05 -4.18889713E-17
 -2.06381851E-16 -2.30776107E-02  9.58476679E-03 -1.93530304E-04 -1.37931742E-16
 -8.06217335E-17 -1.75486101E-01 -3.15856844E-18  3.01178552E-17 -8.18818989E-17
  6.54870827E-17  2.70332976E-02  1.45492379E-16  1.28441504E-03 -2.71909533E-17
 -3.83992950E-17  6.01899668E-17  3.10163712E-04 -1.56631445E-02 -5.24085932E-18
  2.70506041E-02  2.70351666E-02  4.21193180E-05 -3.33261641E-05 -1.43782694E-17
  6.53968284E-17  1.01523103E-16 -6.25880922E-07  2.09682703E-02 -1.79207098E-16
 -1.14328495E-03  1.61300449E-16  3.33215152E-04 -2.09026718E-01  4.67492296E-04
 -1.71546101E-16 -1.12240334E-04  1.90016618E-04  4.85454834E-04  1.71674480E-02
  2.23441197E-04 -3.23767909E-16 -3.04757699E-01 -3.02719877E-01 -7.05824208E-04
 -9.30336937E-02 -1.01756054E-03  1.04898595E-04 -4.01305520E-03  3.98292790E-02
  8.20595439E-17  2.45096803E-02 -1.32327368E-03 -2.49210030E-03  1.63337237E-03
 -9.49847338E-17  6.03486543E-03  1.61158148E-02 -1.93530304E-04 -1.28441504E-03
 -1.08016280E-16  1.16154526E-16 -1.52153217E-02 -8.00525226E-04  1.35488529E-04
  4.63443297E-17  3.07286916E-01  5.87280091E-04 -2.99977798E-01  5.68233839E-02
  4.91096553E-17  2.63853033E-03  1.26132628E-02  1.09977004E-02  6.45205842E-03
  1.34547577E-05 -4.26076877E-04  3.14873706E-03  1.77704424E-02 -2.26853487E-17
  0.00000000E+00  1.09216829E-02  6.89867743E-03  1.32946292E-03 -3.70704004E-03
  0.00000000E+00 -1.35488529E-04  6.03486543E-03  1.55167823E-17 -9.61178328E-17
  0.00000000E+00  5.15382366E-02 -2.49210030E-03  7.98887627E-17  3.47294378E-17
 -2.22719242E-06 -1.00087134E-02  5.70965948E-17  1.25909466E-03 -5.24116312E-16
 -1.08892439E-02  2.33164222E-01  1.23870375E-02 -1.46570724E-02  2.25670853E-04
 -1.35298434E-18 -2.08572720E-03 -1.41042865E-02 -3.71848636E-04 -7.29703987E-19
  2.92941107E-16  1.33211311E-03  2.24515049E-05 -3.79160195E-03 -3.95347871E-16
 -8.68376393E-02 -2.02830112E-01 -8.58419946E-04  2.07205712E-04  1.27468445E-16
 -1.13903761E-01  2.34456611E-04  6.45205842E-03 -2.02178382E-02  8.52856058E-05
 -7.56861666E-17  2.09682703E-02  6.03486543E-03  8.68662787E-02 -4.21223788E-17
 -2.59266207E-17 -2.56749890E-04  1.73064936E-04  5.05946579E-04  1.83565948E-16
 -3.99382194E-05 -1.34534233E-03  2.38107321E-04  4.78617724E-03  7.17455092E-17
  1.55078837E-04  7.49065583E-18  3.20487351E-05  5.28790273E-03 -4.91970867E-17
  1.83628814E-17 -1.22453170E-03  2.58960926E-02 -2.12431275E-02 -5.66162885E-17
  7.72750371E-17 -6.95660658E-04  2.59783931E-02 -1.53146074E-03 -1.29813584E-16
  9.92194275E-17 -5.47799367E-17 -2.93798266E-04  3.29359122E-04  1.07191510E-03
  6.98656970E-04  2.72107082E-03 -1.22333258E-05  6.47300405E-17  1.54849808E+00
 -1.79869423E-17  1.03668302E+00  1.54933750E-02 -1.75486101E-01 -1.54607871E-02
  2.20063229E-03  1.52573890E-03 -1.68592897E-04 -1.06014817E-02  5.10530629E-02
  1.42716552E-03 -9.43580567E-05  4.64979917E-04  3.78375334E-03 -3.42505638E-01
 -8.42560439E-03  1.94641610E-03 -1.83982598E-04 -2.11306804E-02 -3.57755952E-02
 -1.13995253E-01 -1.28555169E-03  3.09698548E-04  3.67450530E-03  3.19107488E-04
 -5.95740671E-17  3.77240609E-04 -2.30776107E-02 -1.06683380E-16  3.91265795E-04
  1.29524183E-16  2.11306804E-02  8.68662787E-02  4.95643845E-04  6.63838960E-03
  8.03071696E-18 -1.00293999E-03 -2.26853487E-17 -1.33211311E-03  2.10116690E-04
 -1.76017648E-17 -1.00087134E-02 -2.33164222E-01 -2.55566903E-03  2.74420410E-03
 -1.13275912E-01 -2.30776107E-02  1.26667953E+00  4.26076877E-04 -1.52153217E-02
 -2.06457750E-04  1.02941817E+00  2.93798266E-04  4.30193011E-17  1.57992509E-02
  1.24005910E-01  1.01831245E-16 -1.34484000E-03  3.78375334E-03  1.06304454E-17
 -2.99977798E-01 -2.77700184E-03  2.78746179E-04 -3.04757699E-01  1.07191510E-03
  1.28555169E-03  1.42716552E-03  1.63337237E-03  1.45506106E-17 -8.88480884E-17
 -2.81112574E-17  6.03486543E-03  6.81520192E-02  9.62690058E-04  1.01669357E-16
  1.40118171E-16  4.67492296E-04 -2.10116690E-04  9.58476679E-03 -1.10127923E-16
 -9.26306782E-04  1.85431376E-04  2.23441197E-04  1.32847503E-04  6.45205842E-03
  2.22618434E-17 -1.70948732E-02 -3.29940236E-03  4.64979917E-04  3.57755952E-02
 -4.43269035E-04  2.53981189E-02  9.30336937E-02  3.68396994E-05  2.74420410E-03
  6.14887082E-03 -3.04757699E-01 -1.21887545E-03  6.37226306E-04 -1.10127923E-16
 -2.00136904E-03  4.97382653E-04  3.66497244E-03  1.29631121E-03 -1.30267361E-03
 -9.20194819E-17  2.72357876E-02 -2.30776107E-02 -8.00828938E-04 -5.21003455E-16
  4.04416578E-03  6.01300569E-04  1.09356009E-16  3.29359122E-04  1.55776724E-03
  2.52384708E-04 -3.34230014E-01 -2.38310126E-17  8.00828938E-04 -1.72651227E-17
  8.11020756E-02  3.73549334E-17 -1.37281232E-16 -3.19107488E-04 -4.32087810E-03
  4.20173105E-04 -1.92523678E-17  2.46370302E-17 -2.20476446E-04  1.55167823E-17
  7.24710979E-04 -3.98292790E-02  1.21567745E-04 -9.29956075E-02  1.26132628E-02
  1.98035856E-03 -6.95660658E-04 -2.74812247E-17 -9.30336937E-02 -1.75526832E-01
 -1.06195679E-16  2.72357876E-02  1.29021550E-04 -2.04673209E-02  2.99226841E-17
  3.95947114E-03  2.70506041E-02  2.70351666E-02 -8.74282512E-17 -1.75526832E-01
 -6.98656970E-04 -1.23959854E-04  1.54607871E-02  4.67536216E-17 -4.01305520E-03
 -1.13275912E-01 -1.22275698E-03 -1.52153217E-02 -1.62915553E-02 -1.13903761E-01
  1.42999321E-18  9.05398144E-04  1.39354748E-16 -1.39177609E-04  2.63853033E-03
  2.23968379E-17  5.11767196E-16 -1.61158148E-02 -9.72348704E-05  1.54926463E+00
  9.36263173E-17 -1.10327174E-16 -5.19568080E-03  3.57678062E-17 -1.00087134E-02
  1.97845713E-17 -1.32196747E-02 -2.74812247E-17 -9.07380373E-03  1.06957709E-02
  0.00000000E+00  1.22130205E-04  3.73121229E-16 -6.80326607E-16  4.16283192E-18
  0.00000000E+00 -4.02198905E-05  1.11747824E-16  6.15315027E-03 -3.10967086E-17
  0.00000000E+00 -6.57933246E-03 -3.29940236E-03  3.31654987E-04  2.45373132E-18
  3.73549334E-17  5.19092173E-03 -1.93020349E-04 -4.18522099E-03 -1.02541820E-03
  0.00000000E+00 -6.41496437E-03  4.00950720E-03 -1.38956909E-03  1.08783142E-16
  0.00000000E+00  3.71848636E-04  6.57886807E-03 -3.79160195E-03  7.43569548E-20
 -3.32936630E-03  5.89434474E-05 -2.10155142E-01 -1.85805311E-04  1.11747824E-16
  1.04506449E-05 -1.22453170E-03  3.29359122E-04  8.46818617E-04 -3.55217179E-17
 -5.74133133E-17  9.05398144E-04  1.42430198E-02 -9.29956075E-02 -9.18955590E-03
 -2.94372010E-04 -1.41449552E-16  2.84942594E-17  6.46008247E-17  2.09866016E-17
  2.70506041E-02 -4.00950720E-03  1.38956909E-03 -2.81112574E-17  1.35826852E-16
  1.40075944E-02 -1.68736160E-16  1.04506449E-05 -1.93231484E-17  6.14887082E-03
 -2.24515049E-05  9.95637581E-17  1.06957709E-02  6.63838960E-03 -3.47706690E-16
 -8.73744395E-06  4.85554752E-04  6.95660658E-04  6.25880922E-07  1.55078837E-04
 -4.78617724E-03  1.04762744E+00  8.50645601E-04 -2.66733569E-05 -1.80866557E-17
  5.19364053E-03 -1.06075501E-16  3.63509406E-16 -3.05864637E-03  2.24072391E-01
 -1.76646299E-02  1.25466983E+00  3.07600953E-04 -8.82366454E-04 -1.21887545E-03
 -1.01883302E-04  1.73064936E-04 -3.23895897E-17 -1.22275698E-03 -1.21887545E-03
  5.13973888E-05 -4.17237247E-16 -1.16861242E-16 -9.62791154E-04  1.02941441E+00
 -3.46889200E-04 -1.14005483E-16  1.08892439E-02  7.00469140E-03 -2.53981189E-02
  1.56639603E-16  1.54849808E+00  3.15365731E-06  3.29359122E-04  2.09026718E-01
  8.94071743E-17  1.48048780E-16  2.90935828E-17 -5.34684955E-16 -1.62915553E-02
 -5.24116312E-16  2.70357797E-02 -3.04961374E-03 -7.90025723E-17 -1.76634745E-03
  2.06396348E-06  1.85431376E-04 -1.54933750E-02 -3.11315884E-17 -8.73744395E-06
 -3.04764220E-01 -1.50296451E-02  2.40506066E-03  3.82945798E-04  2.72357876E-02
  2.70332976E-02 -1.02541820E-03  5.19568080E-03 -1.48430797E-04 -6.26500231E-05
 -4.18522099E-03  5.68233839E-02 -8.95410240E-04 -6.10082895E-18  1.72082982E-02
  2.54957542E-04  1.24924269E-16  3.95947114E-03 -4.18522099E-03 -1.53437252E-02
 -4.67106144E-05 -1.57749434E-03  2.12821077E-03 -1.84362001E-06 -4.18522099E-03
  1.54926463E+00 -3.51148202E-17 -1.70948732E-02  3.78759381E-16 -9.07380373E-03
  6.17170095E-05 -6.17637641E-17  1.30547032E-01  1.28995489E+00 -5.31518278E-16
 -3.99036934E-04 -3.53790997E-17 -6.57933246E-03  5.23795377E-17  2.66209317E-03
 -5.05946579E-04  3.32326615E-05 -1.61161955E-02  8.36379649E-04  1.56631445E-02
 -3.27818454E-03 -3.16898565E-17 -6.41496437E-03  2.92941107E-16  5.28790273E-03
 -1.32847503E-04  1.25471700E-17 -1.06631495E-02 -7.26754903E-16 -1.22889901E-02
  1.98778423E-02 -2.41864667E-03  4.18894771E-03  1.80005347E-16 -3.77240609E-04
  5.71583350E-17 -2.09682703E-02 -3.57755952E-02 -3.92382632E-05 -4.49363575E-03
  0.00000000E+00  0.00000000E+00  0.00000000E+00  0.00000000E+00  0.00000000E+00
  0.00000000E+00 -4.14868628E-02 -7.41474428E-17 -1.10148476E-16 -1.11682952E-16
  0.00000000E+00  4.63777773E-17  3.81888626E-05 -1.54933750E-02 -1.17046685E-16
  0.00000000E+00  8.68662787E-02  2.39411715E-01 -1.34683647E-02  4.46612178E-17
  0.00000000E+00  8.58419946E-04 -1.90795139E-02  2.14534965E-17  1.10183959E-16
  0.00000000E+00 -1.32196747E-02 -5.21003455E-16  3.95947114E-03 -1.55651790E-02
 -1.14201114E-16  1.81196673E-16 -1.26977775E-05  0.00000000E+00 -1.08323139E-02
  3.51233042E-16 -5.25422233E-16  4.41777969E-04  5.96755777E-18 -9.18955590E-03
  0.00000000E+00  1.05875916E-17  6.17740837E-17  1.54470257E-17 -1.03176098E-16
 -1.17557073E-04 -1.09216829E-02  3.19107488E-04 -1.72904712E-03  5.58469731E-04
  1.68592897E-04 -6.06154766E-04 -5.51259813E-17 -2.72371000E-17  1.57915578E-16
  2.74855981E-01  7.17255833E-02  4.02198905E-05 -5.28739500E-17  1.75600054E-17
 -5.03076910E-03 -2.75766836E-06  1.47569323E-16  5.19092173E-03  6.54520101E-02
  7.61425173E-04 -1.35298434E-18  3.16442564E-04  1.69793845E-02 -1.08422279E-03
  8.36729838E-17  5.83886807E-17  2.38107321E-04  2.30663144E-16  7.20583123E-03
  1.05672187E-01  2.97015520E-17 -1.56904849E-04 -5.31518278E-16 -1.93231484E-17
  8.82366454E-04  0.00000000E+00 -1.20644455E-04  6.84550704E-17 -1.23959854E-04
 -9.05398144E-04 -4.17237247E-16  6.59586660E-04 -2.22719242E-06  2.45431750E-06
 -9.18225579E-18  2.93556532E-17 -1.40450568E-16  3.82945798E-04 -3.27818454E-03
  3.81888626E-05 -1.23870375E-02  4.09714343E-17  3.85274528E-04 -1.22889901E-02
  1.05520839E-04 -6.03543825E-04  5.15382366E-02 -3.14429833E-04 -1.70590945E-02
  6.83568565E-03  1.05672187E-01  1.63180721E-04 -1.34547577E-05  4.97382653E-04
 -3.14082265E-03 -1.75486101E-01  1.08972960E-16 -1.19675891E-06 -5.78626786E-16
  1.26390212E+00  4.04416578E-03 -1.39612946E-17 -5.23203530E-04  9.75063023E-17
 -3.17320074E-04 -2.71720827E-17 -4.47746040E-17  0.00000000E+00  2.14534965E-17
  3.33215152E-04 -8.00828938E-04 -1.22275698E-03  1.53110748E-16  2.70506041E-02
  1.53145777E+00  2.02830112E-01  2.04673209E-02 -3.14082265E-03 -1.42430198E-02
 -3.95347871E-16 -3.66497244E-03  1.54282361E-04  1.46570724E-02 -6.85579264E-06
 -5.95740671E-17 -3.02719877E-01 -2.89115854E-16  6.14887082E-03  1.05917503E-02
  9.40169691E-06  1.16478419E-05 -6.10082895E-18  1.05964545E-03  9.30336937E-02
  1.32196747E-02  4.68780493E-16 -2.06457750E-04  1.83516737E-17 -3.78375334E-03
 -3.07286916E-01 -1.82191071E-02 -1.36533925E-03  1.75896798E-04  1.98778423E-02
 -7.63863952E-17  1.21567745E-04 -2.65949432E-01  3.15365731E-06  3.82945798E-04
 -1.75526832E-01  0.00000000E+00 -5.19568080E-03 -1.76017648E-17 -1.75299185E-01
 -7.61425173E-04 -3.74787405E-17  2.17954933E-02 -5.03138237E-03 -5.09318740E-03
  4.57328717E-06  4.29817525E-05 -3.83447021E-04  2.74855981E-01  1.23309252E-02
  1.62915553E-02 -9.08610313E-17  1.05981640E-03  5.15382366E-02 -6.88658386E-04
  1.20026796E-17 -6.71400914E-18  1.55651790E-02  1.32196747E-02 -2.15228404E-01
 -2.12431275E-02 -2.79185231E-17 -2.28421707E-01  1.90842720E-02 -2.03537730E-04
  5.18404858E-05  2.94372010E-04  1.28555169E-03 -3.49979152E-04 -9.62791154E-04
  7.22101116E-17 -1.82191071E-02  4.73609548E-18 -2.33650948E-03 -2.12431275E-02
 -8.87996795E-17 -1.55078837E-04  2.77700184E-03  3.33261641E-05  1.34534233E-03
 -7.13690916E-04  5.78411311E-03 -1.33162070E-17  1.61161955E-02 -1.24604362E-04
 -7.96625330E-07  4.10742509E-05  3.73121229E-16  3.46208952E-17 -1.00293999E-03
 -2.57454879E-04 -1.71674480E-02  2.66209317E-03  2.25670853E-04  5.97200506E-16
  2.86797268E-05  3.14873706E-03  1.75896798E-04 -1.01013387E-01  1.50199273E-03
 -7.23389576E-05  3.81347082E-04  5.13973888E-05  4.85554752E-04 -2.10925500E-03
  1.47050232E-04  4.84199678E-17 -1.02082339E-03  1.31674698E-16 -5.57998418E-17
  1.56631445E-02 -8.99559571E-05 -2.91686736E-17  3.79494874E-04 -6.41496437E-03
 -2.77700184E-03  3.61631840E-03 -1.52153217E-02 -2.18450307E-05 -1.40075944E-02
 -2.56749890E-04  3.14795600E-04 -1.30710722E-17 -1.12607073E-02  5.19364053E-03
  0.00000000E+00  3.05864637E-03 -1.06318012E-17 -4.23565949E-05  6.61515887E-02
 -6.54520101E-02  2.50077900E-01 -8.95345647E-02  1.80005347E-16  5.29410535E-17
  3.16442564E-04  1.34534233E-03  1.05520839E-04 -5.10530629E-02 -4.49363575E-03
  1.05981640E-03  1.53937994E-03 -5.78281885E-17  2.02178382E-02  6.15315027E-03
  2.19155710E-02 -6.85579264E-06  3.20487351E-05 -3.80086422E-17  1.85104266E-04
  0.00000000E+00 -1.72082982E-02  1.22889901E-02 -2.12431275E-02  1.54933750E-02
 -1.75299185E-01 -3.23957482E-04 -6.43872407E-03  1.09216829E-02  3.85274528E-04
 -7.41474428E-17  7.42767498E-04  6.81520192E-02 -8.42560439E-03  1.01013387E-01
  8.11020756E-02  3.31767937E-03 -1.34534233E-03 -1.54984234E-16  3.74955776E-03
 -9.05398144E-04  1.78917245E-04 -1.22453170E-03  4.00950720E-03  3.85274528E-04
 -5.37351051E-17  8.46818617E-04 -2.11306804E-02  5.71583350E-17  5.91782021E-16
 -1.43840286E-16 -1.08017416E-07 -2.60401721E-04 -6.30731832E-06  1.41788671E-17
 -1.58376680E-16  4.81440323E-02  4.15535048E-18 -3.04961374E-03 -3.44322219E-04
  1.61161955E-02 -1.30782448E-16  3.10163712E-04  2.26239833E-04 -5.68233839E-02
  1.61428040E-04 -1.75299185E-01  2.70357797E-02  4.96911586E-17  9.26306782E-04
 -2.60401721E-04 -3.04764220E-01 -6.44360310E-03  2.39411715E-01  7.61425173E-04
 -4.18889713E-17 -1.22930373E-03 -1.83982598E-04 -3.02719877E-01 -1.60450226E-16
  7.77112915E-18  1.26667953E+00 -3.09698548E-04 -7.56861666E-17  1.40118171E-16
 -1.05964545E-03 -3.25682510E-05  1.06304454E-17 -1.23870375E-02  1.55651790E-02
 -1.79956643E-05  2.11306804E-02  7.05824208E-04  0.00000000E+00  2.45096803E-02
 -5.10530629E-02 -7.55618606E-05  3.28797141E-17  0.00000000E+00  2.74970105E-04
  2.01174641E-03 -8.06217335E-17 -1.55278893E-16  0.00000000E+00  2.54411008E-17
 -1.33162070E-17 -2.52840187E-16 -8.73582272E-17  0.00000000E+00  6.94029312E-06
  2.99226841E-17 -2.96003238E-17 -3.66291578E-17  0.00000000E+00  1.57749434E-03
 -3.59632100E-16  6.52854143E-03  4.77404348E-17  2.17954933E-02  1.14130354E-16
 -1.69793845E-02 -2.75766836E-06  0.00000000E+00  0.00000000E+00  0.00000000E+00
  0.00000000E+00  0.00000000E+00  0.00000000E+00  0.00000000E+00  0.00000000E+00
  0.00000000E+00  0.00000000E+00  0.00000000E+00  0.00000000E+00  0.00000000E+00
  1.24534895E+00 -1.22275698E-03 -5.26646335E-16  1.48430797E-04 -1.55898106E-04
 -1.13903761E-01 -1.05981640E-03 -8.95345647E-02 -9.67333652E-05  7.26358767E-16
  5.44019416E-17  1.41042865E-02  1.08017415E-07 -5.19364053E-03 -6.41496437E-03
  1.24005910E-01 -9.67333652E-05  3.27521738E-17 -2.56749890E-04  8.12632423E-04
  3.32936630E-03  2.07205712E-04  5.89434474E-05  9.26306782E-04 -1.01013387E-01
  1.24534895E+00  1.27468445E-16 -1.74194257E-02  1.17557073E-04 -1.41736028E-16
 -7.79294289E-18 -6.14733748E-04  6.26500231E-05  3.02867977E-05 -1.24480514E-04
  0.00000000E+00  6.46553275E-16 -3.47146439E-17 -1.13661452E-16  2.18938432E-18
  0.00000000E+00  0.00000000E+00  0.00000000E+00  0.00000000E+00  0.00000000E+00
  2.18771951E-02  0.00000000E+00  1.76634745E-03  1.30547032E-01 -2.96003238E-17
 -1.01397222E-05  1.25062734E-16 -3.64714357E-17 -2.18023280E-17 -6.30731832E-06
  1.05672187E-01  6.41415237E-18 -9.26306782E-04 -2.72371000E-17  1.02082339E-03
 -1.74194257E-02  6.46008247E-17  1.22930373E-03 -2.18771951E-02  6.61515887E-02
 -5.78626786E-16  1.18204189E-17 -1.47050232E-04  6.03957389E-06 -1.08323139E-02
  6.06154766E-04 -2.08352131E-01 -1.79145688E-18  2.30229203E-01  3.67168890E-03
 -7.56180560E-03  7.42362402E-17 -2.94372010E-04  1.35826852E-16  1.34417171E-04
 -1.84362001E-06 -3.04764220E-01 -1.75486101E-01  5.07839095E-05  0.00000000E+00
 -8.59079505E-17 -1.41085626E-16  1.28475717E-16  4.65039958E-03  0.00000000E+00
  0.00000000E+00  0.00000000E+00  0.00000000E+00  0.00000000E+00 -9.40169691E-06
  0.00000000E+00  2.06396348E-06  5.87280091E-04  1.03668302E+00  5.15568547E-17
  7.26358767E-16 -4.40474891E-04  1.10967790E-16  3.32326615E-05  1.57992509E-02
  2.03221678E-16  1.70135980E-05  3.81347082E-04  3.07286916E-01 -2.08572720E-03
  1.47569323E-16  2.24346400E-16  1.50216665E-03 -7.77131493E-05 -1.05964545E-03
  4.69115990E-17  1.40075944E-02  2.99977798E-01 -1.41736028E-16  3.79494874E-04
  6.47300405E-17  1.06297950E-04 -1.24591401E-04  1.26168786E-04  9.62791154E-04
 -1.93551865E-04  3.02867977E-05  2.72274583E-02 -3.40361146E-01 -4.29817525E-05
 -3.42505638E-01 -1.06014817E-02  3.81347082E-04  1.13739982E-17  0.00000000E+00
 -3.43347060E-17 -2.04851671E-17  1.80585542E-17  6.65599802E-17  0.00000000E+00
  0.00000000E+00  0.00000000E+00  0.00000000E+00  0.00000000E+00 -1.16478419E-05
  0.00000000E+00  1.70590945E-02  1.14115066E-02  5.07839095E-05 -5.34684955E-16
  1.48048780E-16  8.32050801E-17  1.75600054E-17 -3.68396994E-05 -3.61631840E-03
  5.44019416E-17  4.00078485E-17 -1.40075944E-02 -2.15228404E-01 -6.89867743E-03
  1.39177609E-04 -1.66887117E-17  2.45096803E-02  2.50077900E-01 -5.92431463E-16
 -5.23203530E-04 -1.10978418E-16 -1.75587651E-02 -4.81440323E-02  1.48153200E-17
  3.23957482E-04 -3.99382194E-05 -2.96552575E-01 -9.18955590E-03  1.05672187E-01
 -9.86286965E-17  3.53272295E-04 -1.57749434E-03 -7.56180560E-03  2.49548871E-03
 -7.02932935E-04 -1.82191071E-02 -2.20063229E-03 -6.97001263E-04 -6.43872407E-03
  0.00000000E+00 -2.89939646E-03  3.90615053E-17 -2.32613151E-17 -5.42994654E-17
  0.00000000E+00  0.00000000E+00  0.00000000E+00  0.00000000E+00  0.00000000E+00
 -3.13031158E-17  0.00000000E+00 -6.83568565E-03  9.56003635E-17 -2.52840187E-16
 -1.29813584E-16  1.53146074E-03 -6.80326607E-16  0.00000000E+00 -8.87996795E-17
 -2.08352131E-01 -1.62418228E-02  3.12833205E-04  0.00000000E+00  3.99036934E-04
  6.15260451E-04 -9.18225579E-18  3.07600953E-04  0.00000000E+00 -9.18955590E-03
  5.23203530E-04 -7.86852761E-03  2.96552575E-01  0.00000000E+00  0.00000000E+00
  0.00000000E+00  0.00000000E+00  0.00000000E+00  0.00000000E+00  3.01684858E-03
 -1.13903761E-01  2.19933771E-18 -4.58024611E-17  0.00000000E+00  3.79330937E-05
  5.10484726E-04  1.42430198E-02 -2.40506066E-03  8.12632423E-04  0.00000000E+00
  1.08422279E-03 -6.17170095E-05  0.00000000E+00  0.00000000E+00  0.00000000E+00
  0.00000000E+00  0.00000000E+00  0.00000000E+00  0.00000000E+00  0.00000000E+00
  0.00000000E+00  0.00000000E+00  0.00000000E+00  0.00000000E+00  0.00000000E+00
  4.97382653E-04 -5.31954735E-03  1.26132628E-02  1.98038558E-03  6.24452569E-03
 -6.54520101E-02  3.05011237E-01  4.14868628E-02 -6.94029312E-06  6.15315027E-03
  1.10967790E-16 -7.83888161E-16 -7.23389576E-05  3.95947114E-03 -8.88480884E-17
 -3.74955776E-03 -1.05917503E-02  1.23870375E-02 -3.55761164E-17  2.19155710E-02
  7.13690916E-04  0.00000000E+00  1.80451296E-16 -2.82300352E-18  4.10805287E-04
  6.13542869E-18 -1.47264269E-05  2.72274583E-02 -1.28555169E-03  3.16390990E-04
 -1.85805311E-04  1.90016618E-04 -2.01174641E-03  1.09356009E-16  1.04762744E+00
 -1.61878386E-16  7.95247205E-04 -1.76646299E-02 -5.69609999E-17  1.30267361E-03
  0.00000000E+00  0.00000000E+00  0.00000000E+00  0.00000000E+00  0.00000000E+00
  0.00000000E+00  0.00000000E+00  0.00000000E+00  0.00000000E+00  0.00000000E+00
  0.00000000E+00  0.00000000E+00  0.00000000E+00 -1.09977004E-02 -2.08352131E-01
 -1.62418228E-02 -3.42727726E-04  3.63509406E-16 -9.29956075E-02 -1.06631495E-02
 -3.91265795E-04  5.78411311E-03 -2.57454879E-04  1.08892439E-02 -1.80989852E-04
 -2.46620385E-16 -2.09026718E-01  4.18894771E-03 -2.99461024E-03 -9.42028751E-04
 -2.15228404E-01 -1.26977775E-05  1.50726514E-05 -7.96625330E-07  3.85274528E-04
  0.00000000E+00  1.58499337E-17 -5.55500239E-17  1.64983988E-17  4.97382653E-04
  4.45034693E-16  1.78917245E-04  4.56866065E-17  1.28088556E-05  1.05964545E-03
  1.01883302E-04  3.73444237E-17 -2.60401721E-04 -1.61161955E-02  5.10484726E-04
  1.33024053E-16  1.28995489E+00  1.02941441E+00  2.41516969E-05  0.00000000E+00
  0.00000000E+00  0.00000000E+00  0.00000000E+00  0.00000000E+00  0.00000000E+00
  0.00000000E+00  0.00000000E+00  0.00000000E+00  0.00000000E+00  0.00000000E+00
  0.00000000E+00  0.00000000E+00 -3.98292790E-02  9.77655875E-17 -5.50282386E-17
  1.22930373E-03  1.79956643E-05 -8.36379649E-04 -3.74238495E-16  3.40169819E-04
 -8.47018577E-04  6.90266010E-17  4.78617724E-03  2.70351666E-02 -1.53937994E-03
  5.70965948E-17  1.40237216E-03  3.04693787E-16  4.23565949E-05 -7.86852761E-03
 -1.85431376E-04 -3.04757699E-01  6.54520101E-02 -2.39411715E-01 -1.47371463E-17
  0.00000000E+00 -1.85431376E-04 -2.57454879E-04 -1.05981640E-03  2.23968379E-17
 -1.13995253E-01  2.22618434E-17 -1.75299185E-01 -3.04764220E-01  6.43872407E-03
  3.33215152E-04 -3.14082265E-03  2.33027213E-01 -4.32087810E-03  1.85104266E-04
 -3.02719877E-01 -1.98778423E-02  3.27818454E-03  3.32276443E-03  0.00000000E+00
  0.00000000E+00  0.00000000E+00  0.00000000E+00  0.00000000E+00  0.00000000E+00
  0.00000000E+00  0.00000000E+00  0.00000000E+00  0.00000000E+00  0.00000000E+00
  0.00000000E+00  0.00000000E+00 -4.72787286E-05  2.78746179E-04  7.00469140E-03
  2.24264252E-03 -4.43269035E-04 -1.69662038E-16 -7.93304108E-17  2.96552575E-01
 -6.81520192E-02 -5.22383076E-17 -2.41864667E-03  2.02830112E-01 -1.82401123E-02
  1.29631121E-03  4.76107187E-17 -2.38310126E-17 -7.61425173E-04  2.33027213E-01
 -1.82191071E-02 -1.06631495E-02 -2.10155142E-01  6.44360310E-03  2.86797268E-05
 -8.99559571E-05  0.00000000E+00  2.72357876E-02 -1.56631445E-02  1.02955122E+00
 -3.74955776E-03 -8.68376393E-02 -2.20476446E-04 -3.25682510E-05  6.01300569E-04
 -3.55689943E-17  6.10941874E-04 -1.08016280E-16 -3.05011237E-01 -1.86768100E-16
  8.00828938E-04 -1.50296451E-02 -5.51259813E-17  4.85454834E-04 -1.52199097E-05
  0.00000000E+00  0.00000000E+00  0.00000000E+00  0.00000000E+00  0.00000000E+00
  0.00000000E+00  0.00000000E+00  0.00000000E+00  0.00000000E+00  0.00000000E+00
  0.00000000E+00  0.00000000E+00  0.00000000E+00  1.31298446E-18  4.18894771E-03
 -1.34484000E-03 -3.31767937E-03 -3.14429833E-04  1.83516737E-17  1.30547032E-01
  8.11020756E-02  7.89645463E-17  2.50077900E-01 -1.75587651E-02  4.91096553E-17
 -4.40474891E-04 -2.96552575E-01 -2.24264252E-03  5.62955405E-19 -3.83447021E-04
 -4.21193180E-05 -1.06374554E-02 -3.08074223E-05  1.63180721E-04  2.58960926E-02
  3.46889200E-04  2.70351666E-02 -3.40361146E-01  5.58469731E-04  2.99819897E-18
  1.22889901E-02  2.70332976E-02 -7.29703987E-19  2.45431750E-06  1.49167058E-16
 -2.33027213E-01 -4.78617724E-03 -8.14023598E-17  2.84942594E-17  1.32327368E-03
 -2.49548871E-03  4.16454517E-04  6.24452569E-03 -1.90842720E-02 -5.02606718E-16
  5.19568080E-03  4.57328717E-06  0.00000000E+00 -1.06297950E-04  1.24591401E-04
 -1.26168786E-04  9.42028751E-04  0.00000000E+00  0.00000000E+00  0.00000000E+00
  0.00000000E+00  0.00000000E+00 -2.56749890E-04  0.00000000E+00 -1.22453170E-03
 -1.42430198E-02  2.46370302E-17  2.33650948E-03  4.49363575E-03 -4.78633542E-04
 -3.14082265E-03 -5.90371895E-17  2.59783931E-02 -1.98778423E-02 -2.48401589E-03
 -3.14429833E-04  3.33215152E-04  1.23124075E-16  7.02932935E-04  2.44978733E-03
  6.54870827E-17 -1.72904712E-03  1.70135980E-05  2.72274583E-02  4.85454834E-04
  1.54282361E-04  0.00000000E+00 -1.40237216E-03 -2.33027213E-01  1.97845713E-17
  2.45096803E-02  0.00000000E+00  2.99461024E-03  2.54957542E-04  6.80991116E-17
  2.24072391E-01  1.53145777E+00  1.30547032E-01  7.17255833E-02 -1.30710722E-17
 -1.90061094E-17  3.16390990E-04 -1.55078837E-04 -1.80989852E-04 -1.71674480E-02
 -2.09682703E-02 -3.04961374E-03  2.72274583E-02  1.02955122E+00 -2.03537730E-04
  0.00000000E+00  0.00000000E+00  0.00000000E+00  0.00000000E+00  0.00000000E+00
  0.00000000E+00  0.00000000E+00  0.00000000E+00  0.00000000E+00  0.00000000E+00
  0.00000000E+00  0.00000000E+00  0.00000000E+00 -1.07241934E-16  5.23203530E-04
  1.04898595E-04  3.05011237E-01  3.33022880E-04 -5.19092173E-03  2.74855981E-01
  2.91205162E-17 -7.89125045E-16  1.82356175E-04 -5.09318740E-03  4.18894771E-03
  2.28421707E-01  8.01089411E-04 -7.00469140E-03  3.12203508E-04 -3.07286916E-01
  2.66733569E-05 -1.22333258E-05 -1.34417171E-04  9.56003635E-17  1.78555308E-04
  6.59586660E-04 -1.08892439E-02 -1.21887545E-03  9.62791154E-04  3.82945798E-04
  8.50645601E-04 -1.52105180E-17  1.32327368E-03 -2.57454879E-04  8.82366454E-04
 -1.57158882E-16  3.83447021E-04 -1.19558721E-01 -5.02606718E-16  1.13175918E-16
 -5.18404858E-05 -5.28739500E-17 -9.24207444E-17  4.01305520E-03 -3.80985449E-04
 -2.02830112E-01  3.74955776E-03  2.70357797E-02 -5.03138237E-03  0.00000000E+00
  1.50216665E-03 -7.77131493E-05 -2.30229203E-01  3.67168890E-03  0.00000000E+00
  0.00000000E+00  0.00000000E+00  0.00000000E+00  0.00000000E+00 -1.06075501E-16
  0.00000000E+00  0.00000000E+00  1.62915553E-02  3.79494874E-04  2.37836976E-04
  2.70332976E-02  1.27806953E-02  6.63838960E-03  3.57755952E-02  1.33162400E-04
  6.45205842E-03 -2.39373876E-05 -5.19364053E-03 -3.13531479E-16 -7.00469140E-03
Overlap Matrix                             R   N=        1830
  1.00000000E+00  2.48362390E-01  1.00000000E+00  0.00000000E+00 -2.47021272E-16
  1.00000000E+00 -3.92614542E-18 -7.54489951E-17  2.92389811E-32  1.00000000E+00
  6.79642237E-33 -1.98870957E-32 -6.32704000E-48  0.00000000E+00  1.00000000E+00
  9.28499138E-07  3.79483092E-02 -4.17199964E-02  4.70919219E-02 -9.64711155E-17
  1.00000000E+00  3.79483092E-02  3.67071367E-01 -2.58382267E-01  2.91651932E-01
 -5.97469503E-16  2.48362390E-01  1.00000000E+00  4.17199964E-02  2.58382267E-01
 -2.38697895E-02  2.69517708E-01 -5.52125989E-16 -1.70023257E-18  0.00000000E+00
  1.00000000E+00 -4.70919219E-02 -2.91651932E-01  2.69517708E-01 -8.93180125E-02
  6.23218509E-16 -2.87661866E-16 -2.81810080E-16  0.00000000E+00  1.00000000E+00
  9.64711155E-17  5.97469503E-16 -5.52125989E-16  6.23218509E-16  2.14903175E-01
 -1.32042995E-31  5.55720627E-31  0.00000000E+00 -4.68271985E-46  1.00000000E+00
  2.05608027E-17  1.84257566E-03 -4.02361919E-03  1.34402295E-03 -3.05042292E-18
  9.35849271E-07  3.79890711E-02 -6.17105198E-02 -1.25887450E-02  1.81475131E-17
  1.00000000E+00  1.84257566E-03  6.12758481E-02 -8.54995256E-02  2.85596920E-02
 -6.48196810E-17  3.79890711E-02  3.67296441E-01 -3.81939539E-01 -7.79144214E-02
  1.12318820E-16  2.48362390E-01  1.00000000E+00  4.02361919E-03  8.54995256E-02
 -1.06061995E-01  4.40001101E-02 -9.98635807E-17  6.17105198E-02  3.81939539E-01
 -3.06403838E-01 -1.06380508E-01  1.53354578E-16 -8.66565768E-17 -2.73873542E-17
  1.00000000E+00 -1.34402295E-03 -2.85596920E-02  4.40001101E-02  1.09642096E-02
  3.33577653E-17  1.25887450E-02  7.79144214E-02 -1.06380508E-01  1.93376294E-01
  3.12838342E-17  7.46348625E-17 -1.40905040E-16 -7.12361375E-33  1.00000000E+00
  3.05042292E-18  6.48196810E-17 -9.98635807E-17  3.33577653E-17  2.56617133E-02
 -1.81475131E-17 -1.12318820E-16  1.53354578E-16  3.12838342E-17  2.15077572E-01
 -2.47674403E-31 -9.72994279E-32  2.53081600E-47 -2.53081600E-47  1.00000000E+00
  9.69956219E-23  4.22422022E-04 -1.09814248E-03 -2.23972451E-04  3.22848032E-19
  2.07766845E-17  1.84489037E-03 -3.17913752E-03 -2.81589233E-03  5.17352143E-18
  9.32781801E-07  3.79720926E-02 -1.99432541E-02 -5.97110317E-02  1.14682969E-16
  1.00000000E+00  4.22422022E-04  2.63846609E-02 -4.15260030E-02 -8.46946625E-03
  1.22084234E-17  1.84489037E-03  6.13204775E-02 -6.75227108E-02 -5.98076309E-02
  1.09882064E-16  3.79720926E-02  3.67202707E-01 -1.23466549E-01 -3.69664598E-01
  7.09989972E-16  2.48362390E-01  1.00000000E+00  1.09814248E-03  4.15260030E-02
 -6.02962948E-02 -1.43755942E-02  2.07218891E-17  3.17913752E-03  6.75227108E-02
 -5.64152786E-02 -7.27173659E-02  1.33600581E-16  1.99432541E-02  1.23466549E-01
  1.60500016E-01 -1.63190270E-01  3.13428594E-16  0.00000000E+00  2.47021272E-16
  1.00000000E+00  2.23972451E-04  8.46946625E-03 -1.43755942E-02  7.25561534E-03
  4.22634801E-18  2.81589233E-03  5.98076309E-02 -7.27173659E-02 -3.87262493E-02
  1.18335507E-16  5.97110317E-02  3.69664598E-01 -1.63190270E-01 -2.73594333E-01
  9.38419809E-16  3.92614542E-18  7.54489951E-17  2.92389811E-32  1.00000000E+00
 -3.22848032E-19 -1.22084234E-17  2.07218891E-17  4.22634801E-18  1.01876002E-02
 -5.17352143E-18 -1.09882064E-16  1.33600581E-16  1.18335507E-16  2.56825005E-02
 -1.14682969E-16 -7.09989972E-16  3.13428594E-16  9.38419809E-16  2.15004936E-01
 -6.79642237E-33  1.98870957E-32 -6.32704000E-48  0.00000000E+00  1.00000000E+00
  2.07766845E-17  1.84489037E-03 -3.17913752E-03 -2.81589233E-03  5.17352143E-18
  9.78578800E-23  4.22871019E-04 -3.55212406E-04 -1.06411980E-03  2.04380438E-18
  2.05843586E-17  1.84282927E-03  8.48599293E-04 -4.15694563E-03  8.21856855E-18
  9.28499138E-07  3.79483092E-02  4.17199964E-02 -4.70919219E-02  9.64711155E-17
  1.00000000E+00  1.84489037E-03  6.13204775E-02 -6.75227108E-02 -5.98076309E-02
  1.09882064E-16  4.22871019E-04  2.64005007E-02 -1.34265195E-02 -4.02222024E-02
  7.72528742E-17  1.84282927E-03  6.12807389E-02  1.80312937E-02 -8.83280342E-02
  1.74630623E-16  3.79483092E-02  3.67071367E-01  2.58382267E-01 -2.91651932E-01
  5.97469503E-16  2.48362390E-01  1.00000000E+00  3.17913752E-03  6.75227108E-02
 -5.64152786E-02 -7.27173659E-02  1.33600581E-16  3.55212406E-04  1.34265195E-02
  2.83008715E-03 -2.20609509E-02  4.23714209E-17 -8.48599293E-04 -1.80312937E-02
  1.98058897E-02  2.86964762E-02 -5.67349148E-17 -4.17199964E-02 -2.58382267E-01
 -2.38697895E-02  2.69517708E-01 -5.52125989E-16  2.58437827E-17  1.14080426E-16
  1.00000000E+00  2.81589233E-03  5.98076309E-02 -7.27173659E-02 -3.87262493E-02
  1.18335507E-16  1.06411980E-03  4.02222024E-02 -2.20609509E-02 -5.58943879E-02
  1.26933258E-16  4.15694563E-03  8.83280342E-02  2.86964762E-02 -1.14908470E-01
  2.77921462E-16  4.70919219E-02  2.91651932E-01  2.69517708E-01 -8.93180125E-02
  6.23218509E-16  2.87661866E-16  2.81810080E-16  2.92389811E-32  1.00000000E+00
 -5.17352143E-18 -1.09882064E-16  1.33600581E-16  1.18335507E-16  2.56825005E-02
 -2.04380438E-18 -7.72528742E-17  4.23714209E-17  1.26933258E-16  1.01942236E-02
 -8.21856855E-18 -1.74630623E-16 -5.67349148E-17  2.77921462E-16  2.56639912E-02
 -9.64711155E-17 -5.97469503E-16 -5.52125989E-16  6.23218509E-16  2.14903175E-01
  1.32042995E-31 -5.55720627E-31 -7.69875756E-47 -4.68271985E-46  1.00000000E+00
  9.32781801E-07  3.79720926E-02 -1.99432541E-02 -5.97110317E-02  1.14682969E-16
  2.05843586E-17  1.84282927E-03  8.48599293E-04 -4.15694563E-03  8.21856855E-18
  9.67201544E-23  4.22277839E-04  7.42855953E-04 -8.38725530E-04  1.71816797E-18
  2.05608027E-17  1.84257566E-03  4.02361919E-03 -1.34402295E-03  3.05042292E-18
  9.35849271E-07  3.79890711E-02  6.17105198E-02  1.25887450E-02 -1.81475131E-17
  1.00000000E+00  3.79720926E-02  3.67202707E-01 -1.23466549E-01 -3.69664598E-01
  7.09989972E-16  1.84282927E-03  6.12807389E-02  1.80312937E-02 -8.83280342E-02
  1.74630623E-16  4.22277839E-04  2.63795729E-02  2.80947942E-02 -3.17205793E-02
  6.49810713E-17  1.84257566E-03  6.12758481E-02  8.54995256E-02 -2.85596920E-02
  6.48196810E-17  3.79890711E-02  3.67296441E-01  3.81939539E-01  7.79144214E-02
 -1.12318820E-16  2.48362390E-01  1.00000000E+00  1.99432541E-02  1.23466549E-01
  1.60500016E-01 -1.63190270E-01  3.13428594E-16 -8.48599293E-04 -1.80312937E-02
  1.98058897E-02  2.86964762E-02 -5.67349148E-17 -7.42855953E-04 -2.80947942E-02
 -2.20833552E-02  3.64332946E-02 -7.46352861E-17 -4.02361919E-03 -8.54995256E-02
 -1.06061995E-01  4.40001101E-02 -9.98635807E-17 -6.17105198E-02 -3.81939539E-01
 -3.06403838E-01 -1.06380508E-01  1.53354578E-16  4.90705165E-17 -1.50897990E-16
  1.00000000E+00  5.97110317E-02  3.69664598E-01 -1.63190270E-01 -2.73594333E-01
  9.38419809E-16  4.15694563E-03  8.83280342E-02  2.86964762E-02 -1.14908470E-01
  2.77921462E-16  8.38725530E-04  3.17205793E-02  3.64332946E-02 -3.09497356E-02
  8.42673733E-17  1.34402295E-03  2.85596920E-02  4.40001101E-02  1.09642096E-02
  3.33577653E-17 -1.25887450E-02 -7.79144214E-02 -1.06380508E-01  1.93376294E-01
  3.12838342E-17 -7.46348625E-17  1.40905040E-16 -2.92389811E-32  1.00000000E+00
 -1.14682969E-16 -7.09989972E-16  3.13428594E-16  9.38419809E-16  2.15004936E-01
 -8.21856855E-18 -1.74630623E-16 -5.67349148E-17  2.77921462E-16  2.56639912E-02
 -1.71816797E-18 -6.49810713E-17 -7.46352861E-17  8.42673733E-17  1.01854727E-02
 -3.05042292E-18 -6.48196810E-17 -9.98635807E-17  3.33577653E-17  2.56617133E-02
  1.81475131E-17  1.12318820E-16  1.53354578E-16  3.12838342E-17  2.15077572E-01
  2.47674403E-31  9.72994279E-32  0.00000000E+00 -2.53081600E-47  1.00000000E+00
  5.29064196E-03  9.55903187E-02 -3.29116238E-02  1.19138660E-01 -2.36446288E-16
  6.08874056E-02  4.85212737E-01  1.47061368E-01  4.40014721E-01 -8.45096437E-16
  5.29176584E-03  9.56049109E-02  9.79163065E-02  7.54563185E-02 -1.37298098E-16
  9.20087291E-05  6.45003131E-03  6.75860783E-03  8.28683980E-03 -1.54974442E-17
  1.21817086E-05  1.84747902E-03  1.05294511E-03  3.15324093E-03 -6.05624175E-18
  9.19773484E-05  6.44864959E-03 -4.21949098E-04  1.06830173E-02 -2.09366027E-17
  1.00000000E+00  9.18753931E-05  6.44415922E-03 -9.45667472E-03  4.97273417E-03
 -1.07167321E-17  5.29116530E-03  9.55971136E-02 -1.19639927E-01  3.10704895E-02
 -7.33103689E-17  6.08838509E-02  4.85198418E-01 -3.07669085E-01  3.47234316E-01
 -7.11338637E-16  5.29246541E-03  9.56139937E-02 -1.64086457E-02  1.22533853E-01
 -2.41355408E-16  9.19352201E-05  6.44679436E-03 -3.79728042E-03  9.99121385E-03
 -1.99376529E-17  1.21620393E-05  1.84565734E-03 -2.20227216E-03  2.48620164E-03
 -5.09312538E-18  5.00066312E-02  1.00000000E+00  9.20087291E-05  6.45003131E-03
 -6.75860783E-03 -8.28683980E-03  1.54974442E-17  1.21817086E-05  1.84747902E-03
 -1.05294511E-03 -3.15324093E-03  6.05624175E-18  9.19773484E-05  6.44864959E-03
  4.21949098E-04 -1.06830173E-02  2.09366027E-17  5.29064196E-03  9.55903187E-02
  3.29116238E-02 -1.19138660E-01  2.36446288E-16  6.08874056E-02  4.85212737E-01
 -1.47061368E-01 -4.40014721E-01  8.45096437E-16  5.29176584E-03  9.56049109E-02
 -9.79163065E-02 -7.54563185E-02  1.37298098E-16  1.11528442E-04  7.61637368E-04
  1.00000000E+00  5.29246541E-03  9.56139937E-02  1.64086457E-02 -1.22533853E-01
  2.41355408E-16  9.19352201E-05  6.44679436E-03  3.79728042E-03 -9.99121385E-03
  1.99376529E-17  1.21620393E-05  1.84565734E-03  2.20227216E-03 -2.48620164E-03
  5.09312538E-18  9.18753931E-05  6.44415922E-03  9.45667472E-03 -4.97273417E-03
  1.07167321E-17  5.29116530E-03  9.55971136E-02  1.19639927E-01 -3.10704895E-02
  7.33103689E-17  6.08838509E-02  4.85198418E-01  3.07669085E-01 -3.47234316E-01
  7.11338637E-16  7.61637368E-04  1.11398407E-04  5.00066312E-02  1.00000000E+00
  9.22885316E-53  1.06745412E-07 -4.29246199E-07 -8.75707565E-08  1.26242119E-22
  1.51058224E-41  2.34817295E-06 -7.39185638E-06 -4.25538071E-06  7.54686924E-21
  3.91179358E-19  1.14467049E-03 -2.12573746E-03 -1.77720085E-03  3.25266754E-18
  6.33881341E-08  2.65883850E-02 -4.36861748E-02 -8.91677985E-03  1.28566721E-17
  3.88855306E-19  1.14385146E-03 -2.65040526E-03  8.01670772E-04 -1.84575270E-18
  1.49285306E-41  2.34485482E-06 -8.45667496E-06  1.01793783E-06 -2.87762100E-21
  2.05131401E-07  1.01737671E-03  1.01718898E-03  2.04866536E-07  1.00000000E+00
  1.06745412E-07  2.93227593E-04 -6.32203684E-04 -1.28976226E-04  1.85932299E-19
  2.34817295E-06  1.52827565E-03 -2.63558426E-03 -1.51726628E-03  2.69085447E-18
  1.14467049E-03  4.65534822E-02 -5.41969969E-02 -4.53108396E-02  8.29287794E-17
  2.65883850E-02  2.98493812E-01 -3.29566904E-01 -6.72678609E-02  9.69902640E-17
  1.14385146E-03  4.65343398E-02 -6.75924490E-02  2.04447568E-02 -4.70716488E-17
  2.34485482E-06  1.52711465E-03 -3.01717788E-03  3.63180506E-04 -1.02667945E-18
  1.58079961E-04  3.04893695E-02  3.04856017E-02  1.57958181E-04  2.48362390E-01
  1.00000000E+00  4.29246199E-07  6.32203684E-04 -1.28669150E-03 -2.81762970E-04
  4.06189871E-19  7.39185638E-06  2.63558426E-03 -4.16355691E-03 -2.68973754E-03
  4.77021890E-18  2.12573746E-03  5.41969969E-02 -5.01125605E-02 -5.77259802E-02
  1.05651211E-16  4.36861748E-02  3.29566904E-01 -2.94979322E-01 -9.37446014E-02
  1.35165791E-16  2.65040526E-03  6.75924490E-02 -8.85136172E-02  3.24973117E-02
 -7.48212396E-17  8.45667496E-06  3.01717788E-03 -5.61944053E-03  7.37599924E-04
 -2.08513033E-18  2.55811836E-04  1.99234120E-02  3.40091238E-02  3.15852575E-04
 -3.07793116E-16  6.95776166E-17  1.00000000E+00  8.75707565E-08  1.28976226E-04
 -2.81762970E-04  3.69454331E-05  8.28670222E-20  4.25538071E-06  1.51726628E-03
 -2.68973754E-03 -1.03975993E-03  2.74614339E-18  1.77720085E-03  4.53108396E-02
 -5.77259802E-02 -2.93268311E-02  8.83286039E-17  8.91677985E-03  6.72678609E-02
 -9.37446014E-02  1.45171458E-01  2.75886733E-17 -8.01670772E-04 -2.04447568E-02
  3.24973117E-02  9.09631159E-03  2.26312564E-17 -1.01793783E-06 -3.63180506E-04
  7.37599924E-04  4.19498624E-04  2.50989076E-19  2.06039548E-04  4.00232367E-02
 -2.90126424E-02 -8.92861032E-05 -5.75170757E-17  1.50897990E-16  0.00000000E+00
  1.00000000E+00 -1.26242119E-22 -1.85932299E-19  4.06189871E-19  8.28670222E-20
  9.44280538E-05 -7.54686924E-21 -2.69085447E-18  4.77021890E-18  2.74614339E-18
  5.08681585E-04 -3.25266754E-18 -8.29287794E-17  1.05651211E-16  8.83286039E-17
  1.89343784E-02 -1.28566721E-17 -9.69902640E-17  1.35165791E-16  2.75886733E-17
  1.64305657E-01  1.84575270E-18  4.70716488E-17 -7.48212396E-17  2.26312564E-17
  1.89258065E-02  2.87762100E-21  1.02667945E-18 -2.08513033E-18  2.50989076E-19
  5.08284213E-04 -3.76115472E-19 -7.61824135E-17  6.03055229E-17  2.07737820E-19
  7.28799087E-32 -2.04315539E-31 -1.30258264E-46 -2.59694320E-47  1.00000000E+00
  1.47225279E-74  2.64963546E-10 -1.29521865E-09  2.11748576E-11 -1.77244852E-25
  3.15953097E-53  9.38978532E-08 -3.77545207E-07 -8.54157144E-08  1.27449649E-22
  2.41845956E-25  2.05744451E-04 -5.62474885E-04 -1.33199226E-04  2.01503751E-19
  8.88424017E-19  1.26320676E-03 -2.92715020E-03  7.72108474E-04 -1.81696208E-18
  4.15816668E-40  3.49292959E-06 -1.11351303E-05  5.58991274E-06 -1.20997491E-20
  5.40065296E-68  1.61150042E-09 -7.20785179E-09  2.14683477E-09 -4.95439143E-24
  3.74728463E-08  1.48084008E-03  5.44616205E-06  1.39591865E-10  3.04987038E-06
  4.47243006E-02 -5.17653303E-02  5.31703981E-02 -1.09412038E-16  1.00000000E+00
  2.64963546E-10  1.22404593E-05 -3.16710808E-05  5.17774068E-07 -4.33404510E-21
  9.38978532E-08  2.73906286E-04 -5.90151022E-04 -1.33515590E-04  1.99219959E-19
  2.05744451E-04  1.76113287E-02 -2.85372124E-02 -6.75787439E-03  1.02233104E-17
  1.26320676E-03  4.92679015E-02 -7.18434953E-02  1.89505040E-02 -4.45952199E-17
  3.49292959E-06  1.89227713E-03 -3.31868299E-03  1.66600191E-03 -3.60617526E-18
  1.61150042E-09  3.17846220E-05 -7.53841746E-05  2.24529266E-05 -5.18160916E-20
  5.74574690E-05  3.92739296E-02  1.13225154E-03  2.08624942E-06  4.47243006E-02
  4.02773183E-01 -2.88955938E-01  2.96799077E-01 -6.10741936E-16  2.48362390E-01
  1.00000000E+00  1.29521865E-09  3.16710808E-05 -7.83167081E-05  1.34342676E-06
 -1.12451985E-20  3.77545207E-07  5.90151022E-04 -1.19972541E-03 -2.91363378E-04
  4.34746236E-19  5.62474885E-04  2.85372124E-02 -4.28466297E-02 -1.17070996E-02
  1.77104968E-17  2.92715020E-03  7.18434953E-02 -9.46869801E-02  3.02923286E-02
 -7.12853366E-17  1.11351303E-05  3.31868299E-03 -5.36450788E-03  3.01121358E-03
 -6.51797809E-18  7.20785179E-09  7.53841746E-05 -1.69541690E-04  5.34912347E-05
 -1.23445231E-19  1.15420705E-04  4.60238929E-02  1.55580819E-03  4.91997829E-06
  5.17653303E-02  2.88955938E-01 -3.45116016E-02  2.85322875E-01 -5.87126641E-16
 -2.00098325E-16  9.60127184E-16  1.00000000E+00 -2.11748576E-11 -5.17774068E-07
  1.34342676E-06  3.83573700E-06  1.83841915E-22  8.54157144E-08  1.33515590E-04
 -2.91363378E-04  2.22091918E-05  9.83568582E-20  1.33199226E-04  6.75787439E-03
 -1.17070996E-02  3.81786616E-03  4.19400854E-18 -7.72108474E-04 -1.89505040E-02
  3.02923286E-02  1.21642968E-02  1.88032758E-17 -5.58991274E-06 -1.66600191E-03
  3.01121358E-03 -8.77807551E-04  3.27207026E-18 -2.14683477E-09 -2.24529266E-05
  5.34912347E-05 -5.88069319E-06  3.67677531E-20  5.03504374E-05  3.22486839E-02
 -1.41043300E-03 -2.01183158E-06 -5.31703981E-02 -2.96799077E-01  2.85322875E-01
 -4.97960002E-02  6.03063036E-16 -2.62354908E-17 -7.54489951E-17 -5.84779622E-32
  1.00000000E+00  1.77244852E-25  4.33404510E-21 -1.12451985E-20  1.83841915E-22
  3.85769998E-06 -1.27449649E-22 -1.99219959E-19  4.34746236E-19  9.83568582E-20
  8.81271552E-05 -2.01503751E-19 -1.02233104E-17  1.77104968E-17  4.19400854E-18
  6.59021502E-03  1.81696208E-18  4.45952199E-17 -7.12853366E-17  1.88032758E-17
  2.01546499E-02  1.20997491E-20  3.60617526E-18 -6.51797809E-18  3.27207026E-18
  6.33842577E-04  4.95439143E-24  5.18160916E-20 -1.23445231E-19  3.67677531E-20
  1.00514938E-05 -8.63637798E-20 -5.82407833E-17  2.92149060E-18  4.45043392E-21
  1.09412038E-16  6.10741936E-16 -5.87126641E-16  6.03063036E-16  2.43271401E-01
 -1.49867846E-32  3.08986688E-32  0.00000000E+00  0.00000000E+00  1.00000000E+00
  7.41680361E-08  8.62330313E-05 -1.69957607E-04 -7.32511064E-05  1.25430234E-19
  2.85181282E-07  1.92426968E-04 -3.03518210E-04 -2.53656012E-04  4.64233965E-19
  6.94927243E-05  5.41006775E-03 -5.73149530E-03 -7.04009814E-03  1.31669580E-17
  4.44493833E-03  8.43832651E-02 -8.72231161E-02 -6.84032489E-02  1.24626122E-16
  1.14946288E-03  3.30926736E-02 -4.77834330E-02 -5.94354396E-03  6.61233956E-18
  4.69613642E-06  1.03505424E-03 -1.90849174E-03 -2.88671229E-04  3.64392747E-19
  1.49461234E-05  2.79609580E-03  5.54692998E-02  2.06833017E-04  6.10855877E-02
  4.86010001E-01 -1.04860636E-01 -4.52430081E-01  8.73802397E-16  5.78115105E-03
  1.01890938E-01  4.15192821E-02 -1.23887673E-01  2.46636459E-16  1.00000000E+00
  1.17574263E-11  4.82167356E-07 -1.29920889E-06 -2.80482495E-08 -8.13996524E-23
  2.61557141E-09  1.18376124E-05 -2.73329062E-05 -6.05946473E-06  8.98375816E-21
  5.71623743E-06  1.16596450E-03 -2.10470388E-03 -4.79472069E-04  7.16956910E-19
  5.60690731E-05  4.73213080E-03 -7.95518537E-03  9.58086885E-04 -2.70797997E-18
  2.49178440E-07  1.77533321E-04 -3.48016438E-04  1.15111225E-04 -2.61616117E-19
  1.14557941E-10  1.85585227E-06 -4.65407222E-06  9.53184455E-07 -2.35219341E-21
  2.78911361E-06  4.16626666E-03  1.98901713E-04  1.51794016E-07  5.78140573E-03
  1.01894175E-01 -1.22735715E-01  4.48206800E-02 -1.00525735E-16  6.10850997E-02
  4.86008040E-01 -4.55071040E-01 -9.27252732E-02  1.33614262E-16  4.83128210E-02
  1.00000000E+00  2.89127764E-08  4.92515142E-05 -1.05909652E-04  2.48515718E-05
 -5.97083380E-20  7.47252902E-06  1.37187357E-03 -2.51368675E-03  6.92817825E-05
 -3.99110582E-19  1.32819924E-03  3.64817255E-02 -5.20184038E-02  7.69756180E-03
 -2.05091636E-17  9.08755529E-04  2.82732793E-02 -3.28687591E-02  2.57405154E-02
 -5.37867606E-17  3.49483384E-06  8.65694395E-04 -1.22148400E-03  1.08212511E-03
 -2.24437021E-18  1.98010906E-08  3.93342514E-05 -7.68802784E-05  4.25362888E-05
 -9.12492248E-20  5.46289496E-04  1.29837666E-01  2.65253358E-04  2.09214798E-06
  5.78115091E-03  1.01890936E-01 -4.15192813E-02  1.23887672E-01 -2.46636455E-16
  6.10855863E-02  4.86009995E-01  1.04860634E-01  4.52430078E-01 -8.73802391E-16
  1.41444010E-02  1.52206714E-01  1.00000000E+00  6.33881341E-08  2.65883850E-02
  4.36861748E-02  8.91677985E-03 -1.28566721E-17  3.88855306E-19  1.14385146E-03
  2.65040526E-03 -8.01670772E-04  1.84575270E-18  1.49285306E-41  2.34485482E-06
  8.45667496E-06 -1.01793783E-06  2.87762100E-21  9.22885316E-53  1.06745412E-07
  4.29246199E-07  8.75707565E-08 -1.26242119E-22  1.51058224E-41  2.34817295E-06
  7.39185638E-06  4.25538071E-06 -7.54686924E-21  3.91179358E-19  1.14467049E-03
  2.12573746E-03  1.77720085E-03 -3.25266754E-18  1.01718898E-03  2.04866536E-07
  2.05131401E-07  1.01737671E-03  9.02103186E-96  7.80481257E-13  4.23971132E-12
  8.65056351E-13 -1.24712317E-27  0.00000000E+00  3.77253247E-16  2.37488320E-15
  7.95092581E-17  9.35690641E-32  3.63456936E-12  5.21668335E-17  2.01943028E-12
  1.00000000E+00  2.65883850E-02  2.98493812E-01  3.29566904E-01  6.72678609E-02
 -9.69902640E-17  1.14385146E-03  4.65343398E-02  6.75924490E-02 -2.04447568E-02
  4.70716488E-17  2.34485482E-06  1.52711465E-03  3.01717788E-03 -3.63180506E-04
  1.02667945E-18  1.06745412E-07  2.93227593E-04  6.32203684E-04  1.28976226E-04
 -1.85932299E-19  2.34817295E-06  1.52827565E-03  2.63558426E-03  1.51726628E-03
 -2.69085447E-18  1.14467049E-03  4.65534822E-02  5.41969969E-02  4.53108396E-02
 -8.29287794E-17  3.04856017E-02  1.57958181E-04  1.58079961E-04  3.04893695E-02
  7.80481257E-13  5.63355794E-07  1.61753600E-06  3.30036571E-07 -4.75802826E-22
  3.77253247E-16  9.94828380E-09  3.31343834E-08  1.10931361E-09  1.30547610E-24
  2.40635379E-07  3.25513079E-10  1.69926554E-07  2.48362390E-01  1.00000000E+00
 -4.36861748E-02 -3.29566904E-01 -2.94979322E-01 -9.37446014E-02  1.35165791E-16
 -2.65040526E-03 -6.75924490E-02 -8.85136172E-02  3.24973117E-02 -7.48212396E-17
 -8.45667496E-06 -3.01717788E-03 -5.61944053E-03  7.37599924E-04 -2.08513033E-18
 -4.29246199E-07 -6.32203684E-04 -1.28669150E-03 -2.81762970E-04  4.06189871E-19
 -7.39185638E-06 -2.63558426E-03 -4.16355691E-03 -2.68973754E-03  4.77021890E-18
 -2.12573746E-03 -5.41969969E-02 -5.01125605E-02 -5.77259802E-02  1.05651211E-16
 -3.40091238E-02 -3.15852575E-04 -2.55811836E-04 -1.99234120E-02 -4.23971132E-12
 -1.61753600E-06 -4.47030127E-06 -9.48173809E-07  1.36695087E-21 -2.37488320E-15
 -3.31343834E-08 -1.07249239E-07 -3.69502799E-09 -4.34842834E-24 -6.22725543E-07
 -1.08693996E-09 -4.71085513E-07  3.07793116E-16 -6.95776166E-17  1.00000000E+00
 -8.91677985E-03 -6.72678609E-02 -9.37446014E-02  1.45171458E-01  2.75886733E-17
  8.01670772E-04  2.04447568E-02  3.24973117E-02  9.09631159E-03  2.26312564E-17
  1.01793783E-06  3.63180506E-04  7.37599924E-04  4.19498624E-04  2.50989076E-19
 -8.75707565E-08 -1.28976226E-04 -2.81762970E-04  3.69454331E-05  8.28670222E-20
 -4.25538071E-06 -1.51726628E-03 -2.68973754E-03 -1.03975993E-03  2.74614339E-18
 -1.77720085E-03 -4.53108396E-02 -5.77259802E-02 -2.93268311E-02  8.83286039E-17
  2.90126424E-02  8.92861032E-05 -2.06039548E-04 -4.00232367E-02 -8.65056351E-13
 -3.30036571E-07 -9.48173809E-07 -1.66867195E-08  2.78908030E-22 -7.95092581E-17
 -1.10931361E-09 -3.69502799E-09  2.99482886E-09 -1.45582028E-25 -2.32855574E-07
 -6.20812511E-11  6.20212030E-08  5.75170757E-17 -1.50897990E-16  0.00000000E+00
  1.00000000E+00  1.28566721E-17  9.69902640E-17  1.35165791E-16  2.75886733E-17
  1.64305657E-01 -1.84575270E-18 -4.70716488E-17 -7.48212396E-17  2.26312564E-17
  1.89258065E-02 -2.87762100E-21 -1.02667945E-18 -2.08513033E-18  2.50989076E-19
  5.08284213E-04  1.26242119E-22  1.85932299E-19  4.06189871E-19  8.28670222E-20
  9.44280538E-05  7.54686924E-21  2.69085447E-18  4.77021890E-18  2.74614339E-18
  5.08681585E-04  3.25266754E-18  8.29287794E-17  1.05651211E-16  8.83286039E-17
  1.89343784E-02 -6.03055229E-17 -2.07737820E-19  3.76115472E-19  7.61824135E-17
  1.24712317E-27  4.75802826E-22  1.36695087E-21  2.78908030E-22  1.76775456E-07
 -9.35690641E-32 -1.30547610E-24 -4.34842834E-24 -1.45582028E-25  3.11853555E-09
  3.90079008E-22  7.41870502E-27 -1.70696752E-22 -7.28799087E-32  2.04315539E-31
 -1.30258264E-46 -2.59694320E-47  1.00000000E+00  8.88424017E-19  1.26320676E-03
  2.92715020E-03 -7.72108474E-04  1.81696208E-18  4.15816668E-40  3.49292959E-06
  1.11351303E-05 -5.58991274E-06  1.20997491E-20  5.40065296E-68  1.61150042E-09
  7.20785179E-09 -2.14683477E-09  4.95439143E-24  1.47225279E-74  2.64963546E-10
  1.29521865E-09 -2.11748576E-11  1.77244852E-25  3.15953097E-53  9.38978532E-08
  3.77545207E-07  8.54157144E-08 -1.27449649E-22  2.41845956E-25  2.05744451E-04
  5.62474885E-04  1.33199226E-04 -2.01503751E-19  5.44616205E-06  1.39591865E-10
  3.74728463E-08  1.48084008E-03  0.00000000E+00  3.77253247E-16  2.37488320E-15
  7.95092581E-17  9.35690641E-32  0.00000000E+00  1.32352584E-20  9.47072263E-20
 -9.05143163E-21  2.76337963E-35  2.51067327E-14  7.73708215E-21  2.95521187E-16
  3.04987038E-06  4.47243006E-02  5.17653303E-02 -5.31703981E-02  1.09412038E-16
  1.00000000E+00  1.26320676E-03  4.92679015E-02  7.18434953E-02 -1.89505040E-02
  4.45952199E-17  3.49292959E-06  1.89227713E-03  3.31868299E-03 -1.66600191E-03
  3.60617526E-18  1.61150042E-09  3.17846220E-05  7.53841746E-05 -2.24529266E-05
  5.18160916E-20  2.64963546E-10  1.22404593E-05  3.16710808E-05 -5.17774068E-07
  4.33404510E-21  9.38978532E-08  2.73906286E-04  5.90151022E-04  1.33515590E-04
 -1.99219959E-19  2.05744451E-04  1.76113287E-02  2.85372124E-02  6.75787439E-03
 -1.02233104E-17  1.13225154E-03  2.08624942E-06  5.74574690E-05  3.92739296E-02
  3.77253247E-16  9.94828380E-09  3.31343834E-08  1.10931361E-09  1.30547610E-24
  1.32352584E-20  4.35420739E-11  1.65098631E-10 -1.57789329E-11  4.81726910E-26
  1.26462377E-08  1.74466664E-12  9.09887554E-10  4.47243006E-02  4.02773183E-01
  2.88955938E-01 -2.96799077E-01  6.10741936E-16  2.48362390E-01  1.00000000E+00
 -2.92715020E-03 -7.18434953E-02 -9.46869801E-02  3.02923286E-02 -7.12853366E-17
 -1.11351303E-05 -3.31868299E-03 -5.36450788E-03  3.01121358E-03 -6.51797809E-18
 -7.20785179E-09 -7.53841746E-05 -1.69541690E-04  5.34912347E-05 -1.23445231E-19
 -1.29521865E-09 -3.16710808E-05 -7.83167081E-05  1.34342676E-06 -1.12451985E-20
 -3.77545207E-07 -5.90151022E-04 -1.19972541E-03 -2.91363378E-04  4.34746236E-19
 -5.62474885E-04 -2.85372124E-02 -4.28466297E-02 -1.17070996E-02  1.77104968E-17
 -1.55580819E-03 -4.91997829E-06 -1.15420705E-04 -4.60238929E-02 -2.37488320E-15
 -3.31343834E-08 -1.07249239E-07 -3.69502799E-09 -4.34842834E-24 -9.47072263E-20
 -1.65098631E-10 -6.12360559E-10  5.98293174E-11 -1.82657422E-25 -3.77302771E-08
 -6.52016240E-12 -2.88196906E-09 -5.17653303E-02 -2.88955938E-01 -3.45116016E-02
  2.85322875E-01 -5.87126641E-16  2.00098325E-16 -9.60127184E-16  1.00000000E+00
  7.72108474E-04  1.89505040E-02  3.02923286E-02  1.21642968E-02  1.88032758E-17
  5.58991274E-06  1.66600191E-03  3.01121358E-03 -8.77807551E-04  3.27207026E-18
  2.14683477E-09  2.24529266E-05  5.34912347E-05 -5.88069319E-06  3.67677531E-20
  2.11748576E-11  5.17774068E-07  1.34342676E-06  3.83573700E-06  1.83841915E-22
 -8.54157144E-08 -1.33515590E-04 -2.91363378E-04  2.22091918E-05  9.83568582E-20
 -1.33199226E-04 -6.75787439E-03 -1.17070996E-02  3.81786616E-03  4.19400854E-18
  1.41043300E-03  2.01183158E-06 -5.03504374E-05 -3.22486839E-02 -7.95092581E-17
 -1.10931361E-09 -3.69502799E-09  2.99482886E-09 -1.45582028E-25  9.05143163E-21
  1.57789329E-11  5.98293174E-11  7.92939705E-12  1.74570752E-26 -7.04753586E-09
  3.81113467E-13  7.04034012E-10  5.31703981E-02  2.96799077E-01  2.85322875E-01
 -4.97960002E-02  6.03063036E-16  2.62354908E-17  7.54489951E-17 -5.84779622E-32
  1.00000000E+00 -1.81696208E-18 -4.45952199E-17 -7.12853366E-17  1.88032758E-17
  2.01546499E-02 -1.20997491E-20 -3.60617526E-18 -6.51797809E-18  3.27207026E-18
  6.33842577E-04 -4.95439143E-24 -5.18160916E-20 -1.23445231E-19  3.67677531E-20
  1.00514938E-05 -1.77244852E-25 -4.33404510E-21 -1.12451985E-20  1.83841915E-22
  3.85769998E-06  1.27449649E-22  1.99219959E-19  4.34746236E-19  9.83568582E-20
  8.81271552E-05  2.01503751E-19  1.02233104E-17  1.77104968E-17  4.19400854E-18
  6.59021502E-03 -2.92149060E-18 -4.45043392E-21  8.63637798E-20  5.82407833E-17
 -9.35690641E-32 -1.30547610E-24 -4.34842834E-24 -1.45582028E-25  3.11853555E-09
 -2.76337963E-35 -4.81726910E-26 -1.82657422E-25  1.74570752E-26  1.36474504E-11
  9.82568154E-24 -1.42912024E-27 -1.67909327E-24 -1.09412038E-16 -6.10741936E-16
 -5.87126641E-16  6.03063036E-16  2.43271401E-01  1.49867846E-32 -3.08986688E-32
  0.00000000E+00  0.00000000E+00  1.00000000E+00  4.44493833E-03  8.43832651E-02
  8.72231161E-02  6.84032489E-02 -1.24626122E-16  1.14946288E-03  3.30926736E-02
  4.77834330E-02  5.94354396E-03 -6.61233956E-18  4.69613642E-06  1.03505424E-03
  1.90849174E-03  2.88671229E-04 -3.64392747E-19  7.41680361E-08  8.62330313E-05
  1.69957607E-04  7.32511064E-05 -1.25430234E-19  2.85181282E-07  1.92426968E-04
  3.03518210E-04  2.53656012E-04 -4.64233965E-19  6.94927243E-05  5.41006775E-03
  5.73149530E-03  7.04009814E-03 -1.31669580E-17  5.54692998E-02  2.06833017E-04
  1.49461234E-05  2.79609580E-03  3.63456936E-12  2.40635379E-07  6.22725543E-07
  2.32855574E-07 -3.90079008E-22  2.51067327E-14  1.26462377E-08  3.77302771E-08
  7.04753586E-09 -9.82568154E-24  5.59348657E-08  4.11819602E-10  2.83715240E-07
  6.10855877E-02  4.86010001E-01  1.04860636E-01  4.52430081E-01 -8.73802397E-16
  5.78115105E-03  1.01890938E-01 -4.15192821E-02  1.23887673E-01 -2.46636459E-16
  1.00000000E+00  5.60690731E-05  4.73213080E-03  7.95518537E-03 -9.58086885E-04
  2.70797997E-18  2.49178440E-07  1.77533321E-04  3.48016438E-04 -1.15111225E-04
  2.61616117E-19  1.14557941E-10  1.85585227E-06  4.65407222E-06 -9.53184455E-07
  2.35219341E-21  1.17574263E-11  4.82167356E-07  1.29920889E-06  2.80482495E-08
  8.13996524E-23  2.61557141E-09  1.18376124E-05  2.73329062E-05  6.05946473E-06
 -8.98375816E-21  5.71623743E-06  1.16596450E-03  2.10470388E-03  4.79472069E-04
 -7.16956910E-19  1.98901713E-04  1.51794016E-07  2.78911361E-06  4.16626666E-03
  5.21668335E-17  3.25513079E-10  1.08693996E-09  6.20812511E-11 -7.41870502E-27
  7.73708215E-21  1.74466664E-12  6.52016240E-12 -3.81113467E-13  1.42912024E-27
  4.11819602E-10  6.72822756E-14  4.63163947E-11  5.78140573E-03  1.01894175E-01
  1.22735715E-01 -4.48206800E-02  1.00525735E-16  6.10850997E-02  4.86008040E-01
  4.55071040E-01  9.27252732E-02 -1.33614262E-16  4.83128210E-02  1.00000000E+00
  9.08755529E-04  2.82732793E-02  3.28687591E-02 -2.57405154E-02  5.37867606E-17
  3.49483384E-06  8.65694395E-04  1.22148400E-03 -1.08212511E-03  2.24437021E-18
  1.98010906E-08  3.93342514E-05  7.68802784E-05 -4.25362888E-05  9.12492248E-20
  2.89127764E-08  4.92515142E-05  1.05909652E-04 -2.48515718E-05  5.97083380E-20
  7.47252902E-06  1.37187357E-03  2.51368675E-03 -6.92817825E-05  3.99110582E-19
  1.32819924E-03  3.64817255E-02  5.20184038E-02 -7.69756180E-03  2.05091636E-17
  2.65253358E-04  2.09214798E-06  5.46289496E-04  1.29837666E-01  2.01943028E-12
  1.69926554E-07  4.71085513E-07 -6.20212030E-08  1.70696752E-22  2.95521187E-16
  9.09887554E-10  2.88196906E-09 -7.04034012E-10  1.67909327E-24  2.83715240E-07
  4.63163947E-11  4.06637549E-09  5.78115091E-03  1.01890936E-01  4.15192813E-02
 -1.23887672E-01  2.46636455E-16  6.10855863E-02  4.86009995E-01 -1.04860634E-01
 -4.52430078E-01  8.73802391E-16  1.41444010E-02  1.52206714E-01  1.00000000E+00
Kinetic Energy Matrix                      R   N=        1830
  1.58911217E+01 -8.58900137E-02  4.72249973E-01  0.00000000E+00  0.00000000E+00
  1.47772808E+00  0.00000000E+00  0.00000000E+00  0.00000000E+00  1.47772808E+00
  0.00000000E+00  0.00000000E+00  0.00000000E+00  0.00000000E+00  1.47772808E+00
 -3.53936812E-05 -8.43110030E-03  7.71716965E-03 -8.71084328E-03  1.78447754E-17
  1.58911217E+01 -8.43110030E-03  4.60533250E-02 -9.92832755E-02  1.12067130E-01
 -2.29577401E-16 -8.58900137E-02  4.72249973E-01 -7.71716965E-03  9.92832755E-02
 -9.41345093E-02  1.90829709E-01 -3.90928086E-16  0.00000000E+00  0.00000000E+00
  1.47772808E+00  8.71084328E-03 -1.12067130E-01  1.90829709E-01 -1.40474564E-01
  4.41264537E-16  0.00000000E+00  0.00000000E+00  0.00000000E+00  1.47772808E+00
 -1.78447754E-17  2.29577401E-16 -3.90928086E-16  4.41264537E-16  7.49266469E-02
  0.00000000E+00  0.00000000E+00  0.00000000E+00  0.00000000E+00  1.47772808E+00
  0.00000000E+00 -2.29206936E-03  3.36295826E-03 -1.12334018E-03  2.54955662E-18
 -3.56481748E-05 -8.43112877E-03  1.13960470E-02  2.32475645E-03 -3.35129104E-18
  1.58911217E+01 -2.29206936E-03 -1.75273954E-02  9.77820148E-03 -3.26624528E-03
  7.41313939E-18 -8.43112877E-03  4.61444255E-02 -1.46862493E-01 -2.99594701E-02
  4.31885687E-17 -8.58900137E-02  4.72249973E-01 -3.36295826E-03 -9.77820148E-03
 -1.01223126E-02  2.08512477E-03 -4.73244329E-18 -1.13960470E-02  1.46862493E-01
 -2.94440655E-01 -7.53749244E-02  1.08657967E-16  0.00000000E+00  0.00000000E+00
  1.47772808E+00  1.12334018E-03  3.26624528E-03  2.08512477E-03 -4.57654834E-03
  1.58079383E-18 -2.32475645E-03  2.99594701E-02 -7.53749244E-02  5.96739312E-02
  2.21658711E-17  0.00000000E+00  0.00000000E+00  0.00000000E+00  1.47772808E+00
 -2.54955662E-18 -7.41313939E-18 -4.73244329E-18  1.58079383E-18 -3.88004715E-03
  3.35129104E-18 -4.31885687E-17  1.08657967E-16  2.21658711E-17  7.50501702E-02
  0.00000000E+00  0.00000000E+00  0.00000000E+00  0.00000000E+00  1.47772808E+00
  0.00000000E+00 -7.86369097E-04  1.58252465E-03  3.22764969E-04 -4.65253804E-19
  0.00000000E+00 -2.29398733E-03  2.65556483E-03  2.35214255E-03 -4.32149332E-18
 -3.55419900E-05 -8.43111840E-03  3.68545215E-03  1.10344154E-02 -2.11930607E-17
  1.58911217E+01 -7.86369097E-04 -1.21380658E-02  1.23197389E-02  2.51268134E-03
 -3.62193752E-18 -2.29398733E-03 -1.75307675E-02  7.71133828E-03  6.83024820E-03
 -1.25489299E-17 -8.43111840E-03  4.61064794E-02 -4.74612832E-02 -1.42101293E-01
  2.72924411E-16 -8.58900137E-02  4.72249973E-01 -1.58252465E-03 -1.23197389E-02
  6.44032044E-03  2.00491653E-03 -2.89001327E-18 -2.65556483E-03 -7.71133828E-03
 -7.78297102E-03 -3.45785358E-03  6.35297003E-18 -3.68545215E-03  4.74612832E-02
  3.63910900E-02 -1.15593020E-01  2.22011753E-16  0.00000000E+00  0.00000000E+00
  1.47772808E+00 -3.22764969E-04 -2.51268134E-03  2.00491653E-03 -2.98092081E-03
 -5.89434765E-19 -2.35214255E-03 -6.83024820E-03 -3.45785358E-03 -6.94182293E-03
  5.62708579E-18 -1.10344154E-02  1.42101293E-01 -1.15593020E-01 -2.71092175E-01
  6.64713529E-16  0.00000000E+00  0.00000000E+00  0.00000000E+00  1.47772808E+00
  4.65253804E-19  3.62193752E-18 -2.89001327E-18 -5.89434765E-19 -3.38983503E-03
  4.32149332E-18  1.25489299E-17  6.35297003E-18  5.62708579E-18 -3.87906037E-03
  2.11930607E-17 -2.72924411E-16  2.22011753E-16  6.64713529E-16  7.49987126E-02
  0.00000000E+00  0.00000000E+00  0.00000000E+00  0.00000000E+00  1.47772808E+00
  0.00000000E+00 -2.29398733E-03  2.65556483E-03  2.35214255E-03 -4.32149332E-18
  0.00000000E+00 -7.87015709E-04  5.11735627E-04  1.53302082E-03 -2.94440029E-18
  0.00000000E+00 -2.29227956E-03 -7.09216945E-04  3.47416773E-03 -6.86866949E-18
 -3.53936812E-05 -8.43110030E-03 -7.71716965E-03  8.71084328E-03 -1.78447754E-17
  1.58911217E+01 -2.29398733E-03 -1.75307675E-02  7.71133828E-03  6.83024820E-03
 -1.25489299E-17 -7.87015709E-04 -1.21421388E-02  3.98162305E-03  1.19278602E-02
 -2.29092747E-17 -2.29227956E-03 -1.75277652E-02 -2.06183898E-03  1.01001175E-02
 -1.99686296E-17 -8.43110030E-03  4.60533250E-02  9.92832755E-02 -1.12067130E-01
  2.29577401E-16 -8.58900137E-02  4.72249973E-01 -2.65556483E-03 -7.71133828E-03
 -7.78297102E-03 -3.45785358E-03  6.35297003E-18 -5.11735627E-04 -3.98162305E-03
 -2.36467689E-03  3.07386110E-03 -5.90381906E-18  7.09216945E-04  2.06183898E-03
 -4.15765383E-03  1.36041201E-03 -2.68962849E-18  7.71716965E-03 -9.92832755E-02
 -9.41345093E-02  1.90829709E-01 -3.90928086E-16  0.00000000E+00  0.00000000E+00
  1.47772808E+00 -2.35214255E-03 -6.83024820E-03 -3.45785358E-03 -6.94182293E-03
  5.62708579E-18 -1.53302082E-03 -1.19278602E-02  3.07386110E-03  5.81769386E-03
 -1.76862369E-17 -3.47416773E-03 -1.01001175E-02  1.36041201E-03 -1.05440489E-02
  1.31754050E-17 -8.71084328E-03  1.12067130E-01  1.90829709E-01 -1.40474564E-01
  4.41264537E-16  0.00000000E+00  0.00000000E+00  0.00000000E+00  1.47772808E+00
  4.32149332E-18  1.25489299E-17  6.35297003E-18  5.62708579E-18 -3.87906037E-03
  2.94440029E-18  2.29092747E-17 -5.90381906E-18 -1.76862369E-17 -3.39075835E-03
  6.86866949E-18  1.99686296E-17 -2.68962849E-18  1.31754050E-17 -3.87993918E-03
  1.78447754E-17 -2.29577401E-16 -3.90928086E-16  4.41264537E-16  7.49266469E-02
  0.00000000E+00  0.00000000E+00  0.00000000E+00  0.00000000E+00  1.47772808E+00
 -3.55419900E-05 -8.43111840E-03  3.68545215E-03  1.10344154E-02 -2.11930607E-17
  0.00000000E+00 -2.29227956E-03 -7.09216945E-04  3.47416773E-03 -6.86866949E-18
  0.00000000E+00 -7.86161413E-04 -1.07063031E-03  1.20880094E-03 -2.47628454E-18
  0.00000000E+00 -2.29206936E-03 -3.36295826E-03  1.12334018E-03 -2.54955662E-18
 -3.56481748E-05 -8.43112877E-03 -1.13960470E-02 -2.32475645E-03  3.35129104E-18
  1.58911217E+01 -8.43111840E-03  4.61064794E-02 -4.74612832E-02 -1.42101293E-01
  2.72924411E-16 -2.29227956E-03 -1.75277652E-02 -2.06183898E-03  1.01001175E-02
 -1.99686296E-17 -7.86161413E-04 -1.21367570E-02 -8.33616988E-03  9.41199767E-03
 -1.92809118E-17 -2.29206936E-03 -1.75273954E-02 -9.77820148E-03  3.26624528E-03
 -7.41313939E-18 -8.43112877E-03  4.61444255E-02  1.46862493E-01  2.99594701E-02
 -4.31885687E-17 -8.58900137E-02  4.72249973E-01 -3.68545215E-03  4.74612832E-02
  3.63910900E-02 -1.15593020E-01  2.22011753E-16  7.09216945E-04  2.06183898E-03
 -4.15765383E-03  1.36041201E-03 -2.68962849E-18  1.07063031E-03  8.33616988E-03
  1.11225453E-03 -5.08277350E-03  1.04122962E-17  3.36295826E-03  9.77820148E-03
 -1.01223126E-02  2.08512477E-03 -4.73244329E-18  1.13960470E-02 -1.46862493E-01
 -2.94440655E-01 -7.53749244E-02  1.08657967E-16  0.00000000E+00  0.00000000E+00
  1.47772808E+00 -1.10344154E-02  1.42101293E-01 -1.15593020E-01 -2.71092175E-01
  6.64713529E-16 -3.47416773E-03 -1.01001175E-02  1.36041201E-03 -1.05440489E-02
  1.31754050E-17 -1.20880094E-03 -9.41199767E-03 -5.08277350E-03  2.34919463E-03
 -1.17560593E-17 -1.12334018E-03 -3.26624528E-03  2.08512477E-03 -4.57654834E-03
  1.58079383E-18  2.32475645E-03 -2.99594701E-02 -7.53749244E-02  5.96739312E-02
  2.21658711E-17  0.00000000E+00  0.00000000E+00  0.00000000E+00  1.47772808E+00
  2.11930607E-17 -2.72924411E-16  2.22011753E-16  6.64713529E-16  7.49987126E-02
  6.86866949E-18  1.99686296E-17 -2.68962849E-18  1.31754050E-17 -3.87993918E-03
  2.47628454E-18  1.92809118E-17  1.04122962E-17 -1.17560593E-17 -3.38953827E-03
  2.54955662E-18  7.41313939E-18 -4.73244329E-18  1.58079383E-18 -3.88004715E-03
 -3.35129104E-18  4.31885687E-17  1.08657967E-16  2.21658711E-17  7.50501702E-02
  0.00000000E+00  0.00000000E+00  0.00000000E+00  0.00000000E+00  1.47772808E+00
 -2.30581547E-03 -1.49750251E-02  2.52716651E-04 -9.14823385E-04  1.81558692E-18
 -1.08452365E-02  1.03737710E-01  8.09145154E-02  2.42100140E-01 -4.64979820E-16
 -2.30601755E-03 -1.49747496E-02 -7.49159323E-04 -5.77317574E-04  1.05047008E-18
 -1.57946973E-04 -3.79960867E-03 -3.11734412E-03 -3.82222670E-03  7.14804996E-18
 -2.89026746E-05 -1.45227396E-03 -6.86304281E-04 -2.05526643E-03  3.94742763E-18
 -1.57903290E-04 -3.79900835E-03  1.94634039E-04 -4.92779533E-03  9.65750502E-18
  7.60031884E-01 -1.57761339E-04 -3.79705709E-03  4.36313559E-03 -2.29432798E-03
  4.94450288E-18 -2.30590957E-03 -1.49748969E-02  9.17133244E-04 -2.38179506E-04
  5.61981087E-19 -1.08460159E-02  1.03729691E-01 -1.69275433E-01  1.91043697E-01
 -3.91369045E-16 -2.30614332E-03 -1.49745779E-02  1.25260686E-04 -9.35401666E-04
  1.84246431E-18 -1.57844639E-04 -3.79820223E-03  1.75175491E-03 -4.60912968E-03
  9.19760391E-18 -2.88623782E-05 -1.45113596E-03  1.43576078E-03 -1.62086725E-03
  3.32043870E-18 -1.06935353E-02  7.60031884E-01 -1.57946973E-04 -3.79960867E-03
  3.11734412E-03  3.82222670E-03 -7.14804996E-18 -2.89026746E-05 -1.45227396E-03
  6.86304281E-04  2.05526643E-03 -3.94742763E-18 -1.57903290E-04 -3.79900835E-03
 -1.94634039E-04  4.92779533E-03 -9.65750502E-18 -2.30581547E-03 -1.49750251E-02
 -2.52716651E-04  9.14823385E-04 -1.81558692E-18 -1.08452365E-02  1.03737710E-01
 -8.09145154E-02 -2.42100140E-01  4.64979820E-16 -2.30601755E-03 -1.49747496E-02
  7.49159323E-04  5.77317574E-04 -1.05047008E-18 -1.17661992E-04 -5.95903461E-04
  7.60031884E-01 -2.30614332E-03 -1.49745779E-02 -1.25260686E-04  9.35401666E-04
 -1.84246431E-18 -1.57844639E-04 -3.79820223E-03 -1.75175491E-03  4.60912968E-03
 -9.19760391E-18 -2.88623782E-05 -1.45113596E-03 -1.43576078E-03  1.62086725E-03
 -3.32043870E-18 -1.57761339E-04 -3.79705709E-03 -4.36313559E-03  2.29432798E-03
 -4.94450288E-18 -2.30590957E-03 -1.49748969E-02 -9.17133244E-04  2.38179506E-04
 -5.61981087E-19 -1.08460159E-02  1.03729691E-01  1.69275433E-01 -1.91043697E-01
  3.91369045E-16 -5.95903461E-04 -1.17544232E-04 -1.06935353E-02  7.60031884E-01
  0.00000000E+00 -5.70158853E-07  2.11310060E-06  4.31094832E-07 -6.21466881E-22
  0.00000000E+00 -9.50078999E-06  2.68056939E-05  1.54316355E-05 -2.73678298E-20
  0.00000000E+00 -1.65122841E-03  2.18349576E-03  1.82548908E-03 -3.34104560E-18
 -3.00974680E-06 -8.00057659E-03  1.05502053E-02  2.15340112E-03 -3.10488457E-18
  0.00000000E+00 -1.65038980E-03  2.72319414E-03 -8.23687301E-04  1.89644317E-18
  0.00000000E+00 -9.48875619E-06  3.06721560E-05 -3.69203593E-06  1.04370619E-20
 -7.57944004E-07 -9.53415941E-04 -9.53300544E-04 -7.57050941E-07  1.58911217E+01
 -5.70158853E-07 -3.98614795E-04  7.38527800E-04  1.50667468E-04 -2.17202422E-19
 -9.50078999E-06 -1.56535083E-03  2.24202773E-03  1.29070170E-03 -2.28904476E-18
 -1.65122841E-03 -1.59908938E-02  9.48108168E-03  7.92656042E-03 -1.45073450E-17
 -8.00057659E-03  2.08886897E-02 -9.92240102E-02 -2.02526007E-02  2.92012420E-17
 -1.65038980E-03 -1.59882954E-02  1.18305211E-02 -3.57838974E-03  8.23882168E-18
 -9.48875619E-06 -1.56439302E-03  2.56707267E-03 -3.09000924E-04  8.73518525E-19
 -1.90373351E-04 -1.05867082E-02 -1.05860028E-02 -1.90248327E-04 -8.58900137E-02
  4.72249973E-01 -2.11310060E-06 -7.38527800E-04  1.26114698E-03  2.80086406E-04
 -4.03772934E-19 -2.68056939E-05 -2.24202773E-03  2.81594160E-03  1.87747473E-03
 -3.32968006E-18 -2.18349576E-03 -9.48108168E-03 -3.04792336E-03  7.98855182E-04
 -1.46208028E-18 -1.05502053E-02  9.92240102E-02 -2.14550844E-01 -5.25307866E-02
  7.57415918E-17 -2.72319414E-03 -1.18305211E-02 -2.50667934E-03 -4.52692660E-04
  1.04227163E-18 -3.06721560E-05 -2.56707267E-03  3.83299804E-03 -5.14954950E-04
  1.45573250E-18 -2.67179198E-04 -4.13484276E-03 -7.05886988E-03 -3.29928926E-04
  0.00000000E+00  0.00000000E+00  1.47772808E+00 -4.31094832E-07 -1.50667468E-04
  2.80086406E-04 -5.46139596E-05 -8.23739415E-20 -1.54316355E-05 -1.29070170E-03
  1.87747473E-03  6.35487251E-04 -1.91684681E-18 -1.82548908E-03 -7.92656042E-03
  7.98855182E-04 -3.33557179E-03 -1.22235712E-18 -2.15340112E-03  2.02526007E-02
 -5.25307866E-02  3.20923365E-02  1.54596071E-17  8.23687301E-04  3.57838974E-03
 -4.52692660E-04 -3.86640099E-03 -3.15256959E-19  3.69203593E-06  3.09000924E-04
 -5.14954950E-04 -3.83083755E-04 -1.75227875E-19 -2.15195208E-04 -8.30629767E-03
  6.02180957E-03  9.32652460E-05  0.00000000E+00  0.00000000E+00  0.00000000E+00
  1.47772808E+00  6.21466881E-22  2.17202422E-19 -4.03772934E-19 -8.23739415E-20
 -1.11754544E-04  2.73678298E-20  2.28904476E-18 -3.32968006E-18 -1.91684681E-18
 -4.45346759E-04  3.34104560E-18  1.45073450E-17 -1.46208028E-18 -1.22235712E-18
 -4.00344641E-03  3.10488457E-18 -2.92012420E-17  7.57415918E-17  1.54596071E-17
  4.28143890E-02 -1.89644317E-18 -8.23882168E-18  1.04227163E-18 -3.15256959E-19
 -4.00332740E-03 -1.04370619E-20 -8.73518525E-19  1.45573250E-18 -1.75227875E-19
 -4.45069361E-04  3.92828698E-19  1.58106604E-17 -1.25169011E-17 -2.16995906E-19
  0.00000000E+00  0.00000000E+00  0.00000000E+00  0.00000000E+00  1.47772808E+00
  0.00000000E+00  0.00000000E+00  0.00000000E+00  0.00000000E+00  0.00000000E+00
  0.00000000E+00 -5.06575030E-07  1.87886292E-06  4.25073385E-07 -6.34256286E-22
  0.00000000E+00 -4.45373460E-04  9.80684042E-04  2.32235002E-04 -3.51325042E-19
  0.00000000E+00 -1.77012919E-03  2.88919301E-03 -7.62096324E-04  1.79340102E-18
  0.00000000E+00 -1.35503201E-05  3.85224158E-05 -1.93385202E-05  4.18595518E-20
  0.00000000E+00 -2.27368963E-09  9.94536184E-09 -2.96219307E-09  6.83604725E-24
 -1.59048531E-07 -1.20924694E-03 -1.43427284E-05  0.00000000E+00 -1.03696043E-04
 -8.25343488E-03  6.48506318E-03 -6.66108743E-03  1.37069343E-17  1.58911217E+01
  0.00000000E+00 -2.49085878E-05  5.77183989E-05 -9.43608156E-07  7.89850353E-21
 -5.06575030E-07 -3.76213104E-04  6.97336901E-04  1.57765292E-04 -2.35403183E-19
 -4.45373460E-04 -9.53538616E-03  1.08548009E-02  2.57051670E-03 -3.88867691E-18
 -1.77012919E-03 -1.63423713E-02  1.16769127E-02 -3.08007537E-03  7.24817866E-18
 -1.35503201E-05 -1.85775885E-03  2.68955896E-03 -1.35017727E-03  2.92255121E-18
 -2.27368963E-09 -5.81233805E-05  1.22169711E-04 -3.63878437E-05  8.39746138E-20
 -7.96607070E-05 -1.20333193E-02 -9.80537615E-04 -4.17800791E-06 -8.25343488E-03
  6.11697558E-02 -1.23228592E-01  1.26573389E-01 -2.60457942E-16 -8.58900137E-02
  4.72249973E-01  0.00000000E+00 -5.77183989E-05  1.25756003E-04 -2.17114281E-06
  1.81736233E-20 -1.87886292E-06 -6.97336901E-04  1.19086889E-03  2.93279284E-04
 -4.37604978E-19 -9.80684042E-04 -1.08548009E-02  8.49239578E-03  2.66024103E-03
 -4.02441185E-18 -2.88919301E-03 -1.16769127E-02 -3.87033595E-03 -3.75161763E-05
  8.82848360E-20 -3.85224158E-05 -2.68955896E-03  3.42800109E-03 -1.98706377E-03
  4.30113567E-18 -9.94536184E-09 -1.22169711E-04  2.38939016E-04 -7.60394886E-05
  1.75481316E-19 -1.40595204E-04 -7.53934180E-03 -1.13079682E-03 -8.94289344E-06
 -6.48506318E-03  1.23228592E-01 -1.22823892E-01  2.24923322E-01 -4.62838721E-16
  0.00000000E+00  0.00000000E+00  1.47772808E+00  0.00000000E+00  9.43608156E-07
 -2.17114281E-06 -7.01244841E-06 -2.97111137E-22 -4.25073385E-07 -1.57765292E-04
  2.93279284E-04 -3.91007325E-05 -9.90036191E-20 -2.32235002E-04 -2.57051670E-03
  2.66024103E-03 -2.11132429E-03 -9.53017743E-19  7.62096324E-04  3.08007537E-03
 -3.75161763E-05 -4.00266818E-03 -2.32873154E-20  1.93385202E-05  1.35017727E-03
 -1.98706377E-03  4.67281282E-04 -2.15919997E-18  2.96219307E-09  3.63878437E-05
 -7.60394886E-05  6.28971222E-06 -5.22665285E-20 -6.13324101E-05 -5.28277456E-03
  1.02513483E-03  3.65684448E-06  6.66108743E-03 -1.26573389E-01  2.24923322E-01
 -1.34872760E-01  4.75401565E-16  0.00000000E+00  0.00000000E+00  0.00000000E+00
  1.47772808E+00  0.00000000E+00 -7.89850353E-21  1.81736233E-20 -2.97111137E-22
 -7.04794330E-06  6.34256286E-22  2.35403183E-19 -4.37604978E-19 -9.90036191E-20
 -1.05452150E-04  3.51325042E-19  3.88867691E-18 -4.02441185E-18 -9.53017743E-19
 -2.74129384E-03 -1.79340102E-18 -7.24817866E-18  8.82848360E-20 -2.32873154E-20
 -4.01256400E-03 -4.18595518E-20 -2.92255121E-18  4.30113567E-18 -2.15919997E-18
 -5.30238530E-04 -6.83604725E-24 -8.39746138E-20  1.75481316E-19 -5.22665285E-20
 -1.63583975E-05  1.05200650E-19  9.54063518E-18 -2.12340590E-18 -8.08941705E-21
 -1.37069343E-17  2.60457942E-16 -4.62838721E-16  4.75401565E-16  9.61556614E-02
  0.00000000E+00  0.00000000E+00  0.00000000E+00  0.00000000E+00  1.47772808E+00
 -2.98435808E-07 -1.13207226E-04  1.95045676E-04  8.40639720E-05 -1.43945453E-19
 -1.02333615E-06 -2.25032217E-04  3.06996680E-04  2.56563036E-04 -4.69554316E-19
 -1.25626340E-04 -3.33431411E-03  2.79897672E-03  3.43803315E-03 -6.43008621E-18
 -2.14310794E-03 -1.50529255E-02  2.62074167E-03  2.05527219E-03 -3.74456780E-18
 -1.03200554E-03 -1.10557063E-02  9.24273628E-03  1.14965807E-03 -1.27902302E-18
 -1.25929563E-05 -9.11731637E-04  1.41366365E-03  2.13825408E-04 -2.69914074E-19
 -2.04358184E-05 -1.71419908E-03 -1.09932119E-02 -1.99406863E-04 -1.08014555E-02
  1.04184621E-01 -5.78266795E-02 -2.49498098E-01  4.81869013E-16 -2.39134083E-03
 -1.48158827E-02  1.63626552E-04 -4.88238519E-04  9.71988706E-19  7.60031884E-01
  0.00000000E+00 -1.09609321E-06  2.69893302E-06  5.82664936E-08  1.69096910E-22
 -1.33491668E-08 -1.98153730E-05  4.08344922E-05  9.05264752E-06 -1.34214489E-20
 -1.49643371E-05 -1.00408931E-03  1.52020326E-03  3.46317126E-04 -5.17849678E-19
 -1.05265615E-04 -3.01497207E-03  4.04809699E-03 -4.87534666E-04  1.37798996E-18
 -9.05020232E-07 -2.10145128E-04  3.56695553E-04 -1.17981962E-04  2.68140511E-19
  0.00000000E+00 -3.75782958E-06  8.56182889E-06 -1.75351860E-06  4.32719488E-21
 -4.54163024E-06 -2.34144484E-03 -1.92887487E-04 -3.22270529E-07 -2.39138399E-03
 -1.48157805E-02 -4.84412885E-04  1.76898101E-04 -3.96754613E-19 -1.08015641E-02
  1.04183521E-01 -2.50953085E-01 -5.11341996E-02  7.36828061E-17 -1.05829622E-02
  7.60031884E-01 -1.25138450E-07 -6.96678475E-05  1.31869064E-04 -3.09429164E-05
  7.43433908E-20 -1.89132732E-05 -1.14478105E-03  1.75279952E-03 -4.83103454E-05
  2.78300721E-19 -1.13083202E-03 -1.16141880E-02  9.18577139E-03 -1.35928898E-03
  3.62165070E-18 -8.84737337E-04 -1.01578782E-02  7.24707698E-03 -5.67540431E-03
  1.18591880E-17 -9.70610738E-06 -7.88289926E-04  9.38753413E-04 -8.31651209E-04
  1.72487744E-18 -8.81226261E-08 -5.72580172E-05  9.87698138E-05 -5.46473219E-05
  1.17229921E-19 -4.51992677E-04 -9.39181474E-03 -2.46243056E-04 -3.50941700E-06
 -2.39134080E-03 -1.48158827E-02 -1.63626418E-04  4.88238122E-04 -9.71987916E-19
 -1.08014558E-02  1.04184618E-01  5.78266776E-02  2.49498093E-01 -4.81869002E-16
 -5.65014282E-03 -7.44381857E-03  7.60031884E-01 -3.00974680E-06 -8.00057659E-03
 -1.05502053E-02 -2.15340112E-03  3.10488457E-18  0.00000000E+00 -1.65038980E-03
 -2.72319414E-03  8.23687301E-04 -1.89644317E-18  0.00000000E+00 -9.48875619E-06
 -3.06721560E-05  3.69203593E-06 -1.04370619E-20  0.00000000E+00 -5.70158853E-07
 -2.11310060E-06 -4.31094832E-07  6.21466881E-22  0.00000000E+00 -9.50078999E-06
 -2.68056939E-05 -1.54316355E-05  2.73678298E-20  0.00000000E+00 -1.65122841E-03
 -2.18349576E-03 -1.82548908E-03  3.34104560E-18 -9.53300544E-04 -7.57050941E-07
 -7.57944004E-07 -9.53415941E-04  0.00000000E+00  0.00000000E+00  0.00000000E+00
  0.00000000E+00  0.00000000E+00  0.00000000E+00  0.00000000E+00  0.00000000E+00
  0.00000000E+00  0.00000000E+00  0.00000000E+00  0.00000000E+00  0.00000000E+00
  1.58911217E+01 -8.00057659E-03  2.08886897E-02  9.92240102E-02  2.02526007E-02
 -2.92012420E-17 -1.65038980E-03 -1.59882954E-02 -1.18305211E-02  3.57838974E-03
 -8.23882168E-18 -9.48875619E-06 -1.56439302E-03 -2.56707267E-03  3.09000924E-04
 -8.73518525E-19 -5.70158853E-07 -3.98614795E-04 -7.38527800E-04 -1.50667468E-04
  2.17202422E-19 -9.50078999E-06 -1.56535083E-03 -2.24202773E-03 -1.29070170E-03
  2.28904476E-18 -1.65122841E-03 -1.59908938E-02 -9.48108168E-03 -7.92656042E-03
  1.45073450E-17 -1.05860028E-02 -1.90248327E-04 -1.90373351E-04 -1.05867082E-02
  0.00000000E+00 -1.52361823E-06 -4.01224543E-06 -8.18644981E-07  1.18021343E-21
  0.00000000E+00  0.00000000E+00  0.00000000E+00  0.00000000E+00  0.00000000E+00
 -5.79307719E-07  0.00000000E+00 -4.20483719E-07 -8.58900137E-02  4.72249973E-01
  1.05502053E-02 -9.92240102E-02 -2.14550844E-01 -5.25307866E-02  7.57415918E-17
  2.72319414E-03  1.18305211E-02 -2.50667934E-03 -4.52692660E-04  1.04227163E-18
  3.06721560E-05  2.56707267E-03  3.83299804E-03 -5.14954950E-04  1.45573250E-18
  2.11310060E-06  7.38527800E-04  1.26114698E-03  2.80086406E-04 -4.03772934E-19
  2.68056939E-05  2.24202773E-03  2.81594160E-03  1.87747473E-03 -3.32968006E-18
  2.18349576E-03  9.48108168E-03 -3.04792336E-03  7.98855182E-04 -1.46208028E-18
  7.05886988E-03  3.29928926E-04  2.67179198E-04  4.13484276E-03  0.00000000E+00
  4.01224543E-06  1.00428111E-05  2.13853634E-06 -3.08305722E-21  0.00000000E+00
  0.00000000E+00  0.00000000E+00  0.00000000E+00  0.00000000E+00  1.37765953E-06
  0.00000000E+00  1.07395234E-06  0.00000000E+00  0.00000000E+00  1.47772808E+00
  2.15340112E-03 -2.02526007E-02 -5.25307866E-02  3.20923365E-02  1.54596071E-17
 -8.23687301E-04 -3.57838974E-03 -4.52692660E-04 -3.86640099E-03 -3.15256959E-19
 -3.69203593E-06 -3.09000924E-04 -5.14954950E-04 -3.83083755E-04 -1.75227875E-19
  4.31094832E-07  1.50667468E-04  2.80086406E-04 -5.46139596E-05 -8.23739415E-20
  1.54316355E-05  1.29070170E-03  1.87747473E-03  6.35487251E-04 -1.91684681E-18
  1.82548908E-03  7.92656042E-03  7.98855182E-04 -3.33557179E-03 -1.22235712E-18
 -6.02180957E-03 -9.32652460E-05  2.15195208E-04  8.30629767E-03  0.00000000E+00
  8.18644981E-07  2.13853634E-06 -1.98917955E-09 -6.29056563E-22  0.00000000E+00
  0.00000000E+00  0.00000000E+00  0.00000000E+00  0.00000000E+00  5.15147810E-07
  0.00000000E+00 -1.41392199E-07  0.00000000E+00  0.00000000E+00  0.00000000E+00
  1.47772808E+00 -3.10488457E-18  2.92012420E-17  7.57415918E-17  1.54596071E-17
  4.28143890E-02  1.89644317E-18  8.23882168E-18  1.04227163E-18 -3.15256959E-19
 -4.00332740E-03  1.04370619E-20  8.73518525E-19  1.45573250E-18 -1.75227875E-19
 -4.45069361E-04 -6.21466881E-22 -2.17202422E-19 -4.03772934E-19 -8.23739415E-20
 -1.11754544E-04 -2.73678298E-20 -2.28904476E-18 -3.32968006E-18 -1.91684681E-18
 -4.45346759E-04 -3.34104560E-18 -1.45073450E-17 -1.46208028E-18 -1.22235712E-18
 -4.00344641E-03  1.25169011E-17  2.16995906E-19 -3.92828698E-19 -1.58106604E-17
  0.00000000E+00 -1.18021343E-21 -3.08305722E-21 -6.29056563E-22 -4.38328898E-07
  0.00000000E+00  0.00000000E+00  0.00000000E+00  0.00000000E+00  0.00000000E+00
 -8.62974173E-22  0.00000000E+00  3.89144161E-22  0.00000000E+00  0.00000000E+00
  0.00000000E+00  0.00000000E+00  1.47772808E+00  0.00000000E+00 -1.77012919E-03
 -2.88919301E-03  7.62096324E-04 -1.79340102E-18  0.00000000E+00 -1.35503201E-05
 -3.85224158E-05  1.93385202E-05 -4.18595518E-20  0.00000000E+00 -2.27368963E-09
 -9.94536184E-09  2.96219307E-09 -6.83604725E-24  0.00000000E+00  0.00000000E+00
  0.00000000E+00  0.00000000E+00  0.00000000E+00  0.00000000E+00 -5.06575030E-07
 -1.87886292E-06 -4.25073385E-07  6.34256286E-22  0.00000000E+00 -4.45373460E-04
 -9.80684042E-04 -2.32235002E-04  3.51325042E-19 -1.43427284E-05  0.00000000E+00
 -1.59048531E-07 -1.20924694E-03  0.00000000E+00  0.00000000E+00  0.00000000E+00
  0.00000000E+00  0.00000000E+00  0.00000000E+00  0.00000000E+00  0.00000000E+00
  0.00000000E+00  0.00000000E+00  0.00000000E+00  0.00000000E+00  0.00000000E+00
 -1.03696043E-04 -8.25343488E-03 -6.48506318E-03  6.66108743E-03 -1.37069343E-17
  1.58911217E+01 -1.77012919E-03 -1.63423713E-02 -1.16769127E-02  3.08007537E-03
 -7.24817866E-18 -1.35503201E-05 -1.85775885E-03 -2.68955896E-03  1.35017727E-03
 -2.92255121E-18 -2.27368963E-09 -5.81233805E-05 -1.22169711E-04  3.63878437E-05
 -8.39746138E-20  0.00000000E+00 -2.49085878E-05 -5.77183989E-05  9.43608156E-07
 -7.89850353E-21 -5.06575030E-07 -3.76213104E-04 -6.97336901E-04 -1.57765292E-04
  2.35403183E-19 -4.45373460E-04 -9.53538616E-03 -1.08548009E-02 -2.57051670E-03
  3.88867691E-18 -9.80537615E-04 -4.17800791E-06 -7.96607070E-05 -1.20333193E-02
  0.00000000E+00  0.00000000E+00  0.00000000E+00  0.00000000E+00  0.00000000E+00
  0.00000000E+00  0.00000000E+00  0.00000000E+00  0.00000000E+00  0.00000000E+00
  0.00000000E+00  0.00000000E+00  0.00000000E+00 -8.25343488E-03  6.11697558E-02
  1.23228592E-01 -1.26573389E-01  2.60457942E-16 -8.58900137E-02  4.72249973E-01
  2.88919301E-03  1.16769127E-02 -3.87033595E-03 -3.75161763E-05  8.82848360E-20
  3.85224158E-05  2.68955896E-03  3.42800109E-03 -1.98706377E-03  4.30113567E-18
  9.94536184E-09  1.22169711E-04  2.38939016E-04 -7.60394886E-05  1.75481316E-19
  0.00000000E+00  5.77183989E-05  1.25756003E-04 -2.17114281E-06  1.81736233E-20
  1.87886292E-06  6.97336901E-04  1.19086889E-03  2.93279284E-04 -4.37604978E-19
  9.80684042E-04  1.08548009E-02  8.49239578E-03  2.66024103E-03 -4.02441185E-18
  1.13079682E-03  8.94289344E-06  1.40595204E-04  7.53934180E-03  0.00000000E+00
  0.00000000E+00  0.00000000E+00  0.00000000E+00  0.00000000E+00  0.00000000E+00
  0.00000000E+00  0.00000000E+00  0.00000000E+00  0.00000000E+00  0.00000000E+00
  0.00000000E+00  0.00000000E+00  6.48506318E-03 -1.23228592E-01 -1.22823892E-01
  2.24923322E-01 -4.62838721E-16  0.00000000E+00  0.00000000E+00  1.47772808E+00
 -7.62096324E-04 -3.08007537E-03 -3.75161763E-05 -4.00266818E-03 -2.32873154E-20
 -1.93385202E-05 -1.35017727E-03 -1.98706377E-03  4.67281282E-04 -2.15919997E-18
 -2.96219307E-09 -3.63878437E-05 -7.60394886E-05  6.28971222E-06 -5.22665285E-20
  0.00000000E+00 -9.43608156E-07 -2.17114281E-06 -7.01244841E-06 -2.97111137E-22
  4.25073385E-07  1.57765292E-04  2.93279284E-04 -3.91007325E-05 -9.90036191E-20
  2.32235002E-04  2.57051670E-03  2.66024103E-03 -2.11132429E-03 -9.53017743E-19
 -1.02513483E-03 -3.65684448E-06  6.13324101E-05  5.28277456E-03  0.00000000E+00
  0.00000000E+00  0.00000000E+00  0.00000000E+00  0.00000000E+00  0.00000000E+00
  0.00000000E+00  0.00000000E+00  0.00000000E+00  0.00000000E+00  0.00000000E+00
  0.00000000E+00  0.00000000E+00 -6.66108743E-03  1.26573389E-01  2.24923322E-01
 -1.34872760E-01  4.75401565E-16  0.00000000E+00  0.00000000E+00  0.00000000E+00
  1.47772808E+00  1.79340102E-18  7.24817866E-18  8.82848360E-20 -2.32873154E-20
 -4.01256400E-03  4.18595518E-20  2.92255121E-18  4.30113567E-18 -2.15919997E-18
 -5.30238530E-04  6.83604725E-24  8.39746138E-20  1.75481316E-19 -5.22665285E-20
 -1.63583975E-05  0.00000000E+00  7.89850353E-21  1.81736233E-20 -2.97111137E-22
 -7.04794330E-06 -6.34256286E-22 -2.35403183E-19 -4.37604978E-19 -9.90036191E-20
 -1.05452150E-04 -3.51325042E-19 -3.88867691E-18 -4.02441185E-18 -9.53017743E-19
 -2.74129384E-03  2.12340590E-18  8.08941705E-21 -1.05200650E-19 -9.54063518E-18
  0.00000000E+00  0.00000000E+00  0.00000000E+00  0.00000000E+00  0.00000000E+00
  0.00000000E+00  0.00000000E+00  0.00000000E+00  0.00000000E+00  0.00000000E+00
  0.00000000E+00  0.00000000E+00  0.00000000E+00  1.37069343E-17 -2.60457942E-16
 -4.62838721E-16  4.75401565E-16  9.61556614E-02  0.00000000E+00  0.00000000E+00
  0.00000000E+00  0.00000000E+00  1.47772808E+00 -2.14310794E-03 -1.50529255E-02
 -2.62074167E-03 -2.05527219E-03  3.74456780E-18 -1.03200554E-03 -1.10557063E-02
 -9.24273628E-03 -1.14965807E-03  1.27902302E-18 -1.25929563E-05 -9.11731637E-04
 -1.41366365E-03 -2.13825408E-04  2.69914074E-19 -2.98435808E-07 -1.13207226E-04
 -1.95045676E-04 -8.40639720E-05  1.43945453E-19 -1.02333615E-06 -2.25032217E-04
 -3.06996680E-04 -2.56563036E-04  4.69554316E-19 -1.25626340E-04 -3.33431411E-03
 -2.79897672E-03 -3.43803315E-03  6.43008621E-18 -1.09932119E-02 -1.99406863E-04
 -2.04358184E-05 -1.71419908E-03  0.00000000E+00 -5.79307719E-07 -1.37765953E-06
 -5.15147810E-07  8.62974173E-22  0.00000000E+00  0.00000000E+00  0.00000000E+00
  0.00000000E+00  0.00000000E+00 -1.28206650E-07  0.00000000E+00 -5.72277958E-07
 -1.08014555E-02  1.04184621E-01  5.78266795E-02  2.49498098E-01 -4.81869013E-16
 -2.39134083E-03 -1.48158827E-02 -1.63626552E-04  4.88238519E-04 -9.71988706E-19
  7.60031884E-01 -1.05265615E-04 -3.01497207E-03 -4.04809699E-03  4.87534666E-04
 -1.37798996E-18 -9.05020232E-07 -2.10145128E-04 -3.56695553E-04  1.17981962E-04
 -2.68140511E-19  0.00000000E+00 -3.75782958E-06 -8.56182889E-06  1.75351860E-06
 -4.32719488E-21  0.00000000E+00 -1.09609321E-06 -2.69893302E-06 -5.82664936E-08
 -1.69096910E-22 -1.33491668E-08 -1.98153730E-05 -4.08344922E-05 -9.05264752E-06
  1.34214489E-20 -1.49643371E-05 -1.00408931E-03 -1.52020326E-03 -3.46317126E-04
  5.17849678E-19 -1.92887487E-04 -3.22270529E-07 -4.54163024E-06 -2.34144484E-03
  0.00000000E+00  0.00000000E+00  0.00000000E+00  0.00000000E+00  0.00000000E+00
  0.00000000E+00  0.00000000E+00  0.00000000E+00  0.00000000E+00  0.00000000E+00
  0.00000000E+00  0.00000000E+00  0.00000000E+00 -2.39138399E-03 -1.48157805E-02
  4.84412885E-04 -1.76898101E-04  3.96754613E-19 -1.08015641E-02  1.04183521E-01
  2.50953085E-01  5.11341996E-02 -7.36828061E-17 -1.05829622E-02  7.60031884E-01
 -8.84737337E-04 -1.01578782E-02 -7.24707698E-03  5.67540431E-03 -1.18591880E-17
 -9.70610738E-06 -7.88289926E-04 -9.38753413E-04  8.31651209E-04 -1.72487744E-18
 -8.81226261E-08 -5.72580172E-05 -9.87698138E-05  5.46473219E-05 -1.17229921E-19
 -1.25138450E-07 -6.96678475E-05 -1.31869064E-04  3.09429164E-05 -7.43433908E-20
 -1.89132732E-05 -1.14478105E-03 -1.75279952E-03  4.83103454E-05 -2.78300721E-19
 -1.13083202E-03 -1.16141880E-02 -9.18577139E-03  1.35928898E-03 -3.62165070E-18
 -2.46243056E-04 -3.50941700E-06 -4.51992677E-04 -9.39181474E-03  0.00000000E+00
 -4.20483719E-07 -1.07395234E-06  1.41392199E-07 -3.89144161E-22  0.00000000E+00
  0.00000000E+00  0.00000000E+00  0.00000000E+00  0.00000000E+00 -5.72277958E-07
  0.00000000E+00  0.00000000E+00 -2.39134080E-03 -1.48158827E-02  1.63626418E-04
 -4.88238122E-04  9.71987916E-19 -1.08014558E-02  1.04184618E-01 -5.78266776E-02
 -2.49498093E-01  4.81869002E-16 -5.65014282E-03 -7.44381857E-03  7.60031884E-01
Nuclear Attraction Matrix                  R   N=        1830
 -4.83153191E+01 -7.83386164E+00 -1.98164389E+01  5.20418715E-02  5.92088618E-01
 -2.01189065E+01  1.87116200E-02  2.15243360E-01  9.71127726E-03 -1.99867798E+01
 -3.11357603E-17 -3.58848501E-16 -1.15042821E-16  1.53376209E-15 -1.92030324E+01
 -1.93563513E-05 -1.17954655E+00  1.29976970E+00 -1.46261502E+00  2.99668926E-15
 -4.74206633E+01 -1.21004701E+00 -7.09040167E+00  5.18859501E+00 -5.50377755E+00
  1.13076643E-14 -7.61166280E+00 -1.89150363E+01 -1.32967009E+00 -4.92288595E+00
  6.42038818E-01 -4.97431282E+00  1.01941824E-14  2.06447639E-02  2.39505635E-01
 -1.92508130E+01  1.50373525E+00  5.94370095E+00 -5.49058654E+00  1.99315771E+00
 -1.19102079E-14  1.09729756E-01  1.27666874E+00  7.31754003E-02 -1.89798768E+01
 -3.08024220E-15 -1.21401392E-14  1.12038384E-14 -1.18560645E-14 -3.80252772E+00
 -2.12429026E-16 -2.47161243E-15 -2.34642955E-16  1.18477517E-15 -1.83779824E+01
  0.00000000E+00 -5.61770889E-02  1.23941865E-01 -4.13076116E-02  9.37818599E-17
 -1.91137697E-05 -1.18460610E+00  1.92476796E+00  3.96186650E-01 -5.72949431E-16
 -4.75882020E+01 -5.73430631E-02 -1.18080267E+00  1.65423386E+00 -5.53887681E-01
  1.25670126E-15 -1.17897169E+00 -6.93992357E+00  7.26651274E+00  1.83501767E+00
 -2.82660685E-15 -7.65327310E+00 -1.90825540E+01 -1.26488570E-01 -1.66185870E+00
  2.07385184E+00 -8.59624957E-01  1.94517232E-15 -1.91700894E+00 -7.37765224E+00
  6.02784300E+00  2.38185761E+00 -3.63529288E-15 -5.10278117E-02 -5.92649033E-01
 -1.93531561E+01  4.22989023E-02  5.55580778E-01 -8.56572412E-01 -1.97235034E-01
 -5.72089269E-16 -3.87417516E-01 -1.15446795E+00  1.65649446E+00 -3.43966748E+00
 -3.84236444E-16  9.15309161E-02  1.06510731E+00 -1.36420549E-01 -1.92208467E+01
 -9.59875694E-17 -1.26081203E-15  1.93920258E-15 -5.72409400E-16 -4.43830831E-01
  5.56613699E-16  1.48402727E-15 -2.21672906E-15 -3.08165121E-16 -3.72497201E+00
 -1.84354829E-16 -2.14514110E-15  1.81222221E-16  1.32263459E-15 -1.85372201E+01
  0.00000000E+00 -1.29604248E-02  3.40392434E-02  6.94029118E-03 -1.00030388E-17
  0.00000000E+00 -5.74533924E-02  9.99933226E-02  8.86048337E-02 -1.62794302E-16
 -1.95932492E-05 -1.21173637E+00  6.35277786E-01  1.90703539E+00 -3.66288941E-15
 -4.83153191E+01 -1.29604248E-02 -5.03724509E-01  7.95692006E-01  1.62397628E-01
 -2.34147621E-16 -5.59950124E-02 -1.18408015E+00  1.31752711E+00  1.16425641E+00
 -2.13871630E-15 -1.18678617E+00 -7.14872586E+00  2.25615639E+00  7.43331762E+00
 -1.43004324E-14 -7.83386164E+00 -1.98164389E+01 -3.40392434E-02 -7.95692006E-01
  1.15771091E+00  2.77215383E-01 -4.02249342E-16 -9.75170968E-02 -1.30553090E+00
  1.10840934E+00  1.41242507E+00 -2.59931818E-15 -6.26134828E-01 -2.60322561E+00
 -2.95848673E+00  3.39103529E+00 -6.53996126E-15 -5.20418715E-02 -5.92088618E-01
 -2.01189065E+01 -6.94029118E-03 -1.62397628E-01  2.77215383E-01 -1.42364394E-01
 -3.70597462E-17 -8.62606815E-02 -1.16226895E+00  1.42383855E+00  7.72985063E-01
 -2.23252855E-15 -1.86645619E+00 -7.18328079E+00  2.96083134E+00  5.61552017E+00
 -1.81682947E-14 -1.87116200E-02 -2.15243360E-01  9.71127726E-03 -1.99867798E+01
  1.00030388E-17  2.34147621E-16 -4.02249342E-16 -3.70597462E-17 -1.76180225E-01
  1.58469627E-16  2.13608759E-15 -2.62163906E-15 -2.23372552E-15 -4.44941967E-01
  3.58448914E-15  1.37750470E-14 -5.69862851E-15 -1.81231778E-14 -3.83336441E+00
  3.11357603E-17  3.58848501E-16 -1.15042821E-16  1.53376209E-15 -1.92030324E+01
  0.00000000E+00 -5.59950124E-02  9.75170968E-02  8.62606815E-02 -1.58469627E-16
  0.00000000E+00 -1.26705914E-02  1.07543853E-02  3.22026342E-02 -6.18495599E-17
  0.00000000E+00 -5.60099174E-02 -2.60949379E-02  1.27581340E-01 -2.52242411E-16
 -1.93563513E-05 -1.17954655E+00 -1.29976970E+00  1.46261502E+00 -2.99668926E-15
 -4.74206633E+01 -5.74533924E-02 -1.18408015E+00  1.30553090E+00  1.16226895E+00
 -2.13608759E-15 -1.26705914E-02 -5.03251420E-01  2.56502508E-01  7.69375163E-01
 -1.47773607E-15 -5.62983748E-02 -1.19128563E+00 -3.39567219E-01  1.72953332E+00
 -3.41799101E-15 -1.21004701E+00 -7.09040167E+00 -5.18859501E+00  5.50377755E+00
 -1.13076643E-14 -7.61166280E+00 -1.89150363E+01 -9.99933226E-02 -1.31752711E+00
  1.10840934E+00  1.42383855E+00 -2.62163906E-15 -1.07543853E-02 -2.56502508E-01
 -5.96717978E-02  4.23754191E-01 -8.16556185E-16  2.61454255E-02  3.65330376E-01
 -3.79741933E-01 -5.83033055E-01  1.14724438E-15  1.32967009E+00  4.92288595E+00
  6.42038818E-01 -4.97431282E+00  1.01941824E-14 -2.06447639E-02 -2.39505635E-01
 -1.92508130E+01 -8.86048337E-02 -1.16425641E+00  1.41242507E+00  7.72985063E-01
 -2.23372552E-15 -3.22026342E-02 -7.69375163E-01  4.23754191E-01  1.07323200E+00
 -2.39794783E-15 -1.28254839E-01 -1.72684530E+00 -5.44163412E-01  2.27302313E+00
 -5.37606661E-15 -1.50373525E+00 -5.94370095E+00 -5.49058654E+00  1.99315771E+00
 -1.19102079E-14 -1.09729756E-01 -1.27666874E+00  7.31754003E-02 -1.89798768E+01
  1.62794302E-16  2.13871630E-15 -2.59931818E-15 -2.23252855E-15 -4.44941967E-01
  6.18495599E-17  1.47773607E-15 -8.16556185E-16 -2.39794783E-15 -1.75649795E-01
  2.53564841E-16  3.41543604E-15  1.07122856E-15 -5.38014300E-15 -4.46773687E-01
  3.08024220E-15  1.21401392E-14  1.12038384E-14 -1.18560645E-14 -3.80252772E+00
  2.12429026E-16  2.47161243E-15 -2.34642955E-16  1.18477517E-15 -1.83779824E+01
 -1.95932492E-05 -1.18678617E+00  6.26134828E-01  1.86645619E+00 -3.58448914E-15
  0.00000000E+00 -5.62983748E-02 -2.61454255E-02  1.28254839E-01 -2.53564841E-16
  0.00000000E+00 -1.27118060E-02 -2.25920821E-02  2.54976622E-02 -5.22340718E-17
  0.00000000E+00 -5.61770889E-02 -1.23941865E-01  4.13076116E-02 -9.37818599E-17
 -1.91137697E-05 -1.18460610E+00 -1.92476796E+00 -3.96186650E-01  5.72949431E-16
 -4.75882020E+01 -1.21173637E+00 -7.14872586E+00  2.60322561E+00  7.18328079E+00
 -1.37750470E-14 -5.60099174E-02 -1.19128563E+00 -3.65330376E-01  1.72684530E+00
 -3.41543604E-15 -1.27118060E-02 -5.03026928E-01 -5.37257396E-01  6.07216780E-01
 -1.24385370E-15 -5.73430631E-02 -1.18080267E+00 -1.65423386E+00  5.53887681E-01
 -1.25670126E-15 -1.17897169E+00 -6.93992357E+00 -7.26651274E+00 -1.83501767E+00
  2.82660685E-15 -7.65327310E+00 -1.90825540E+01 -6.35277786E-01 -2.25615639E+00
 -2.95848673E+00  2.96083134E+00 -5.69862851E-15  2.60949379E-02  3.39567219E-01
 -3.79741933E-01 -5.44163412E-01  1.07122856E-15  2.25920821E-02  5.37257396E-01
  4.19407433E-01 -7.01463472E-01  1.43422917E-15  1.26488570E-01  1.66185870E+00
  2.07385184E+00 -8.59624957E-01  1.94517232E-15  1.91700894E+00  7.37765224E+00
  6.02784300E+00  2.38185761E+00 -3.63529288E-15  5.10278117E-02  5.92649033E-01
 -1.93531561E+01 -1.90703539E+00 -7.43331762E+00  3.39103529E+00  5.61552017E+00
 -1.81231778E-14 -1.27581340E-01 -1.72953332E+00 -5.83033055E-01  2.27302313E+00
 -5.38014300E-15 -2.54976622E-02 -6.07216780E-01 -7.01463472E-01  5.94091418E-01
 -1.57890394E-15 -4.22989023E-02 -5.55580778E-01 -8.56572412E-01 -1.97235034E-01
 -5.72089269E-16  3.87417516E-01  1.15446795E+00  1.65649446E+00 -3.43966748E+00
 -3.84236444E-16 -9.15309161E-02 -1.06510731E+00 -1.36420549E-01 -1.92208467E+01
  3.66288941E-15  1.43004324E-14 -6.53996126E-15 -1.81682947E-14 -3.83336441E+00
  2.52242411E-16  3.41799101E-15  1.14724438E-15 -5.37606661E-15 -4.46773687E-01
  5.22340718E-17  1.24385370E-15  1.43422917E-15 -1.57890394E-15 -1.75643057E-01
  9.59875694E-17  1.26081203E-15  1.93920258E-15 -5.72409400E-16 -4.43830831E-01
 -5.56613699E-16 -1.48402727E-15 -2.21672906E-15 -3.08165121E-16 -3.72497201E+00
  1.84354829E-16  2.14514110E-15  1.81222221E-16  1.32263459E-15 -1.85372201E+01
 -1.67493811E-01 -1.67125326E+00  6.51882628E-01 -1.99663488E+00  3.97310450E-15
 -1.87374129E+00 -7.92467341E+00 -2.26879617E+00 -6.53115523E+00  1.25347837E-14
 -1.63582885E-01 -1.61794524E+00 -1.69973114E+00 -1.14032416E+00  2.05182990E-15
 -2.83111987E-03 -1.20989991E-01 -1.27734951E-01 -1.53588578E-01  2.86971062E-16
 -3.60621284E-04 -3.49644711E-02 -2.00203532E-02 -5.97972497E-02  1.14843497E-16
 -2.77645905E-03 -1.22988506E-01  8.37947026E-03 -2.03261814E-01  3.98389818E-16
 -1.40919632E+01 -2.82437987E-03 -1.20625684E-01  1.77602712E-01 -9.07763502E-02
  1.96153499E-16 -1.62761580E-01 -1.62409007E+00  2.02781182E+00 -3.83379978E-01
  9.62424542E-16 -1.88477277E+00 -8.07121123E+00  4.80591706E+00 -5.22271763E+00
  1.07178739E-14 -1.67719091E-01 -1.70293517E+00  2.01853966E-01 -2.13929017E+00
  4.20489371E-15 -2.76041400E-03 -1.23340489E-01  7.23660129E-02 -1.91289340E-01
  3.81686216E-16 -3.61711698E-04 -3.49540420E-02  4.18791797E-02 -4.71795733E-02
  9.66592261E-17 -7.24744961E-01 -1.45151666E+01 -2.83111987E-03 -1.20989991E-01
  1.27734951E-01  1.53588578E-01 -2.86971062E-16 -3.60621284E-04 -3.49644711E-02
  2.00203532E-02  5.97972497E-02 -1.14843497E-16 -2.77645905E-03 -1.22988506E-01
 -8.37947026E-03  2.03261814E-01 -3.98389818E-16 -1.67493811E-01 -1.67125326E+00
 -6.51882628E-01  1.99663488E+00 -3.97310450E-15 -1.87374129E+00 -7.92467341E+00
  2.26879617E+00  6.53115523E+00 -1.25347837E-14 -1.63582885E-01 -1.61794524E+00
  1.69973114E+00  1.14032416E+00 -2.05182990E-15 -2.08925698E-03 -1.41321574E-02
 -1.40919632E+01 -1.67719091E-01 -1.70293517E+00 -2.01853966E-01  2.13929017E+00
 -4.20489371E-15 -2.76041400E-03 -1.23340489E-01 -7.23660129E-02  1.91289340E-01
 -3.81686216E-16 -3.61711698E-04 -3.49540420E-02 -4.18791797E-02  4.71795733E-02
 -9.66592261E-17 -2.82437987E-03 -1.20625684E-01 -1.77602712E-01  9.07763502E-02
 -1.96153499E-16 -1.62761580E-01 -1.62409007E+00 -2.02781182E+00  3.83379978E-01
 -9.62424542E-16 -1.88477277E+00 -8.07121123E+00 -4.80591706E+00  5.22271763E+00
 -1.07178739E-14 -1.41321574E-02 -2.08728724E-03 -7.24744961E-01 -1.45151666E+01
  0.00000000E+00 -2.76791564E-06  1.12391925E-05  2.28963502E-06 -3.29905532E-21
  0.00000000E+00 -6.28795215E-05  1.99967471E-04  1.15102646E-04 -2.04130387E-19
  0.00000000E+00 -3.27398319E-02  6.14588161E-02  5.13818693E-02 -9.40400786E-17
 -1.21099923E-06 -7.82837117E-01  1.28815927E+00  2.61921658E-01 -3.77136072E-16
  0.00000000E+00 -3.25738490E-02  7.63090520E-02 -2.31521276E-02  5.32804862E-17
  0.00000000E+00 -6.25110413E-05  2.27783015E-04 -2.75470502E-05  7.77610557E-20
 -5.54269226E-06 -2.94649670E-02 -2.92762599E-02 -5.50124094E-06 -4.58360672E+01
 -3.02041200E-06 -5.66594116E-03  1.22576382E-02  2.49209318E-03 -3.58818680E-18
 -6.65309383E-05 -2.90140354E-02  4.94952506E-02  2.93453741E-02 -5.21988426E-17
 -3.45343311E-02 -8.31575311E-01  9.36605970E-01  8.46153504E-01 -1.55656363E-15
 -8.42202729E-01 -5.40057432E+00  5.88053952E+00  1.14663096E+00 -1.62570814E-15
 -3.42910729E-02 -8.13449933E-01  1.16276672E+00 -4.13641063E-01  9.30884692E-16
 -6.67111094E-05 -2.87300340E-02  5.64084541E-02 -7.68543730E-03  2.09458519E-17
 -2.86582781E-03 -4.94836747E-01 -4.69411567E-01 -2.82332729E-03 -7.21810871E+00
 -1.73316767E+01 -1.22570263E-05 -1.21810993E-02  2.49231302E-02  5.43697884E-03
 -7.85275308E-18 -2.11527576E-04 -5.07510579E-02  7.99129363E-02  5.24537844E-02
 -9.33239203E-17 -6.48895821E-02 -1.00689296E+00  9.00100770E-01  1.10864285E+00
 -2.04181584E-15 -1.38606080E+00 -6.14554659E+00  5.41039276E+00  1.63796809E+00
 -2.35042113E-15 -8.03611860E-02 -1.21312379E+00  1.56396052E+00 -6.62363201E-01
  1.49065866E-15 -2.42948217E-04 -5.72883182E-02  1.06421718E-01 -1.53320225E-02
  4.20135575E-17 -4.75439439E-03 -3.43172404E-01 -5.43652399E-01 -5.72884814E-03
 -5.86573164E-02 -7.06677945E-01 -1.76699887E+01 -2.50003012E-06 -2.49438258E-03
  5.47610053E-03 -6.83324433E-04 -1.19152199E-18 -1.21619337E-04 -2.82787093E-02
  4.94181023E-02  1.99918402E-02 -5.02708386E-17 -5.41305199E-02 -7.86095736E-01
  9.72133486E-01  5.47314620E-01 -1.56357741E-15 -2.83120229E-01 -1.32584300E+00
  1.77528801E+00 -2.44979241E+00 -3.46461318E-16  2.42026249E-02  3.07993013E-01
 -4.88275761E-01 -1.46469330E-01 -3.48130232E-16  2.91089402E-05  5.90825540E-03
 -1.16489787E-02 -7.45550523E-03 -2.83724476E-18 -3.63645816E-03 -6.28995678E-01
  4.08677828E-01  1.44193145E-03 -6.17412322E-02 -7.11930924E-01  1.40626512E-01
 -1.73336167E+01  3.60377292E-21  3.60069097E-18 -7.92926181E-18 -1.19562482E-18
 -1.58625198E-03  2.15662470E-19  4.99811080E-17 -8.73871578E-17 -4.99524762E-17
 -8.36353832E-03  9.90557089E-17  1.43173980E-15 -1.77484991E-15 -1.54926121E-15
 -3.04330472E-01  4.08326003E-16  1.94839378E-15 -2.61897222E-15 -3.60862529E-16
 -2.72215152E+00 -5.57598632E-17 -7.29554126E-16  1.15020279E-15 -3.66387379E-16
 -2.98296871E-01 -8.24060088E-20 -1.75625624E-17  3.48107753E-17 -3.22349821E-18
 -8.28160804E-03  6.61306675E-18  1.19411213E-15 -8.56249648E-16 -3.42073188E-18
  1.14593275E-16  1.31818321E-15 -3.60363067E-16  9.48423683E-16 -1.68561944E+01
  0.00000000E+00  0.00000000E+00  0.00000000E+00  0.00000000E+00  0.00000000E+00
  0.00000000E+00 -2.26939274E-06  9.21850810E-06  2.09229146E-06 -3.12503450E-21
  0.00000000E+00 -5.41191934E-03  1.49629193E-02  3.55636138E-03 -5.38582161E-18
  0.00000000E+00 -3.40351719E-02  7.97449224E-02 -2.10078793E-02  4.94473968E-17
  0.00000000E+00 -8.83118506E-05  2.84482327E-04 -1.42798145E-04  3.09099283E-19
  0.00000000E+00 -1.03678614E-08  4.82809902E-08 -1.43788154E-08  3.31834698E-23
 -9.29947689E-07 -4.02961009E-02 -1.42030974E-04  0.00000000E+00 -5.59316707E-05
 -1.24377615E+00  1.44009879E+00 -1.48199414E+00  3.04930502E-15 -4.40525522E+01
  0.00000000E+00 -2.32731999E-04  5.97067315E-04 -5.98151286E-06  7.43143055E-20
 -2.56792593E-06 -4.66935115E-03  9.82999988E-03  2.48222400E-03 -3.82348078E-18
 -6.05448697E-03 -2.78242839E-01  4.44085537E-01  1.22879655E-01 -1.93738073E-16
 -3.88132763E-02 -8.40011138E-01  1.21922925E+00 -3.00591493E-01  7.15719569E-16
 -9.86995583E-05 -3.34911939E-02  5.80219277E-02 -3.03132549E-02  6.53673842E-17
 -1.13954261E-08 -6.02910887E-04  1.41553548E-03 -4.33154064E-04  9.95554219E-19
 -8.90831271E-04 -5.61912838E-01 -1.85627067E-02 -3.82285444E-05 -1.31520983E+00
 -6.64785164E+00  4.55648773E+00 -5.06070512E+00  1.03748740E-14 -6.77515066E+00
 -1.55413311E+01  0.00000000E+00 -6.07018404E-04  1.49256426E-03 -1.78305875E-05
  1.98020872E-19 -1.04234477E-05 -1.03122982E-02  2.05129396E-02  5.52071648E-03
 -8.50596860E-18 -1.67452111E-02 -4.61553569E-01  6.80334246E-01  2.15081946E-01
 -3.39234644E-16 -9.09744496E-02 -1.24574535E+00  1.63355749E+00 -4.92061880E-01
  1.16596738E-15 -3.17974073E-04 -5.96574544E-02  9.51419869E-02 -5.57554468E-02
  1.20041041E-16 -5.30521839E-08 -1.44425788E-03  3.22352381E-03 -1.04134000E-03
  2.39169764E-18 -1.84323226E-03 -6.77965561E-01 -2.61071881E-02 -9.12415570E-05
 -1.52663136E+00 -5.16562182E+00  8.22216268E-01 -5.00806490E+00  1.02645354E-14
 -1.02089480E-01 -1.18093414E+00 -1.57435502E+01  0.00000000E+00  1.37642551E-05
 -3.75592561E-05 -7.13057149E-05  1.20629448E-20 -2.35068261E-06 -2.07322840E-03
  4.40669491E-03 -3.41701098E-04 -1.46937682E-18 -3.94801407E-03 -9.18188707E-02
  1.58068328E-01 -6.02316177E-02 -5.29207596E-17  2.39687860E-02  3.54687379E-01
 -5.60820302E-01 -1.90142923E-01 -2.90119534E-16  1.59278782E-04  2.89841182E-02
 -5.20113907E-02  1.68385532E-02 -5.74891708E-17  1.57957916E-08  4.18712785E-04
 -9.87931728E-04  1.25767923E-04 -6.68975554E-19 -7.22483383E-04 -4.23289167E-01
  2.22671669E-02  3.55948722E-05  1.56297557E+00  4.96848546E+00 -4.49643375E+00
  1.18505420E+00 -9.95423755E-15  4.52465222E-02  5.17119227E-01  2.21026196E-01
 -1.55869437E+01  0.00000000E+00 -9.05783095E-20  2.36603443E-19  1.41319580E-20
 -6.31233563E-05  3.50399363E-21  2.97304411E-18 -6.32732097E-18 -1.35254556E-18
 -1.32935840E-03  5.96484612E-18  1.31161801E-16 -2.27735383E-16 -4.69415458E-17
 -9.57684296E-02 -5.64156031E-17 -8.24293574E-16  1.30043549E-15 -2.82908602E-16
 -3.08417246E-01 -3.44842204E-19 -6.29395677E-17  1.12718939E-16 -5.78818228E-17
 -9.76860395E-03 -3.64549653E-23 -9.70324201E-19  2.28724921E-18 -6.74576663E-19
 -1.63325126E-04  1.21962589E-18  7.56709191E-16 -4.62849621E-17 -7.91802894E-20
 -3.21675215E-15 -1.02584057E-14  9.26395873E-15 -1.00078941E-14 -3.66378469E+00
 -9.91932957E-17 -1.13515810E-15 -4.93196049E-16  8.53381493E-16 -1.51624314E+01
 -2.16275321E-06 -1.63514033E-03  3.22493075E-03  1.37574834E-03 -2.35228668E-18
 -8.18374418E-06 -3.66413867E-03  5.74584024E-03  4.85283059E-03 -8.88790153E-18
 -2.08155284E-03 -9.73746669E-02  9.96358001E-02  1.28473810E-01 -2.40801965E-16
 -1.40099819E-01 -1.40931390E+00  1.42843898E+00  1.06661360E+00 -1.93612844E-15
 -3.48286955E-02 -5.16453825E-01  7.29023992E-01  4.71462937E-02 -1.57468802E-17
 -1.37611332E-04 -1.81905584E-02  3.31934663E-02  3.97568758E-03 -4.29398110E-18
 -2.75562010E-04 -4.63982758E-02 -7.29998666E-01 -3.26091441E-03 -1.78712222E+00
 -7.39188173E+00  1.24951752E+00  6.41143505E+00 -1.24075470E-14 -1.59406053E-01
 -1.53673155E+00 -7.60455830E-01  1.82082224E+00 -3.64066115E-15 -1.32696003E+01
  0.00000000E+00 -8.99172225E-06  2.39232444E-05  6.81906349E-07  1.17533567E-21
 -7.20403616E-08 -1.95002992E-04  4.39706361E-04  1.09838708E-04 -1.68693671E-19
 -1.66227537E-04 -1.79945108E-02  3.21138222E-02  8.52988285E-03 -1.33136654E-17
 -1.70056392E-03 -7.84044061E-02  1.30379175E-01 -1.48019321E-02  4.26208609E-17
 -7.06763905E-06 -2.98912565E-03  5.79246576E-03 -2.07323566E-03  4.66202019E-18
  0.00000000E+00 -3.38368288E-05  8.38049899E-05 -1.83606144E-05  4.46960395E-20
 -4.10565565E-05 -5.72718041E-02 -2.93855718E-03 -2.61285616E-06 -1.68496589E-01
 -1.49059812E+00  1.69444202E+00 -7.28853015E-01  1.60309077E-15 -1.67643653E+00
 -6.46865331E+00  5.47448689E+00  1.32189254E+00 -2.01104436E-15 -6.13825125E-01
 -1.14069886E+01 -8.36336672E-07 -9.20307469E-04  1.96959664E-03 -4.43378897E-04
  1.07365681E-18 -2.17991069E-04 -2.26147300E-02  4.06398647E-02  6.06042019E-04
  3.07682989E-18 -4.04186162E-02 -5.47951370E-01  7.56398523E-01 -7.91628363E-02
  2.34141716E-16 -2.82981822E-02 -4.60705922E-01  5.21203644E-01 -4.00601509E-01
  8.38100833E-16 -1.01865295E-04 -1.56984600E-02  2.16296372E-02 -1.96506481E-02
  4.06983642E-17 -5.60562365E-07 -7.50468080E-04  1.46221843E-03 -8.07687486E-04
  1.73291012E-18 -7.70429363E-03 -1.68138197E+00 -4.51711561E-03 -3.91862959E-05
 -1.69300713E-01 -1.60784450E+00  6.29576654E-01 -1.91760951E+00  3.81621842E-15
 -1.68401149E+00 -6.89390946E+00 -1.85970013E+00 -6.01968134E+00  1.15774179E-14
 -2.18415048E-01 -1.93238369E+00 -1.28573192E+01 -1.21099923E-06 -7.82837117E-01
 -1.28815927E+00 -2.61921658E-01  3.77136072E-16  0.00000000E+00 -3.25738490E-02
 -7.63090520E-02  2.31521276E-02 -5.32804862E-17  0.00000000E+00 -6.25110413E-05
 -2.27783015E-04  2.75470502E-05 -7.77610557E-20  0.00000000E+00 -2.76791564E-06
 -1.12391925E-05 -2.28963502E-06  3.29905532E-21  0.00000000E+00 -6.28795215E-05
 -1.99967471E-04 -1.15102646E-04  2.04130387E-19  0.00000000E+00 -3.27398319E-02
 -6.14588161E-02 -5.13818693E-02  9.40400786E-17 -2.92762599E-02 -5.50124094E-06
 -5.54269226E-06 -2.94649670E-02  0.00000000E+00  0.00000000E+00  0.00000000E+00
  0.00000000E+00  0.00000000E+00  0.00000000E+00  0.00000000E+00  0.00000000E+00
  0.00000000E+00  0.00000000E+00  0.00000000E+00  0.00000000E+00  0.00000000E+00
 -4.58360672E+01 -8.42202729E-01 -5.40057432E+00 -5.88053952E+00 -1.14663096E+00
  1.62570814E-15 -3.42910729E-02 -8.13449933E-01 -1.16276672E+00  4.13641063E-01
 -9.30884692E-16 -6.67111094E-05 -2.87300340E-02 -5.64084541E-02  7.68543730E-03
 -2.09458519E-17 -3.02041200E-06 -5.66594116E-03 -1.22576382E-02 -2.49209318E-03
  3.58818680E-18 -6.65309383E-05 -2.90140354E-02 -4.94952506E-02 -2.93453741E-02
  5.21988426E-17 -3.45343311E-02 -8.31575311E-01 -9.36605970E-01 -8.46153504E-01
  1.55656363E-15 -4.69411567E-01 -2.82332729E-03 -2.86582781E-03 -4.94836747E-01
  0.00000000E+00 -1.06652877E-05 -3.05983733E-05 -6.24318854E-06  9.00059876E-21
  0.00000000E+00  0.00000000E+00  0.00000000E+00  0.00000000E+00  0.00000000E+00
 -4.54410509E-06  0.00000000E+00 -3.16687954E-06 -7.21810871E+00 -1.73316767E+01
  1.38606080E+00  6.14554659E+00  5.41039276E+00  1.63796809E+00 -2.35042113E-15
  8.03611860E-02  1.21312379E+00  1.56396052E+00 -6.62363201E-01  1.49065866E-15
  2.42948217E-04  5.72883182E-02  1.06421718E-01 -1.53320225E-02  4.20135575E-17
  1.22570263E-05  1.21810993E-02  2.49231302E-02  5.43697884E-03 -7.85275308E-18
  2.11527576E-04  5.07510579E-02  7.99129363E-02  5.24537844E-02 -9.33239203E-17
  6.48895821E-02  1.00689296E+00  9.00100770E-01  1.10864285E+00 -2.04181584E-15
  5.43652399E-01  5.72884814E-03  4.75439439E-03  3.43172404E-01  0.00000000E+00
  3.05983733E-05  8.43352040E-05  1.79068517E-05 -2.58645222E-20  0.00000000E+00
  0.00000000E+00  0.00000000E+00  0.00000000E+00  0.00000000E+00  1.17216911E-05
  0.00000000E+00  8.76163392E-06  5.86573164E-02  7.06677945E-01 -1.76699887E+01
  2.83120229E-01  1.32584300E+00  1.77528801E+00 -2.44979241E+00 -3.46461318E-16
 -2.42026249E-02 -3.07993013E-01 -4.88275761E-01 -1.46469330E-01 -3.48130232E-16
 -2.91089402E-05 -5.90825540E-03 -1.16489787E-02 -7.45550523E-03 -2.83724476E-18
  2.50003012E-06  2.49438258E-03  5.47610053E-03 -6.83324433E-04 -1.19152199E-18
  1.21619337E-04  2.82787093E-02  4.94181023E-02  1.99918402E-02 -5.02708386E-17
  5.41305199E-02  7.86095736E-01  9.72133486E-01  5.47314620E-01 -1.56357741E-15
 -4.08677828E-01 -1.44193145E-03  3.63645816E-03  6.28995678E-01  0.00000000E+00
  6.24318854E-06  1.79068517E-05  2.56732681E-07 -4.41748786E-21  0.00000000E+00
  0.00000000E+00  0.00000000E+00  0.00000000E+00  0.00000000E+00  4.38711716E-06
  0.00000000E+00 -1.08277910E-06  6.17412322E-02  7.11930924E-01  1.40626512E-01
 -1.73336167E+01 -4.08326003E-16 -1.94839378E-15 -2.61897222E-15 -3.60862529E-16
 -2.72215152E+00  5.57598632E-17  7.29554126E-16  1.15020279E-15 -3.66387379E-16
 -2.98296871E-01  8.24060088E-20  1.75625624E-17  3.48107753E-17 -3.22349821E-18
 -8.28160804E-03 -3.60377292E-21 -3.60069097E-18 -7.92926181E-18 -1.19562482E-18
 -1.58625198E-03 -2.15662470E-19 -4.99811080E-17 -8.73871578E-17 -4.99524762E-17
 -8.36353832E-03 -9.90557089E-17 -1.43173980E-15 -1.77484991E-15 -1.54926121E-15
 -3.04330472E-01  8.56249648E-16  3.42073188E-18 -6.61306675E-18 -1.19411213E-15
  0.00000000E+00 -9.00059876E-21 -2.58645222E-20 -4.41748786E-21 -2.96235464E-06
  0.00000000E+00  0.00000000E+00  0.00000000E+00  0.00000000E+00  0.00000000E+00
 -7.35041634E-21  0.00000000E+00  3.03641059E-21 -1.14593275E-16 -1.31818321E-15
 -3.60363067E-16  9.48423683E-16 -1.68561944E+01  0.00000000E+00 -3.40351719E-02
 -7.97449224E-02  2.10078793E-02 -4.94473968E-17  0.00000000E+00 -8.83118506E-05
 -2.84482327E-04  1.42798145E-04 -3.09099283E-19  0.00000000E+00 -1.03678614E-08
 -4.82809902E-08  1.43788154E-08 -3.31834698E-23  0.00000000E+00  0.00000000E+00
  0.00000000E+00  0.00000000E+00  0.00000000E+00  0.00000000E+00 -2.26939274E-06
 -9.21850810E-06 -2.09229146E-06  3.12503450E-21  0.00000000E+00 -5.41191934E-03
 -1.49629193E-02 -3.55636138E-03  5.38582161E-18 -1.42030974E-04  0.00000000E+00
 -9.29947689E-07 -4.02961009E-02  0.00000000E+00  0.00000000E+00  0.00000000E+00
  0.00000000E+00  0.00000000E+00  0.00000000E+00  0.00000000E+00  0.00000000E+00
  0.00000000E+00  0.00000000E+00  0.00000000E+00  0.00000000E+00  0.00000000E+00
 -5.59316707E-05 -1.24377615E+00 -1.44009879E+00  1.48199414E+00 -3.04930502E-15
 -4.40525522E+01 -3.88132763E-02 -8.40011138E-01 -1.21922925E+00  3.00591493E-01
 -7.15719569E-16 -9.86995583E-05 -3.34911939E-02 -5.80219277E-02  3.03132549E-02
 -6.53673842E-17 -1.13954261E-08 -6.02910887E-04 -1.41553548E-03  4.33154064E-04
 -9.95554219E-19  0.00000000E+00 -2.32731999E-04 -5.97067315E-04  5.98151286E-06
 -7.43143055E-20 -2.56792593E-06 -4.66935115E-03 -9.82999988E-03 -2.48222400E-03
  3.82348078E-18 -6.05448697E-03 -2.78242839E-01 -4.44085537E-01 -1.22879655E-01
  1.93738073E-16 -1.85627067E-02 -3.82285444E-05 -8.90831271E-04 -5.61912838E-01
  0.00000000E+00  0.00000000E+00  0.00000000E+00  0.00000000E+00  0.00000000E+00
  0.00000000E+00  0.00000000E+00  0.00000000E+00  0.00000000E+00  0.00000000E+00
  0.00000000E+00  0.00000000E+00  0.00000000E+00 -1.31520983E+00 -6.64785164E+00
 -4.55648773E+00  5.06070512E+00 -1.03748740E-14 -6.77515066E+00 -1.55413311E+01
  9.09744496E-02  1.24574535E+00  1.63355749E+00 -4.92061880E-01  1.16596738E-15
  3.17974073E-04  5.96574544E-02  9.51419869E-02 -5.57554468E-02  1.20041041E-16
  5.30521839E-08  1.44425788E-03  3.22352381E-03 -1.04134000E-03  2.39169764E-18
  0.00000000E+00  6.07018404E-04  1.49256426E-03 -1.78305875E-05  1.98020872E-19
  1.04234477E-05  1.03122982E-02  2.05129396E-02  5.52071648E-03 -8.50596860E-18
  1.67452111E-02  4.61553569E-01  6.80334246E-01  2.15081946E-01 -3.39234644E-16
  2.61071881E-02  9.12415570E-05  1.84323226E-03  6.77965561E-01  0.00000000E+00
  0.00000000E+00  0.00000000E+00  0.00000000E+00  0.00000000E+00  0.00000000E+00
  0.00000000E+00  0.00000000E+00  0.00000000E+00  0.00000000E+00  0.00000000E+00
  0.00000000E+00  0.00000000E+00  1.52663136E+00  5.16562182E+00  8.22216268E-01
 -5.00806490E+00  1.02645354E-14  1.02089480E-01  1.18093414E+00 -1.57435502E+01
 -2.39687860E-02 -3.54687379E-01 -5.60820302E-01 -1.90142923E-01 -2.90119534E-16
 -1.59278782E-04 -2.89841182E-02 -5.20113907E-02  1.68385532E-02 -5.74891708E-17
 -1.57957916E-08 -4.18712785E-04 -9.87931728E-04  1.25767923E-04 -6.68975554E-19
  0.00000000E+00 -1.37642551E-05 -3.75592561E-05 -7.13057149E-05  1.20629448E-20
  2.35068261E-06  2.07322840E-03  4.40669491E-03 -3.41701098E-04 -1.46937682E-18
  3.94801407E-03  9.18188707E-02  1.58068328E-01 -6.02316177E-02 -5.29207596E-17
 -2.22671669E-02 -3.55948722E-05  7.22483383E-04  4.23289167E-01  0.00000000E+00
  0.00000000E+00  0.00000000E+00  0.00000000E+00  0.00000000E+00  0.00000000E+00
  0.00000000E+00  0.00000000E+00  0.00000000E+00  0.00000000E+00  0.00000000E+00
  0.00000000E+00  0.00000000E+00 -1.56297557E+00 -4.96848546E+00 -4.49643375E+00
  1.18505420E+00 -9.95423755E-15 -4.52465222E-02 -5.17119227E-01  2.21026196E-01
 -1.55869437E+01  5.64156031E-17  8.24293574E-16  1.30043549E-15 -2.82908602E-16
 -3.08417246E-01  3.44842204E-19  6.29395677E-17  1.12718939E-16 -5.78818228E-17
 -9.76860395E-03  3.64549653E-23  9.70324201E-19  2.28724921E-18 -6.74576663E-19
 -1.63325126E-04  0.00000000E+00  9.05783095E-20  2.36603443E-19  1.41319580E-20
 -6.31233563E-05 -3.50399363E-21 -2.97304411E-18 -6.32732097E-18 -1.35254556E-18
 -1.32935840E-03 -5.96484612E-18 -1.31161801E-16 -2.27735383E-16 -4.69415458E-17
 -9.57684296E-02  4.62849621E-17  7.91802894E-20 -1.21962589E-18 -7.56709191E-16
  0.00000000E+00  0.00000000E+00  0.00000000E+00  0.00000000E+00  0.00000000E+00
  0.00000000E+00  0.00000000E+00  0.00000000E+00  0.00000000E+00  0.00000000E+00
  0.00000000E+00  0.00000000E+00  0.00000000E+00  3.21675215E-15  1.02584057E-14
  9.26395873E-15 -1.00078941E-14 -3.66378469E+00  9.91932957E-17  1.13515810E-15
 -4.93196049E-16  8.53381493E-16 -1.51624314E+01 -1.40099819E-01 -1.40931390E+00
 -1.42843898E+00 -1.06661360E+00  1.93612844E-15 -3.48286955E-02 -5.16453825E-01
 -7.29023992E-01 -4.71462937E-02  1.57468802E-17 -1.37611332E-04 -1.81905584E-02
 -3.31934663E-02 -3.97568758E-03  4.29398110E-18 -2.16275321E-06 -1.63514033E-03
 -3.22493075E-03 -1.37574834E-03  2.35228668E-18 -8.18374418E-06 -3.66413867E-03
 -5.74584024E-03 -4.85283059E-03  8.88790153E-18 -2.08155284E-03 -9.73746669E-02
 -9.96358001E-02 -1.28473810E-01  2.40801965E-16 -7.29998666E-01 -3.26091441E-03
 -2.75562010E-04 -4.63982758E-02  0.00000000E+00 -4.54410509E-06 -1.17216911E-05
 -4.38711716E-06  7.35041634E-21  0.00000000E+00  0.00000000E+00  0.00000000E+00
  0.00000000E+00  0.00000000E+00 -1.04626974E-06  0.00000000E+00 -4.76084059E-06
 -1.78712222E+00 -7.39188173E+00 -1.24951752E+00 -6.41143505E+00  1.24075470E-14
 -1.59406053E-01 -1.53673155E+00  7.60455830E-01 -1.82082224E+00  3.64066115E-15
 -1.32696003E+01 -1.70056392E-03 -7.84044061E-02 -1.30379175E-01  1.48019321E-02
 -4.26208609E-17 -7.06763905E-06 -2.98912565E-03 -5.79246576E-03  2.07323566E-03
 -4.66202019E-18  0.00000000E+00 -3.38368288E-05 -8.38049899E-05  1.83606144E-05
 -4.46960395E-20  0.00000000E+00 -8.99172225E-06 -2.39232444E-05 -6.81906349E-07
 -1.17533567E-21 -7.20403616E-08 -1.95002992E-04 -4.39706361E-04 -1.09838708E-04
  1.68693671E-19 -1.66227537E-04 -1.79945108E-02 -3.21138222E-02 -8.52988285E-03
  1.33136654E-17 -2.93855718E-03 -2.61285616E-06 -4.10565565E-05 -5.72718041E-02
  0.00000000E+00  0.00000000E+00  0.00000000E+00  0.00000000E+00  0.00000000E+00
  0.00000000E+00  0.00000000E+00  0.00000000E+00  0.00000000E+00  0.00000000E+00
  0.00000000E+00  0.00000000E+00  0.00000000E+00 -1.68496589E-01 -1.49059812E+00
 -1.69444202E+00  7.28853015E-01 -1.60309077E-15 -1.67643653E+00 -6.46865331E+00
 -5.47448689E+00 -1.32189254E+00  2.01104436E-15 -6.13825125E-01 -1.14069886E+01
 -2.82981822E-02 -4.60705922E-01 -5.21203644E-01  4.00601509E-01 -8.38100833E-16
 -1.01865295E-04 -1.56984600E-02 -2.16296372E-02  1.96506481E-02 -4.06983642E-17
 -5.60562365E-07 -7.50468080E-04 -1.46221843E-03  8.07687486E-04 -1.73291012E-18
 -8.36336672E-07 -9.20307469E-04 -1.96959664E-03  4.43378897E-04 -1.07365681E-18
 -2.17991069E-04 -2.26147300E-02 -4.06398647E-02 -6.06042019E-04 -3.07682989E-18
 -4.04186162E-02 -5.47951370E-01 -7.56398523E-01  7.91628363E-02 -2.34141716E-16
 -4.51711561E-03 -3.91862959E-05 -7.70429363E-03 -1.68138197E+00  0.00000000E+00
 -3.16687954E-06 -8.76163392E-06  1.08277910E-06 -3.03641059E-21  0.00000000E+00
  0.00000000E+00  0.00000000E+00  0.00000000E+00  0.00000000E+00 -4.76084059E-06
  0.00000000E+00  0.00000000E+00 -1.69300713E-01 -1.60784450E+00 -6.29576654E-01
  1.91760951E+00 -3.81621842E-15 -1.68401149E+00 -6.89390946E+00  1.85970013E+00
  6.01968134E+00 -1.15774179E-14 -2.18415048E-01 -1.93238369E+00 -1.28573192E+01
Core Hamiltonian Matrix                    R   N=        1830
 -3.24241974E+01 -7.91975165E+00 -1.93441889E+01  5.20418715E-02  5.92088618E-01
 -1.86411784E+01  1.87116200E-02  2.15243360E-01  9.71127726E-03 -1.85090517E+01
 -3.11357603E-17 -3.58848501E-16 -1.15042821E-16  1.53376209E-15 -1.77253043E+01
 -5.47500325E-05 -1.18797766E+00  1.30748687E+00 -1.47132586E+00  3.01453403E-15
 -3.15295416E+01 -1.21847811E+00 -7.04434834E+00  5.08931173E+00 -5.39171042E+00
  1.10780869E-14 -7.69755281E+00 -1.84427863E+01 -1.33738726E+00 -4.82360267E+00
  5.47904308E-01 -4.78348311E+00  9.80325435E-15  2.06447639E-02  2.39505635E-01
 -1.77730849E+01  1.51244609E+00  5.83163382E+00 -5.29975684E+00  1.85268315E+00
 -1.14689433E-14  1.09729756E-01  1.27666874E+00  7.31754003E-02 -1.75021488E+01
 -3.09808698E-15 -1.19105618E-14  1.08129103E-14 -1.14147999E-14 -3.72760107E+00
 -2.12429026E-16 -2.47161243E-15 -2.34642955E-16  1.18477517E-15 -1.69002543E+01
  0.00000000E+00 -5.84691583E-02  1.27304824E-01 -4.24309518E-02  9.63314166E-17
 -5.47619445E-05 -1.19303722E+00  1.93616401E+00  3.98511407E-01 -5.76300722E-16
 -3.16970803E+01 -5.96351325E-02 -1.19833007E+00  1.66401206E+00 -5.57153926E-01
  1.26411440E-15 -1.18740282E+00 -6.89377915E+00  7.11965025E+00  1.80505820E+00
 -2.78341828E-15 -7.73916312E+00 -1.86103040E+01 -1.29851528E-01 -1.67163690E+00
  2.06372953E+00 -8.57539832E-01  1.94043988E-15 -1.92840499E+00 -7.23078975E+00
  5.73340235E+00  2.30648269E+00 -3.52663492E-15 -5.10278117E-02 -5.92649033E-01
 -1.78754280E+01  4.34222425E-02  5.58847024E-01 -8.54487288E-01 -2.01811582E-01
 -5.70508475E-16 -3.89742273E-01 -1.12450848E+00  1.58111954E+00 -3.37999355E+00
 -3.62070573E-16  9.15309161E-02  1.06510731E+00 -1.36420549E-01 -1.77431187E+01
 -9.85371260E-17 -1.26822517E-15  1.93447014E-15 -5.70828606E-16 -4.47710878E-01
  5.59964990E-16  1.44083871E-15 -2.10807109E-15 -2.85999250E-16 -3.64992184E+00
 -1.84354829E-16 -2.14514110E-15  1.81222221E-16  1.32263459E-15 -1.70594920E+01
  0.00000000E+00 -1.37467939E-02  3.56217681E-02  7.26305615E-03 -1.04682926E-17
  0.00000000E+00 -5.97473797E-02  1.02648887E-01  9.09569762E-02 -1.67115795E-16
 -5.51352392E-05 -1.22016749E+00  6.38963238E-01  1.91806981E+00 -3.68408247E-15
 -3.24241974E+01 -1.37467939E-02 -5.15862575E-01  8.08011745E-01  1.64910309E-01
 -2.37769558E-16 -5.82889997E-02 -1.20161092E+00  1.32523844E+00  1.17108666E+00
 -2.15126523E-15 -1.19521729E+00 -7.10261938E+00  2.20869511E+00  7.29121633E+00
 -1.40275080E-14 -7.91975165E+00 -1.93441889E+01 -3.56217681E-02 -8.08011745E-01
  1.16415123E+00  2.79220299E-01 -4.05139355E-16 -1.00172662E-01 -1.31324224E+00
  1.10062636E+00  1.40896722E+00 -2.59296521E-15 -6.29820280E-01 -2.55576432E+00
 -2.92209564E+00  3.27544227E+00 -6.31794950E-15 -5.20418715E-02 -5.92088618E-01
 -1.86411784E+01 -7.26305615E-03 -1.64910309E-01  2.79220299E-01 -1.45345315E-01
 -3.76491809E-17 -8.86128240E-02 -1.16909920E+00  1.42038069E+00  7.66043240E-01
 -2.22690147E-15 -1.87749061E+00 -7.04117950E+00  2.84523832E+00  5.34442800E+00
 -1.75035812E-14 -1.87116200E-02 -2.15243360E-01  9.71127726E-03 -1.85090517E+01
  1.04682926E-17  2.37769558E-16 -4.05139355E-16 -3.76491809E-17 -1.79570060E-01
  1.62791120E-16  2.14863652E-15 -2.61528609E-15 -2.22809844E-15 -4.48821027E-01
  3.60568220E-15  1.35021226E-14 -5.47661676E-15 -1.74584642E-14 -3.75836569E+00
  3.11357603E-17  3.58848501E-16 -1.15042821E-16  1.53376209E-15 -1.77253043E+01
  0.00000000E+00 -5.82889997E-02  1.00172662E-01  8.86128240E-02 -1.62791120E-16
  0.00000000E+00 -1.34576071E-02  1.12661209E-02  3.37356550E-02 -6.47939602E-17
  0.00000000E+00 -5.83021970E-02 -2.68041548E-02  1.31055507E-01 -2.59111080E-16
 -5.47500325E-05 -1.18797766E+00 -1.30748687E+00  1.47132586E+00 -3.01453403E-15
 -3.15295416E+01 -5.97473797E-02 -1.20161092E+00  1.31324224E+00  1.16909920E+00
 -2.14863652E-15 -1.34576071E-02 -5.15393559E-01  2.60484131E-01  7.81303023E-01
 -1.50064534E-15 -5.85906543E-02 -1.20881339E+00 -3.41629058E-01  1.73963343E+00
 -3.43795964E-15 -1.21847811E+00 -7.04434834E+00 -5.08931173E+00  5.39171042E+00
 -1.10780869E-14 -7.69755281E+00 -1.84427863E+01 -1.02648887E-01 -1.32523844E+00
  1.10062636E+00  1.42038069E+00 -2.61528609E-15 -1.12661209E-02 -2.60484131E-01
 -6.20364747E-02  4.26828052E-01 -8.22460004E-16  2.68546425E-02  3.67392215E-01
 -3.83899587E-01 -5.81672643E-01  1.14455475E-15  1.33738726E+00  4.82360267E+00
  5.47904308E-01 -4.78348311E+00  9.80325435E-15 -2.06447639E-02 -2.39505635E-01
 -1.77730849E+01 -9.09569762E-02 -1.17108666E+00  1.40896722E+00  7.66043240E-01
 -2.22809844E-15 -3.37356550E-02 -7.81303023E-01  4.26828052E-01  1.07904969E+00
 -2.41563407E-15 -1.31729007E-01 -1.73694542E+00 -5.42803000E-01  2.26247908E+00
 -5.36289120E-15 -1.51244609E+00 -5.83163382E+00 -5.29975684E+00  1.85268315E+00
 -1.14689433E-14 -1.09729756E-01 -1.27666874E+00  7.31754003E-02 -1.75021488E+01
  1.67115795E-16  2.15126523E-15 -2.59296521E-15 -2.22690147E-15 -4.48821027E-01
  6.47939602E-17  1.50064534E-15 -8.22460004E-16 -2.41563407E-15 -1.79040553E-01
  2.60433511E-16  3.43540467E-15  1.06853894E-15 -5.36696759E-15 -4.50653626E-01
  3.09808698E-15  1.19105618E-14  1.08129103E-14 -1.14147999E-14 -3.72760107E+00
  2.12429026E-16  2.47161243E-15 -2.34642955E-16  1.18477517E-15 -1.69002543E+01
 -5.51352392E-05 -1.19521729E+00  6.29820280E-01  1.87749061E+00 -3.60568220E-15
  0.00000000E+00 -5.85906543E-02 -2.68546425E-02  1.31729007E-01 -2.60433511E-16
  0.00000000E+00 -1.34979674E-02 -2.36627124E-02  2.67064632E-02 -5.47103564E-17
  0.00000000E+00 -5.84691583E-02 -1.27304824E-01  4.24309518E-02 -9.63314166E-17
 -5.47619445E-05 -1.19303722E+00 -1.93616401E+00 -3.98511407E-01  5.76300722E-16
 -3.16970803E+01 -1.22016749E+00 -7.10261938E+00  2.55576432E+00  7.04117950E+00
 -1.35021226E-14 -5.83021970E-02 -1.20881339E+00 -3.67392215E-01  1.73694542E+00
 -3.43540467E-15 -1.34979674E-02 -5.15163685E-01 -5.45593566E-01  6.16628777E-01
 -1.26313461E-15 -5.96351325E-02 -1.19833007E+00 -1.66401206E+00  5.57153926E-01
 -1.26411440E-15 -1.18740282E+00 -6.89377915E+00 -7.11965025E+00 -1.80505820E+00
  2.78341828E-15 -7.73916312E+00 -1.86103040E+01 -6.38963238E-01 -2.20869511E+00
 -2.92209564E+00  2.84523832E+00 -5.47661676E-15  2.68041548E-02  3.41629058E-01
 -3.83899587E-01 -5.42803000E-01  1.06853894E-15  2.36627124E-02  5.45593566E-01
  4.20519688E-01 -7.06546246E-01  1.44464146E-15  1.29851528E-01  1.67163690E+00
  2.06372953E+00 -8.57539832E-01  1.94043988E-15  1.92840499E+00  7.23078975E+00
  5.73340235E+00  2.30648269E+00 -3.52663492E-15  5.10278117E-02  5.92649033E-01
 -1.78754280E+01 -1.91806981E+00 -7.29121633E+00  3.27544227E+00  5.34442800E+00
 -1.74584642E-14 -1.31055507E-01 -1.73963343E+00 -5.81672643E-01  2.26247908E+00
 -5.36696759E-15 -2.67064632E-02 -6.16628777E-01 -7.06546246E-01  5.96440612E-01
 -1.59066000E-15 -4.34222425E-02 -5.58847024E-01 -8.54487288E-01 -2.01811582E-01
 -5.70508475E-16  3.89742273E-01  1.12450848E+00  1.58111954E+00 -3.37999355E+00
 -3.62070573E-16 -9.15309161E-02 -1.06510731E+00 -1.36420549E-01 -1.77431187E+01
  3.68408247E-15  1.40275080E-14 -6.31794950E-15 -1.75035812E-14 -3.75836569E+00
  2.59111080E-16  3.43795964E-15  1.14455475E-15 -5.36289120E-15 -4.50653626E-01
  5.47103564E-17  1.26313461E-15  1.44464146E-15 -1.59066000E-15 -1.79032595E-01
  9.85371260E-17  1.26822517E-15  1.93447014E-15 -5.70828606E-16 -4.47710878E-01
 -5.59964990E-16 -1.44083871E-15 -2.10807109E-15 -2.85999250E-16 -3.64992184E+00
  1.84354829E-16  2.14514110E-15  1.81222221E-16  1.32263459E-15 -1.70594920E+01
 -1.69799627E-01 -1.68622828E+00  6.52135345E-01 -1.99754971E+00  3.97492009E-15
 -1.88458653E+00 -7.82093570E+00 -2.18788166E+00 -6.28905509E+00  1.20698039E-14
 -1.65888903E-01 -1.63291999E+00 -1.70048030E+00 -1.14090147E+00  2.05288037E-15
 -2.98906684E-03 -1.24789599E-01 -1.30852295E-01 -1.57410804E-01  2.94119112E-16
 -3.89523959E-04 -3.64167450E-02 -2.07066574E-02 -6.18525162E-02  1.18790924E-16
 -2.93436234E-03 -1.26787514E-01  8.57410430E-03 -2.08189609E-01  4.08047323E-16
 -1.33319314E+01 -2.98214120E-03 -1.24422741E-01  1.81965847E-01 -9.30706782E-02
  2.01098002E-16 -1.65067490E-01 -1.63906497E+00  2.02872895E+00 -3.83618157E-01
  9.62986523E-16 -1.89561879E+00 -7.96748154E+00  4.63664163E+00 -5.03167393E+00
  1.03265049E-14 -1.70025234E-01 -1.71790974E+00  2.01979227E-01 -2.14022557E+00
  4.20673617E-15 -2.91825864E-03 -1.27138691E-01  7.41177678E-02 -1.95898469E-01
  3.90883820E-16 -3.90574076E-04 -3.64051780E-02  4.33149405E-02 -4.88004406E-02
  9.99796648E-17 -7.35438496E-01 -1.37551347E+01 -2.98906684E-03 -1.24789599E-01
  1.30852295E-01  1.57410804E-01 -2.94119112E-16 -3.89523959E-04 -3.64167450E-02
  2.07066574E-02  6.18525162E-02 -1.18790924E-16 -2.93436234E-03 -1.26787514E-01
 -8.57410430E-03  2.08189609E-01 -4.08047323E-16 -1.69799627E-01 -1.68622828E+00
 -6.52135345E-01  1.99754971E+00 -3.97492009E-15 -1.88458653E+00 -7.82093570E+00
  2.18788166E+00  6.28905509E+00 -1.20698039E-14 -1.65888903E-01 -1.63291999E+00
  1.70048030E+00  1.14090147E+00 -2.05288037E-15 -2.20691897E-03 -1.47280609E-02
 -1.33319314E+01 -1.70025234E-01 -1.71790974E+00 -2.01979227E-01  2.14022557E+00
 -4.20673617E-15 -2.91825864E-03 -1.27138691E-01 -7.41177678E-02  1.95898469E-01
 -3.90883820E-16 -3.90574076E-04 -3.64051780E-02 -4.33149405E-02  4.88004406E-02
 -9.99796648E-17 -2.98214120E-03 -1.24422741E-01 -1.81965847E-01  9.30706782E-02
 -2.01098002E-16 -1.65067490E-01 -1.63906497E+00 -2.02872895E+00  3.83618157E-01
 -9.62986523E-16 -1.89561879E+00 -7.96748154E+00 -4.63664163E+00  5.03167393E+00
 -1.03265049E-14 -1.47280609E-02 -2.20483147E-03 -7.35438496E-01 -1.37551347E+01
  0.00000000E+00 -3.33807450E-06  1.33522931E-05  2.72072985E-06 -3.92052220E-21
  0.00000000E+00 -7.23803115E-05  2.26773165E-04  1.30534282E-04 -2.31498217E-19
  0.00000000E+00 -3.43910603E-02  6.36423119E-02  5.32073584E-02 -9.73811242E-17
 -4.22074603E-06 -7.90837694E-01  1.29870948E+00  2.64075060E-01 -3.80240956E-16
  0.00000000E+00 -3.42242388E-02  7.90322462E-02 -2.39758149E-02  5.51769294E-17
  0.00000000E+00 -7.19997975E-05  2.58455171E-04 -3.12390861E-05  8.81981176E-20
 -6.30063627E-06 -3.04183830E-02 -3.02295604E-02 -6.25829188E-06 -2.99449455E+01
 -3.59057085E-06 -6.06455595E-03  1.29961660E-02  2.64276065E-03 -3.80538922E-18
 -7.60317283E-05 -3.05793862E-02  5.17372783E-02  3.06360758E-02 -5.44878873E-17
 -3.61855596E-02 -8.47566205E-01  9.46087052E-01  8.54080065E-01 -1.57107097E-15
 -8.50203306E-01 -5.37968563E+00  5.78131551E+00  1.12637836E+00 -1.59650690E-15
 -3.59414627E-02 -8.29438228E-01  1.17459724E+00 -4.17219453E-01  9.39123513E-16
 -7.61998656E-05 -3.02944270E-02  5.89755267E-02 -7.99443822E-03  2.18193704E-17
 -3.05620116E-03 -5.05423455E-01 -4.79997570E-01 -3.01357562E-03 -7.30399872E+00
 -1.68594268E+01 -1.43701269E-05 -1.29196271E-02  2.61842772E-02  5.71706525E-03
 -8.25652602E-18 -2.38333270E-04 -5.29930856E-02  8.27288779E-02  5.43312591E-02
 -9.66536003E-17 -6.70730779E-02 -1.01637404E+00  8.97052847E-01  1.10944171E+00
 -2.04327792E-15 -1.39661100E+00 -6.04632258E+00  5.19584192E+00  1.58543730E+00
 -2.27467953E-15 -8.30843801E-02 -1.22495431E+00  1.56145384E+00 -6.62815894E-01
  1.49170093E-15 -2.73620373E-04 -5.98553909E-02  1.10254716E-01 -1.58469775E-02
  4.34692900E-17 -5.02157358E-03 -3.47307247E-01 -5.50711269E-01 -6.05877707E-03
 -5.86573164E-02 -7.06677945E-01 -1.61922606E+01 -2.93112495E-06 -2.64505005E-03
  5.75618693E-03 -7.37938393E-04 -1.27389593E-18 -1.37050972E-04 -2.95694110E-02
  5.12955771E-02  2.06273275E-02 -5.21876854E-17 -5.59560090E-02 -7.94022297E-01
  9.72932341E-01  5.43979048E-01 -1.56479977E-15 -2.85273630E-01 -1.30559040E+00
  1.72275722E+00 -2.41770007E+00 -3.31001711E-16  2.50263122E-02  3.11571403E-01
 -4.88728453E-01 -1.50335731E-01 -3.48445489E-16  3.28009761E-05  6.21725633E-03
 -1.21639336E-02 -7.83858899E-03 -3.01247263E-18 -3.85165337E-03 -6.37301976E-01
  4.14699638E-01  1.53519669E-03 -6.17412322E-02 -7.11930924E-01  1.40626512E-01
 -1.58558886E+01  4.22523980E-21  3.81789339E-18 -8.33303474E-18 -1.27799876E-18
 -1.69800653E-03  2.43030300E-19  5.22701528E-17 -9.07168378E-17 -5.18693230E-17
 -8.80888508E-03  1.02396754E-16  1.44624715E-15 -1.77631199E-15 -1.55048357E-15
 -3.08333919E-01  4.11430887E-16  1.91919254E-15 -2.54323063E-15 -3.45402922E-16
 -2.67933713E+00 -5.76563063E-17 -7.37792948E-16  1.15124506E-15 -3.66702636E-16
 -3.02300199E-01 -9.28430707E-20 -1.84360809E-17  3.62665078E-17 -3.39872608E-18
 -8.72667740E-03  7.00589545E-18  1.20992279E-15 -8.68766549E-16 -3.63772779E-18
  1.14593275E-16  1.31818321E-15 -3.60363067E-16  9.48423683E-16 -1.53784664E+01
  0.00000000E+00  0.00000000E+00  0.00000000E+00  0.00000000E+00  0.00000000E+00
  0.00000000E+00 -2.77596777E-06  1.10973710E-05  2.51736485E-06 -3.75929079E-21
  0.00000000E+00 -5.85729280E-03  1.59436033E-02  3.78859638E-03 -5.73714665E-18
  0.00000000E+00 -3.58053011E-02  8.26341154E-02 -2.17699757E-02  5.12407978E-17
  0.00000000E+00 -1.01862171E-04  3.23004742E-04 -1.62136665E-04  3.50958835E-19
  0.00000000E+00 -1.26415511E-08  5.82263521E-08 -1.73410084E-08  4.00195170E-23
 -1.08899622E-06 -4.15053479E-02 -1.56373702E-04  0.00000000E+00 -1.59627713E-04
 -1.25202959E+00  1.44658385E+00 -1.48865523E+00  3.06301196E-15 -2.81614305E+01
  0.00000000E+00 -2.57640586E-04  6.54785714E-04 -6.92512102E-06  8.22128091E-20
 -3.07450096E-06 -5.04556425E-03  1.05273368E-02  2.63998929E-03 -4.05888397E-18
 -6.49986043E-03 -2.87778225E-01  4.54940338E-01  1.25450172E-01 -1.97626750E-16
 -4.05834055E-02 -8.56353510E-01  1.23090616E+00 -3.03671568E-01  7.22967748E-16
 -1.12249878E-04 -3.53489528E-02  6.07114866E-02 -3.16634322E-02  6.82899354E-17
 -1.36691158E-08 -6.61034267E-04  1.53770519E-03 -4.69541908E-04  1.07952883E-18
 -9.70491978E-04 -5.73946157E-01 -1.95432443E-02 -4.24065523E-05 -1.32346326E+00
 -6.58668188E+00  4.43325914E+00 -4.93413174E+00  1.01144160E-14 -6.86104067E+00
 -1.50690811E+01  0.00000000E+00 -6.64736803E-04  1.61832027E-03 -2.00017303E-05
  2.16194495E-19 -1.23023107E-05 -1.10096351E-02  2.17038085E-02  5.81399577E-03
 -8.94357358E-18 -1.77258951E-02 -4.72408370E-01  6.88826642E-01  2.17742187E-01
 -3.43259056E-16 -9.38636426E-02 -1.25742226E+00  1.62968716E+00 -4.92099397E-01
  1.16605567E-15 -3.56496489E-04 -6.23470134E-02  9.85699880E-02 -5.77425105E-02
  1.24342176E-16 -6.29975458E-08 -1.56642759E-03  3.46246283E-03 -1.11737949E-03
  2.56717895E-18 -1.98382746E-03 -6.85504903E-01 -2.72379849E-02 -1.00184450E-04
 -1.53311643E+00 -5.04239323E+00  6.99392376E-01 -4.78314158E+00  9.80169669E-15
 -1.02089480E-01 -1.18093414E+00 -1.42658221E+01  0.00000000E+00  1.47078633E-05
 -3.97303989E-05 -7.83181633E-05  1.17658336E-20 -2.77575600E-06 -2.23099370E-03
  4.69997420E-03 -3.80801830E-04 -1.56838044E-18 -4.18024907E-03 -9.43893874E-02
  1.60728569E-01 -6.23429420E-02 -5.38737773E-17  2.47308823E-02  3.57767454E-01
 -5.60857818E-01 -1.94145591E-01 -2.90142822E-16  1.78617302E-04  3.03342954E-02
 -5.39984545E-02  1.73058345E-02 -5.96483707E-17  1.87579847E-08  4.55100629E-04
 -1.06397122E-03  1.32057635E-04 -7.21242083E-19 -7.83815793E-04 -4.28571941E-01
  2.32923018E-02  3.92517167E-05  1.56963666E+00  4.84191208E+00 -4.27151042E+00
  1.05018144E+00 -9.47883599E-15  4.52465222E-02  5.17119227E-01  2.21026196E-01
 -1.41092156E+01  0.00000000E+00 -9.84768130E-20  2.54777066E-19  1.38348469E-20
 -7.01712996E-05  4.13824991E-21  3.20844730E-18 -6.76492595E-18 -1.45154918E-18
 -1.43481055E-03  6.31617116E-18  1.35050478E-16 -2.31759794E-16 -4.78945635E-17
 -9.85097234E-02 -5.82090041E-17 -8.31541752E-16  1.30052377E-15 -2.82931890E-16
 -3.12429810E-01 -3.86701756E-19 -6.58621189E-17  1.17020075E-16 -6.00410228E-17
 -1.02988425E-02 -4.32910125E-23 -1.05429881E-18  2.46273053E-18 -7.26843191E-19
 -1.79683524E-04  1.32482654E-18  7.66249826E-16 -4.84083680E-17 -8.72697065E-20
 -3.23045909E-15 -9.99794771E-15  8.80112001E-15 -9.53249250E-15 -3.56762902E+00
 -9.91932957E-17 -1.13515810E-15 -4.93196049E-16  8.53381493E-16 -1.36847033E+01
 -2.46118902E-06 -1.74834755E-03  3.41997643E-03  1.45981231E-03 -2.49623213E-18
 -9.20708033E-06 -3.88917089E-03  6.05283692E-03  5.10939362E-03 -9.35745585E-18
 -2.20717918E-03 -1.00708981E-01  1.02434777E-01  1.31911843E-01 -2.47232051E-16
 -1.42242927E-01 -1.42436683E+00  1.43105972E+00  1.06866887E+00 -1.93987301E-15
 -3.58607010E-02 -5.27509531E-01  7.38266728E-01  4.82959518E-02 -1.70259032E-17
 -1.50204288E-04 -1.91022901E-02  3.46071300E-02  4.18951299E-03 -4.56389517E-18
 -2.95997829E-04 -4.81124749E-02 -7.40991878E-01 -3.46032128E-03 -1.79792367E+00
 -7.28769711E+00  1.19169084E+00  6.16193695E+00 -1.19256780E-14 -1.61797394E-01
 -1.55154743E+00 -7.60292203E-01  1.82033400E+00 -3.63968916E-15 -1.25095684E+01
  0.00000000E+00 -1.00878155E-05  2.66221774E-05  7.40172843E-07  1.34443258E-21
 -8.53895283E-08 -2.14818365E-04  4.80540853E-04  1.18891355E-04 -1.82115120E-19
 -1.81191874E-04 -1.89986001E-02  3.36340254E-02  8.87619997E-03 -1.38315151E-17
 -1.80582954E-03 -8.14193782E-02  1.34427272E-01 -1.52894668E-02  4.39988508E-17
 -7.97265928E-06 -3.19927078E-03  6.14916132E-03 -2.19121762E-03  4.93016070E-18
  0.00000000E+00 -3.75946584E-05  9.23668188E-05 -2.01141330E-05  4.90232344E-20
 -4.55981867E-05 -5.96132490E-02 -3.13144467E-03 -2.93512669E-06 -1.70887973E-01
 -1.50541390E+00  1.69395760E+00 -7.28676116E-01  1.60269401E-15 -1.68723810E+00
 -6.36446979E+00  5.22353381E+00  1.27075834E+00 -1.93736155E-15 -6.24408087E-01
 -1.06469567E+01 -9.61475121E-07 -9.89975317E-04  2.10146571E-03 -4.74321814E-04
  1.14800021E-18 -2.36904342E-04 -2.37595110E-02  4.23926642E-02  5.57731674E-04
  3.35513061E-18 -4.15494483E-02 -5.59565558E-01  7.65584294E-01 -8.05221253E-02
  2.37763367E-16 -2.91829195E-02 -4.70863801E-01  5.28450721E-01 -4.06276913E-01
  8.49960021E-16 -1.11571403E-04 -1.64867500E-02  2.25683906E-02 -2.04822993E-02
  4.24232416E-17 -6.48684991E-07 -8.07726097E-04  1.56098824E-03 -8.62334808E-04
  1.85014004E-18 -8.15628630E-03 -1.69077379E+00 -4.76335867E-03 -4.26957129E-05
 -1.71692054E-01 -1.62266039E+00  6.29413028E-01 -1.91712127E+00  3.81524643E-15
 -1.69481295E+00 -6.78972485E+00 -1.80187346E+00 -5.77018325E+00  1.10955489E-14
 -2.24065190E-01 -1.93982751E+00 -1.20972873E+01 -4.22074603E-06 -7.90837694E-01
 -1.29870948E+00 -2.64075060E-01  3.80240956E-16  0.00000000E+00 -3.42242388E-02
 -7.90322462E-02  2.39758149E-02 -5.51769294E-17  0.00000000E+00 -7.19997975E-05
 -2.58455171E-04  3.12390861E-05 -8.81981176E-20  0.00000000E+00 -3.33807450E-06
 -1.33522931E-05 -2.72072985E-06  3.92052220E-21  0.00000000E+00 -7.23803115E-05
 -2.26773165E-04 -1.30534282E-04  2.31498217E-19  0.00000000E+00 -3.43910603E-02
 -6.36423119E-02 -5.32073584E-02  9.73811242E-17 -3.02295604E-02 -6.25829188E-06
 -6.30063627E-06 -3.04183830E-02  0.00000000E+00  0.00000000E+00  0.00000000E+00
  0.00000000E+00  0.00000000E+00  0.00000000E+00  0.00000000E+00  0.00000000E+00
  0.00000000E+00  0.00000000E+00  0.00000000E+00  0.00000000E+00  0.00000000E+00
 -2.99449455E+01 -8.50203306E-01 -5.37968563E+00 -5.78131551E+00 -1.12637836E+00
  1.59650690E-15 -3.59414627E-02 -8.29438228E-01 -1.17459724E+00  4.17219453E-01
 -9.39123513E-16 -7.61998656E-05 -3.02944270E-02 -5.89755267E-02  7.99443822E-03
 -2.18193704E-17 -3.59057085E-06 -6.06455595E-03 -1.29961660E-02 -2.64276065E-03
  3.80538922E-18 -7.60317283E-05 -3.05793862E-02 -5.17372783E-02 -3.06360758E-02
  5.44878873E-17 -3.61855596E-02 -8.47566205E-01 -9.46087052E-01 -8.54080065E-01
  1.57107097E-15 -4.79997570E-01 -3.01357562E-03 -3.05620116E-03 -5.05423455E-01
  0.00000000E+00 -1.21889059E-05 -3.46106187E-05 -7.06183352E-06  1.01808122E-20
  0.00000000E+00  0.00000000E+00  0.00000000E+00  0.00000000E+00  0.00000000E+00
 -5.12341280E-06  0.00000000E+00 -3.58736326E-06 -7.30399872E+00 -1.68594268E+01
  1.39661100E+00  6.04632258E+00  5.19584192E+00  1.58543730E+00 -2.27467953E-15
  8.30843801E-02  1.22495431E+00  1.56145384E+00 -6.62815894E-01  1.49170093E-15
  2.73620373E-04  5.98553909E-02  1.10254716E-01 -1.58469775E-02  4.34692900E-17
  1.43701269E-05  1.29196271E-02  2.61842772E-02  5.71706525E-03 -8.25652602E-18
  2.38333270E-04  5.29930856E-02  8.27288779E-02  5.43312591E-02 -9.66536003E-17
  6.70730779E-02  1.01637404E+00  8.97052847E-01  1.10944171E+00 -2.04327792E-15
  5.50711269E-01  6.05877707E-03  5.02157358E-03  3.47307247E-01  0.00000000E+00
  3.46106187E-05  9.43780151E-05  2.00453881E-05 -2.89475794E-20  0.00000000E+00
  0.00000000E+00  0.00000000E+00  0.00000000E+00  0.00000000E+00  1.30993506E-05
  0.00000000E+00  9.83558626E-06  5.86573164E-02  7.06677945E-01 -1.61922606E+01
  2.85273630E-01  1.30559040E+00  1.72275722E+00 -2.41770007E+00 -3.31001711E-16
 -2.50263122E-02 -3.11571403E-01 -4.88728453E-01 -1.50335731E-01 -3.48445489E-16
 -3.28009761E-05 -6.21725633E-03 -1.21639336E-02 -7.83858899E-03 -3.01247263E-18
  2.93112495E-06  2.64505005E-03  5.75618693E-03 -7.37938393E-04 -1.27389593E-18
  1.37050972E-04  2.95694110E-02  5.12955771E-02  2.06273275E-02 -5.21876854E-17
  5.59560090E-02  7.94022297E-01  9.72932341E-01  5.43979048E-01 -1.56479977E-15
 -4.14699638E-01 -1.53519669E-03  3.85165337E-03  6.37301976E-01  0.00000000E+00
  7.06183352E-06  2.00453881E-05  2.54743501E-07 -5.04654443E-21  0.00000000E+00
  0.00000000E+00  0.00000000E+00  0.00000000E+00  0.00000000E+00  4.90226497E-06
  0.00000000E+00 -1.22417130E-06  6.17412322E-02  7.11930924E-01  1.40626512E-01
 -1.58558886E+01 -4.11430887E-16 -1.91919254E-15 -2.54323063E-15 -3.45402922E-16
 -2.67933713E+00  5.76563063E-17  7.37792948E-16  1.15124506E-15 -3.66702636E-16
 -3.02300199E-01  9.28430707E-20  1.84360809E-17  3.62665078E-17 -3.39872608E-18
 -8.72667740E-03 -4.22523980E-21 -3.81789339E-18 -8.33303474E-18 -1.27799876E-18
 -1.69800653E-03 -2.43030300E-19 -5.22701528E-17 -9.07168378E-17 -5.18693230E-17
 -8.80888508E-03 -1.02396754E-16 -1.44624715E-15 -1.77631199E-15 -1.55048357E-15
 -3.08333919E-01  8.68766549E-16  3.63772779E-18 -7.00589545E-18 -1.20992279E-15
  0.00000000E+00 -1.01808122E-20 -2.89475794E-20 -5.04654443E-21 -3.40068354E-06
  0.00000000E+00  0.00000000E+00  0.00000000E+00  0.00000000E+00  0.00000000E+00
 -8.21339052E-21  0.00000000E+00  3.42555475E-21 -1.14593275E-16 -1.31818321E-15
 -3.60363067E-16  9.48423683E-16 -1.53784664E+01  0.00000000E+00 -3.58053011E-02
 -8.26341154E-02  2.17699757E-02 -5.12407978E-17  0.00000000E+00 -1.01862171E-04
 -3.23004742E-04  1.62136665E-04 -3.50958835E-19  0.00000000E+00 -1.26415511E-08
 -5.82263521E-08  1.73410084E-08 -4.00195170E-23  0.00000000E+00  0.00000000E+00
  0.00000000E+00  0.00000000E+00  0.00000000E+00  0.00000000E+00 -2.77596777E-06
 -1.10973710E-05 -2.51736485E-06  3.75929079E-21  0.00000000E+00 -5.85729280E-03
 -1.59436033E-02 -3.78859638E-03  5.73714665E-18 -1.56373702E-04  0.00000000E+00
 -1.08899622E-06 -4.15053479E-02  0.00000000E+00  0.00000000E+00  0.00000000E+00
  0.00000000E+00  0.00000000E+00  0.00000000E+00  0.00000000E+00  0.00000000E+00
  0.00000000E+00  0.00000000E+00  0.00000000E+00  0.00000000E+00  0.00000000E+00
 -1.59627713E-04 -1.25202959E+00 -1.44658385E+00  1.48865523E+00 -3.06301196E-15
 -2.81614305E+01 -4.05834055E-02 -8.56353510E-01 -1.23090616E+00  3.03671568E-01
 -7.22967748E-16 -1.12249878E-04 -3.53489528E-02 -6.07114866E-02  3.16634322E-02
 -6.82899354E-17 -1.36691158E-08 -6.61034267E-04 -1.53770519E-03  4.69541908E-04
 -1.07952883E-18  0.00000000E+00 -2.57640586E-04 -6.54785714E-04  6.92512102E-06
 -8.22128091E-20 -3.07450096E-06 -5.04556425E-03 -1.05273368E-02 -2.63998929E-03
  4.05888397E-18 -6.49986043E-03 -2.87778225E-01 -4.54940338E-01 -1.25450172E-01
  1.97626750E-16 -1.95432443E-02 -4.24065523E-05 -9.70491978E-04 -5.73946157E-01
  0.00000000E+00  0.00000000E+00  0.00000000E+00  0.00000000E+00  0.00000000E+00
  0.00000000E+00  0.00000000E+00  0.00000000E+00  0.00000000E+00  0.00000000E+00
  0.00000000E+00  0.00000000E+00  0.00000000E+00 -1.32346326E+00 -6.58668188E+00
 -4.43325914E+00  4.93413174E+00 -1.01144160E-14 -6.86104067E+00 -1.50690811E+01
  9.38636426E-02  1.25742226E+00  1.62968716E+00 -4.92099397E-01  1.16605567E-15
  3.56496489E-04  6.23470134E-02  9.85699880E-02 -5.77425105E-02  1.24342176E-16
  6.29975458E-08  1.56642759E-03  3.46246283E-03 -1.11737949E-03  2.56717895E-18
  0.00000000E+00  6.64736803E-04  1.61832027E-03 -2.00017303E-05  2.16194495E-19
  1.23023107E-05  1.10096351E-02  2.17038085E-02  5.81399577E-03 -8.94357358E-18
  1.77258951E-02  4.72408370E-01  6.88826642E-01  2.17742187E-01 -3.43259056E-16
  2.72379849E-02  1.00184450E-04  1.98382746E-03  6.85504903E-01  0.00000000E+00
  0.00000000E+00  0.00000000E+00  0.00000000E+00  0.00000000E+00  0.00000000E+00
  0.00000000E+00  0.00000000E+00  0.00000000E+00  0.00000000E+00  0.00000000E+00
  0.00000000E+00  0.00000000E+00  1.53311643E+00  5.04239323E+00  6.99392376E-01
 -4.78314158E+00  9.80169669E-15  1.02089480E-01  1.18093414E+00 -1.42658221E+01
 -2.47308823E-02 -3.57767454E-01 -5.60857818E-01 -1.94145591E-01 -2.90142822E-16
 -1.78617302E-04 -3.03342954E-02 -5.39984545E-02  1.73058345E-02 -5.96483707E-17
 -1.87579847E-08 -4.55100629E-04 -1.06397122E-03  1.32057635E-04 -7.21242083E-19
  0.00000000E+00 -1.47078633E-05 -3.97303989E-05 -7.83181633E-05  1.17658336E-20
  2.77575600E-06  2.23099370E-03  4.69997420E-03 -3.80801830E-04 -1.56838044E-18
  4.18024907E-03  9.43893874E-02  1.60728569E-01 -6.23429420E-02 -5.38737773E-17
 -2.32923018E-02 -3.92517167E-05  7.83815793E-04  4.28571941E-01  0.00000000E+00
  0.00000000E+00  0.00000000E+00  0.00000000E+00  0.00000000E+00  0.00000000E+00
  0.00000000E+00  0.00000000E+00  0.00000000E+00  0.00000000E+00  0.00000000E+00
  0.00000000E+00  0.00000000E+00 -1.56963666E+00 -4.84191208E+00 -4.27151042E+00
  1.05018144E+00 -9.47883599E-15 -4.52465222E-02 -5.17119227E-01  2.21026196E-01
 -1.41092156E+01  5.82090041E-17  8.31541752E-16  1.30052377E-15 -2.82931890E-16
 -3.12429810E-01  3.86701756E-19  6.58621189E-17  1.17020075E-16 -6.00410228E-17
 -1.02988425E-02  4.32910125E-23  1.05429881E-18  2.46273053E-18 -7.26843191E-19
 -1.79683524E-04  0.00000000E+00  9.84768130E-20  2.54777066E-19  1.38348469E-20
 -7.01712996E-05 -4.13824991E-21 -3.20844730E-18 -6.76492595E-18 -1.45154918E-18
 -1.43481055E-03 -6.31617116E-18 -1.35050478E-16 -2.31759794E-16 -4.78945635E-17
 -9.85097234E-02  4.84083680E-17  8.72697065E-20 -1.32482654E-18 -7.66249826E-16
  0.00000000E+00  0.00000000E+00  0.00000000E+00  0.00000000E+00  0.00000000E+00
  0.00000000E+00  0.00000000E+00  0.00000000E+00  0.00000000E+00  0.00000000E+00
  0.00000000E+00  0.00000000E+00  0.00000000E+00  3.23045909E-15  9.99794771E-15
  8.80112001E-15 -9.53249250E-15 -3.56762902E+00  9.91932957E-17  1.13515810E-15
 -4.93196049E-16  8.53381493E-16 -1.36847033E+01 -1.42242927E-01 -1.42436683E+00
 -1.43105972E+00 -1.06866887E+00  1.93987301E-15 -3.58607010E-02 -5.27509531E-01
 -7.38266728E-01 -4.82959518E-02  1.70259032E-17 -1.50204288E-04 -1.91022901E-02
 -3.46071300E-02 -4.18951299E-03  4.56389517E-18 -2.46118902E-06 -1.74834755E-03
 -3.41997643E-03 -1.45981231E-03  2.49623213E-18 -9.20708033E-06 -3.88917089E-03
 -6.05283692E-03 -5.10939362E-03  9.35745585E-18 -2.20717918E-03 -1.00708981E-01
 -1.02434777E-01 -1.31911843E-01  2.47232051E-16 -7.40991878E-01 -3.46032128E-03
 -2.95997829E-04 -4.81124749E-02  0.00000000E+00 -5.12341280E-06 -1.30993506E-05
 -4.90226497E-06  8.21339052E-21  0.00000000E+00  0.00000000E+00  0.00000000E+00
  0.00000000E+00  0.00000000E+00 -1.17447639E-06  0.00000000E+00 -5.33311854E-06
 -1.79792367E+00 -7.28769711E+00 -1.19169084E+00 -6.16193695E+00  1.19256780E-14
 -1.61797394E-01 -1.55154743E+00  7.60292203E-01 -1.82033400E+00  3.63968916E-15
 -1.25095684E+01 -1.80582954E-03 -8.14193782E-02 -1.34427272E-01  1.52894668E-02
 -4.39988508E-17 -7.97265928E-06 -3.19927078E-03 -6.14916132E-03  2.19121762E-03
 -4.93016070E-18  0.00000000E+00 -3.75946584E-05 -9.23668188E-05  2.01141330E-05
 -4.90232344E-20  0.00000000E+00 -1.00878155E-05 -2.66221774E-05 -7.40172843E-07
 -1.34443258E-21 -8.53895283E-08 -2.14818365E-04 -4.80540853E-04 -1.18891355E-04
  1.82115120E-19 -1.81191874E-04 -1.89986001E-02 -3.36340254E-02 -8.87619997E-03
  1.38315151E-17 -3.13144467E-03 -2.93512669E-06 -4.55981867E-05 -5.96132490E-02
  0.00000000E+00  0.00000000E+00  0.00000000E+00  0.00000000E+00  0.00000000E+00
  0.00000000E+00  0.00000000E+00  0.00000000E+00  0.00000000E+00  0.00000000E+00
  0.00000000E+00  0.00000000E+00  0.00000000E+00 -1.70887973E-01 -1.50541390E+00
 -1.69395760E+00  7.28676116E-01 -1.60269401E-15 -1.68723810E+00 -6.36446979E+00
 -5.22353381E+00 -1.27075834E+00  1.93736155E-15 -6.24408087E-01 -1.06469567E+01
 -2.91829195E-02 -4.70863801E-01 -5.28450721E-01  4.06276913E-01 -8.49960021E-16
 -1.11571403E-04 -1.64867500E-02 -2.25683906E-02  2.04822993E-02 -4.24232416E-17
 -6.48684991E-07 -8.07726097E-04 -1.56098824E-03  8.62334808E-04 -1.85014004E-18
 -9.61475121E-07 -9.89975317E-04 -2.10146571E-03  4.74321814E-04 -1.14800021E-18
 -2.36904342E-04 -2.37595110E-02 -4.23926642E-02 -5.57731674E-04 -3.35513061E-18
 -4.15494483E-02 -5.59565558E-01 -7.65584294E-01  8.05221253E-02 -2.37763367E-16
 -4.76335867E-03 -4.26957129E-05 -8.15628630E-03 -1.69077379E+00  0.00000000E+00
 -3.58736326E-06 -9.83558626E-06  1.22417130E-06 -3.42555475E-21  0.00000000E+00
  0.00000000E+00  0.00000000E+00  0.00000000E+00  0.00000000E+00 -5.33311854E-06
  0.00000000E+00  0.00000000E+00 -1.71692054E-01 -1.62266039E+00 -6.29413028E-01
  1.91712127E+00 -3.81524643E-15 -1.69481295E+00 -6.78972485E+00  1.80187346E+00
  5.77018325E+00 -1.10955489E-14 -2.24065190E-01 -1.93982751E+00 -1.20972873E+01
Multipole Matrix (1,0,0)                   R   N=        1830
  2.58290277E+00  6.41495906E-01  2.58290277E+00  7.18554879E-02  8.38743577E-01
  2.58290277E+00  0.00000000E+00  0.00000000E+00  0.00000000E+00  2.58290277E+00
  0.00000000E+00  0.00000000E+00  0.00000000E+00  0.00000000E+00  2.58290277E+00
  1.58656742E-06  3.50872644E-02 -3.71090837E-02  4.47825422E-02 -9.17401888E-17
  8.34595104E-01  9.46010014E-02  6.27232808E-01 -1.92166282E-01  5.21471936E-01
 -1.06827195E-15  2.07282035E-01  8.34595104E-01  1.05468915E-01  6.90854566E-01
 -4.07874774E-02  6.72585448E-01 -1.37783861E-15  7.18554879E-02  8.38743577E-01
  8.34595104E-01 -1.16154001E-01 -4.75247920E-01  2.48490746E-01 -1.52622059E-01
  1.06492396E-15  0.00000000E+00  0.00000000E+00  0.00000000E+00  8.34595104E-01
  2.37949643E-16  9.73578804E-16 -5.09050778E-16  1.06492396E-15  3.67215572E-01
  0.00000000E+00  0.00000000E+00  0.00000000E+00  0.00000000E+00  8.34595104E-01
  0.00000000E+00 -2.85125773E-03  6.33232273E-03 -2.08135908E-03  4.72389660E-18
 -4.27329792E-07 -6.13470994E-02  9.98176832E-02  1.98385127E-02 -2.85985355E-17
 -1.74784262E+00  4.38991924E-03  2.55845094E-02 -4.75242710E-03  1.50903675E-02
 -3.42494172E-17  2.66536745E-02 -1.67716281E-01  3.99685289E-01  2.64554594E-02
 -3.81373043E-17 -4.34098371E-01 -1.74784262E+00  9.69228676E-03  6.66448194E-02
 -4.42840727E-02  3.69326577E-02 -8.38231411E-17  4.34607042E-02  5.08799536E-02
  1.39911272E-01 -8.07651988E-03  1.16428406E-17  7.18554879E-02  8.38743577E-01
 -1.74784262E+00 -3.20369909E-03 -8.75869313E-03 -1.89919193E-04  4.57788726E-03
  1.39278702E-17  8.34187262E-03 -4.46996925E-02  1.05228255E-01 -8.83002104E-02
 -1.42849419E-17  0.00000000E+00  0.00000000E+00  0.00000000E+00 -1.74784262E+00
  7.27118321E-18  1.98789152E-17  4.31044618E-19  1.39278702E-17  1.07145371E-02
 -1.20253642E-17  6.44375796E-17 -1.51693528E-16 -1.42849419E-17 -9.82095291E-02
  0.00000000E+00  0.00000000E+00  0.00000000E+00  0.00000000E+00 -1.74784262E+00
  0.00000000E+00 -9.88857714E-04  2.59640750E-03  5.24759722E-04 -7.56421793E-19
  0.00000000E+00 -4.47340542E-03  7.81302411E-03  6.83045071E-03 -1.25493020E-17
 -2.01981449E-06 -9.64455135E-02  5.29698219E-02  1.50908274E-01 -2.89839390E-16
 -2.58290277E+00  9.88857714E-04  0.00000000E+00  1.29168224E-02 -8.05640677E-04
  1.16130133E-18  1.24796945E-03 -5.36035304E-02  9.35716652E-02  4.70480353E-02
 -8.64393912E-17 -6.80019513E-02 -7.95130716E-01  5.32601897E-01  7.86467854E-01
 -1.51051600E-15 -6.41495906E-01 -2.58290277E+00  2.59640750E-03  1.29168224E-02
  1.73472348E-18 -5.36680554E-03  7.73605234E-18  2.25491362E-03 -2.44788076E-02
  4.93156320E-02  2.46954703E-02 -4.53719566E-17 -3.33993338E-02 -2.10029019E-03
 -3.47542352E-01  8.45891186E-02 -1.62464640E-16  7.18554879E-02  8.38743577E-01
 -2.58290277E+00  5.24759722E-04 -8.05640677E-04  5.36680554E-03  2.16840434E-19
 -3.85185989E-34  1.90740457E-03 -5.75141042E-02  1.02436858E-01  3.38526993E-02
 -1.03443437E-16 -1.07685001E-01 -8.14455400E-01  6.22146390E-01  5.92433699E-01
 -2.03202863E-15  0.00000000E+00  0.00000000E+00  0.00000000E+00 -2.58290277E+00
 -7.56421793E-19  1.16130133E-18 -7.73605234E-18  5.77778983E-34  0.00000000E+00
 -3.50439479E-18  1.05668263E-16 -1.88202963E-16 -1.03443437E-16 -2.24504562E-02
  2.06823351E-16  1.56426980E-15 -1.19491480E-15 -2.03202863E-15 -4.65565818E-01
  0.00000000E+00  0.00000000E+00  0.00000000E+00  0.00000000E+00 -2.58290277E+00
  0.00000000E+00 -1.24796945E-03  2.25491362E-03  1.90740457E-03 -3.50439479E-18
  0.00000000E+00 -3.19862524E-04  2.92441775E-04  8.05609511E-04 -1.54729593E-18
  0.00000000E+00 -1.61589783E-03 -6.42545799E-04  3.64401864E-03 -7.20447647E-18
 -1.58656742E-06 -3.50872644E-02 -3.71090837E-02  4.47825422E-02 -9.17401888E-17
 -8.34595104E-01  4.47340542E-03  5.36035304E-02 -2.44788076E-02 -5.75141042E-02
  1.05668263E-16  3.19862524E-04  2.80443751E-18  1.64645639E-02 -1.23659119E-03
  2.37506198E-18 -3.14309400E-03 -7.91268459E-02  1.67233206E-02  1.16115596E-01
 -2.29568552E-16 -9.46010014E-02 -6.27232808E-01 -1.92166282E-01  5.21471936E-01
 -1.06827195E-15 -2.07282035E-01 -8.34595104E-01  7.81302411E-03  9.35716652E-02
 -4.93156320E-02 -1.02436858E-01  1.88202963E-16  2.92441775E-04  1.64645639E-02
  1.59867358E-18 -2.54878022E-02  4.89532115E-17  1.54890903E-03  6.32880136E-02
 -2.55737384E-02 -9.44590472E-02  1.86752059E-16  1.05468915E-01  6.90854566E-01
  4.07874774E-02 -6.72585448E-01  1.37783861E-15  7.18554879E-02  8.38743577E-01
 -8.34595104E-01  6.83045071E-03  4.70480353E-02 -2.46954703E-02 -3.38526993E-02
  1.03443437E-16  8.05609511E-04 -1.23659119E-03  2.54878022E-02 -5.27666773E-18
  1.75397403E-32 -7.09103458E-03 -1.11986051E-01  2.03521846E-02  1.48371984E-01
 -3.58857434E-16 -1.16154001E-01 -4.75247920E-01 -2.48490746E-01  1.52622059E-01
 -1.06492396E-15  0.00000000E+00  0.00000000E+00  0.00000000E+00 -8.34595104E-01
 -1.25493020E-17 -8.64393912E-17  4.53719566E-17  1.03443437E-16  2.24504562E-02
 -1.54729593E-18  2.37506198E-18 -4.89532115E-17  1.44582524E-32  1.10230514E-18
  1.40194650E-17  2.21404156E-16 -4.02376743E-17 -3.58857434E-16 -3.31378296E-02
  2.37949643E-16  9.73578804E-16  5.09050778E-16 -1.06492396E-15 -3.67215572E-01
  0.00000000E+00  0.00000000E+00  0.00000000E+00  0.00000000E+00 -8.34595104E-01
  2.01981449E-06  6.80019513E-02 -3.33993338E-02 -1.07685001E-01  2.06823351E-16
  0.00000000E+00  3.14309400E-03  1.54890903E-03 -7.09103458E-03  1.40194650E-17
  0.00000000E+00  6.68928473E-04  1.20127088E-03 -1.32978029E-03  2.72411633E-18
  0.00000000E+00  2.85125773E-03  6.33232273E-03 -2.08135908E-03  4.72389660E-18
  4.27329792E-07  6.13470994E-02  9.98176832E-02  1.98385127E-02 -2.85985355E-17
  1.74784262E+00  9.64455135E-02  7.95130716E-01 -2.10029019E-03 -8.14455400E-01
  1.56426980E-15  1.61589783E-03  7.91268459E-02  6.32880136E-02 -1.11986051E-01
  2.21404156E-16 -6.68928473E-04  1.18609723E-17  1.50552396E-02  2.04167344E-03
 -4.18246230E-18 -4.38991924E-03 -2.55845094E-02 -4.75242710E-03  1.50903675E-02
 -3.42494172E-17 -2.66536745E-02  1.67716281E-01  3.99685289E-01  2.64554594E-02
 -3.81373043E-17  4.34098371E-01  1.74784262E+00  5.29698219E-02  5.32601897E-01
  3.47542352E-01 -6.22146390E-01  1.19491480E-15 -6.42545799E-04  1.67233206E-02
  2.55737384E-02 -2.03521846E-02  4.02376743E-17  1.20127088E-03  1.50552396E-02
 -3.76606084E-18 -2.01001255E-02  4.11760350E-17  9.69228676E-03  6.66448194E-02
  4.42840727E-02 -3.69326577E-02  8.38231411E-17  4.34607042E-02  5.08799536E-02
 -1.39911272E-01  8.07651988E-03 -1.16428406E-17  7.18554879E-02  8.38743577E-01
  1.74784262E+00  1.50908274E-01  7.86467854E-01 -8.45891186E-02 -5.92433699E-01
  2.03202863E-15  3.64401864E-03  1.16115596E-01  9.44590472E-02 -1.48371984E-01
  3.58857434E-16 -1.32978029E-03  2.04167344E-03  2.01001255E-02 -1.54551319E-17
  4.05205631E-32 -3.20369909E-03 -8.75869313E-03  1.89919193E-04 -4.57788726E-03
 -1.39278702E-17  8.34187262E-03 -4.46996925E-02 -1.05228255E-01  8.83002104E-02
  1.42849419E-17  0.00000000E+00  0.00000000E+00  0.00000000E+00  1.74784262E+00
 -2.89839390E-16 -1.51051600E-15  1.62464640E-16  2.03202863E-15  4.65565818E-01
 -7.20447647E-18 -2.29568552E-16 -1.86752059E-16  3.58857434E-16  3.31378296E-02
  2.72411633E-18 -4.18246230E-18 -4.11760350E-17  4.05205631E-32  4.62377327E-18
  7.27118321E-18  1.98789152E-17 -4.31044618E-19 -1.39278702E-17 -1.07145371E-02
 -1.20253642E-17  6.44375796E-17  1.51693528E-16  1.42849419E-17  9.82095291E-02
  0.00000000E+00  0.00000000E+00  0.00000000E+00  0.00000000E+00  1.74784262E+00
  1.34612954E-02  1.97612727E-01  5.56946589E-04  2.47114221E-01 -4.90430563E-16
  5.33542400E-02  5.72445131E-01  5.21623737E-01  5.15250144E-01 -9.89594301E-16
 -8.64246305E-03 -2.04664052E-02  4.58651770E-02 -1.76985075E-02  3.22036838E-17
 -2.24169493E-04 -5.27903625E-03 -1.16062552E-03 -7.08245782E-03  1.32450967E-17
 -9.13385376E-06  3.03064580E-04  1.45548463E-03  4.61022675E-04 -8.85458748E-19
  1.59920382E-04  1.05607024E-02  3.92274422E-03  1.75193182E-02 -3.43344015E-17
  1.49330241E+00  2.18452977E-04  7.20097021E-04  3.07513898E-03  8.07863005E-04
 -1.74102438E-18  3.67468347E-03 -9.93845514E-02  1.90211925E-01 -3.15238752E-02
  7.43801258E-17 -1.11724777E-01 -1.19845986E+00  1.10369859E+00 -8.51291550E-01
  1.74394218E-15 -1.37715980E-02 -2.71534488E-01  1.15380865E-01 -3.47563790E-01
  6.84597751E-16 -8.43002803E-05 -1.17747889E-02  1.14716351E-02 -1.80451376E-02
  3.60094073E-17  1.90981704E-05 -6.32988556E-04  1.97330730E-03 -7.59844535E-04
  1.55658472E-18 -4.08226103E-02 -3.12599029E+00  2.24169493E-04  5.27903625E-03
 -1.16062552E-03 -7.08245782E-03  1.32450967E-17  9.13385376E-06 -3.03064580E-04
  1.45548463E-03  4.61022675E-04 -8.85458748E-19 -1.59920382E-04 -1.05607024E-02
  3.92274422E-03  1.75193182E-02 -3.43344015E-17 -1.34612954E-02 -1.97612727E-01
  5.56946589E-04  2.47114221E-01 -4.90430563E-16 -5.33542400E-02 -5.72445131E-01
  5.21623737E-01  5.15250144E-01 -9.89594301E-16  8.64246305E-03  2.04664052E-02
  4.58651770E-02 -1.76985075E-02  3.22036838E-17  2.50251936E-20 -1.75911235E-03
 -1.49330241E+00  1.37715980E-02  2.71534488E-01  1.15380865E-01 -3.47563790E-01
  6.84597751E-16  8.43002803E-05  1.17747889E-02  1.14716351E-02 -1.80451376E-02
  3.60094073E-17 -1.90981704E-05  6.32988556E-04  1.97330730E-03 -7.59844535E-04
  1.55658472E-18 -2.18452977E-04 -7.20097021E-04  3.07513898E-03  8.07863005E-04
 -1.74102438E-18 -3.67468347E-03  9.93845514E-02  1.90211925E-01 -3.15238752E-02
  7.43801258E-17  1.11724777E-01  1.19845986E+00  1.10369859E+00 -8.51291550E-01
  1.74394218E-15  1.75911235E-03 -3.38813179E-21  4.08226103E-02  3.12599029E+00
  0.00000000E+00 -5.37393433E-07  2.16845810E-06  4.41097438E-07 -6.35886652E-22
  0.00000000E+00 -1.20423679E-05  3.80614021E-05  2.18329798E-05 -3.87205410E-20
  0.00000000E+00 -6.02479246E-03  1.12543790E-02  9.35630558E-03 -1.71240923E-17
 -2.54022020E-07 -1.40781812E-01  2.31715442E-01  4.69589659E-02 -6.77078539E-17
  0.00000000E+00 -5.97195831E-03  1.39049300E-02 -4.18674872E-03  9.63949671E-18
  0.00000000E+00 -1.19207539E-05  4.31500265E-05 -5.17763945E-06  1.46367328E-20
 -1.06172068E-06 -5.44597488E-03 -5.38624638E-03 -1.04785515E-06 -5.43458912E+00
  2.32988997E-07 -4.18096537E-04  1.06581924E-03  1.81614001E-04 -2.61814985E-19
  1.24078639E-06 -3.51502941E-03  6.90421525E-03  3.44196088E-03 -6.10427843E-18
 -2.19672518E-03 -1.67183604E-01  2.20387244E-01  1.58864938E-01 -2.90757697E-16
 -7.23903487E-02 -1.19658586E+00  1.49702117E+00  2.61528188E-01 -3.77084802E-16
 -1.19905720E-03 -1.45866174E-01  2.35052151E-01 -6.19154222E-02  1.42552980E-16
  3.27586861E-06 -2.81504229E-03  6.37765524E-03 -6.56388227E-04  1.85555198E-18
 -3.89218618E-04 -1.34106401E-01 -1.11751180E-01 -2.78267160E-04 -1.34974754E+00
 -5.43458912E+00  9.44382576E-07 -7.37026842E-04  1.83461768E-03  3.24523533E-04
 -4.67833555E-19  4.05890769E-06 -5.21945657E-03  9.57616844E-03  5.26845325E-03
 -9.34354184E-18 -4.01358518E-03 -1.68878987E-01  1.79965022E-01  1.78126058E-01
 -3.26009773E-16 -1.18538110E-01 -1.14527881E+00  1.18249716E+00  3.27980633E-01
 -4.72899357E-16 -2.71094879E-03 -1.88697364E-01  2.77454086E-01 -8.86994659E-02
  2.04220092E-16  1.19724103E-05 -4.74591473E-03  1.03587263E-02 -1.13995189E-03
  3.22254406E-18 -5.28211435E-04 -6.59167846E-02 -1.03659837E-01 -4.58591855E-04
  7.18554879E-02  8.38743577E-01 -5.43458912E+00  1.91373107E-07 -1.86185635E-04
  4.78974992E-04 -5.26784441E-05 -1.18155218E-19  2.25825432E-06 -3.53745493E-03
  7.10432335E-03  2.39144472E-03 -6.31612158E-18 -3.40831820E-03 -1.66577075E-01
  2.36486855E-01  1.05318981E-01 -3.17207084E-16 -2.45312443E-02 -2.77791341E-01
  4.23615949E-01 -5.81955493E-01 -1.10595982E-16  8.39073036E-04  6.62565244E-02
 -1.15032168E-01 -2.85132266E-02 -7.09397578E-17 -1.42476080E-06  6.82566231E-04
 -1.57939205E-03 -7.73292542E-04 -4.62666548E-19 -5.13013612E-04 -1.76780991E-01
  1.07267826E-01  1.60348077E-04  0.00000000E+00  0.00000000E+00  0.00000000E+00
 -5.43458912E+00 -2.75883725E-22  2.68405458E-19 -6.90490983E-19 -1.18155218E-19
 -1.34639535E-04 -4.00498831E-21  6.27363604E-18 -1.25994366E-17 -6.31612158E-18
 -1.16996612E-03  6.23797022E-18  3.04872600E-16 -4.32822839E-16 -3.17207084E-16
 -6.79974404E-02  3.53704106E-17  4.00533853E-16 -6.10791278E-16 -1.10595982E-16
 -6.58659637E-01 -1.93186702E-18 -1.52547858E-16  2.64848043E-16 -7.09397578E-17
 -5.93246838E-02  4.02767390E-21 -1.92955490E-18  4.46480287E-18 -4.62666548E-19
 -9.36957521E-04  9.36482144E-19  3.36494589E-16 -2.22966329E-16 -3.73074407E-19
  0.00000000E+00  0.00000000E+00  0.00000000E+00  0.00000000E+00 -5.43458912E+00
  0.00000000E+00  0.00000000E+00  0.00000000E+00  0.00000000E+00  0.00000000E+00
  0.00000000E+00 -6.36804337E-07  2.56705207E-06  5.79508737E-07 -8.64690833E-22
  0.00000000E+00 -1.42505021E-03  3.90860699E-03  9.22867321E-04 -1.39611341E-18
  0.00000000E+00 -8.80325476E-03  2.04734316E-02 -5.38200458E-03  1.26651871E-17
  0.00000000E+00 -2.40080792E-05  7.67633812E-05 -3.84343597E-05  8.31938045E-20
  0.00000000E+00 -2.09160368E-09  9.70914916E-09 -2.89016251E-09  6.66981762E-24
 -2.56883589E-07 -1.04241352E-02 -3.79823498E-05  0.00000000E+00 -1.92401648E-05
 -3.17084201E-01  3.68591062E-01 -3.75330158E-01  7.72340230E-16 -7.18244858E+00
  0.00000000E+00 -2.81505994E-05  7.99827500E-05 -1.18858244E-06  9.94906894E-21
  4.07545240E-08 -8.69358437E-04  2.02697232E-03  4.21482303E-04 -6.28897996E-19
 -4.12307618E-04 -7.86371470E-02  1.36136466E-01  2.96041113E-02 -4.47850909E-17
 -3.53240312E-03 -2.40559184E-01  3.75202811E-01 -9.04730739E-02  2.12905506E-16
 -3.99488962E-06 -7.58523421E-03  1.43338770E-02 -6.61930846E-03  1.43279466E-17
  4.76980731E-10 -8.63684480E-05  2.23283672E-04 -6.08678825E-05  1.40468805E-19
 -1.98499481E-04 -2.09883853E-01 -5.37179796E-03 -5.71467817E-06 -2.47203985E-01
 -2.54090222E+00  2.09775069E+00 -1.84803893E+00  3.80282475E-15 -1.78385010E+00
 -7.18244858E+00  0.00000000E+00 -6.56901994E-05  1.80105106E-04 -2.78155027E-06
  2.32830593E-20  1.70450415E-07 -1.71921893E-03  3.80783583E-03  8.44843603E-04
 -1.26059966E-18 -1.11445710E-03 -1.18709151E-01  1.91316440E-01  4.80332171E-02
 -7.26646367E-17 -8.11121856E-03 -3.26374163E-01  4.62325814E-01 -1.35681359E-01
  3.19291774E-16 -1.25074415E-05 -1.22721496E-02  2.15037470E-02 -1.10605929E-02
  2.39414112E-17  2.21857019E-09 -1.86399610E-04  4.60696133E-04 -1.31984118E-04
  3.04588407E-19 -3.62306307E-04 -2.18932687E-01 -6.64965175E-03 -1.21045757E-05
 -2.84534062E-01 -1.54801727E+00  2.17717089E-01 -1.58159196E+00  3.25454023E-15
  7.18554879E-02  8.38743577E-01 -7.18244858E+00  0.00000000E+00  1.19294903E-06
 -3.39741690E-06 -8.82118141E-06 -4.22781946E-22  3.73022977E-08 -4.26054885E-04
  1.00468624E-03 -7.04904851E-05 -3.12177093E-19 -2.66640457E-04 -3.07456748E-02
  5.65145911E-02 -1.70473283E-02 -1.87268588E-17  2.15790594E-03  9.45852556E-02
 -1.60133873E-01 -5.93943161E-02 -9.18102973E-17  6.38021322E-06  6.73710161E-03
 -1.30804379E-02  3.51871074E-03 -1.31161651E-17 -6.59118391E-10  6.11549257E-05
 -1.58719661E-04  1.59796246E-05 -9.99091235E-20 -1.75187599E-04 -1.73337203E-01
  6.74723008E-03  5.52736296E-06  2.95522759E-01  1.89668621E+00 -2.01833751E+00
  3.14139006E-01 -3.80443453E-15  0.00000000E+00  0.00000000E+00  0.00000000E+00
 -7.18244858E+00  0.00000000E+00 -9.98561960E-21  2.84381915E-20 -4.22781946E-22
 -8.87168977E-06 -5.56591347E-23  6.35720792E-19 -1.49910248E-18 -3.12177093E-19
 -2.79709024E-04  4.03373605E-19  4.65120478E-17 -8.54952568E-17 -1.87268588E-17
 -2.94262696E-02 -5.07808606E-18 -2.22582486E-16  3.76834584E-16 -9.18102973E-17
 -9.84086187E-02 -1.38104086E-20 -1.45829180E-17  2.83135039E-17 -1.31161651E-17
 -2.54077181E-03  1.52109075E-24 -1.41131234E-19  3.66287772E-19 -9.99091235E-20
 -2.73129540E-05  3.00491198E-19  3.13045162E-16 -1.39758282E-17 -1.22272480E-20
 -6.08115578E-16 -3.90292928E-15  4.15325873E-15 -3.80443453E-15 -1.53468222E+00
  0.00000000E+00  0.00000000E+00  0.00000000E+00  0.00000000E+00 -7.18244858E+00
  1.67919452E-07 -9.15111824E-05  2.34723168E-04  7.56988888E-05 -1.29621651E-19
  1.66375648E-07 -3.95529047E-04  7.47700567E-04  5.14102034E-04 -9.40894810E-19
 -1.31860856E-04 -1.91671676E-02  2.39597120E-02  2.46848386E-02 -4.61675712E-17
 -1.20014537E-02 -3.49632034E-01  4.20367459E-01  2.81957191E-01 -5.13707052E-16
 -1.16518780E-03 -1.03126731E-01  1.70968271E-01  1.82841930E-02 -2.03416166E-17
  6.89134414E-06 -1.58437374E-03  3.54629483E-03  4.26858160E-04 -5.38827571E-19
 -3.29542248E-05 -1.26232279E-02 -2.05139155E-01 -2.87208395E-04 -3.33788628E-01
 -2.76062520E+00  9.44985035E-01  2.56704973E+00 -4.95788034E-15 -4.12606637E-02
 -6.69923381E-01 -2.00015102E-01  8.15543748E-01 -1.62359028E-15 -5.90319098E+00
  0.00000000E+00 -1.20842307E-06  3.57417806E-06  7.01497939E-08  2.03583787E-22
  1.17682345E-09 -4.12790897E-05  1.02824383E-04  2.10122964E-05 -3.11528160E-20
 -1.15536373E-05 -5.76975443E-03  1.11222146E-02  2.34764841E-03 -3.51045005E-18
 -1.58232983E-04 -2.57637358E-02  4.62255141E-02 -5.16090013E-03  1.45870008E-17
 -2.85886262E-07 -7.86491450E-04  1.65184562E-03 -5.05948227E-04  1.14988100E-18
  0.00000000E+00 -5.52514042E-06  1.50686422E-05 -2.82881636E-06  6.98072989E-21
 -1.07383421E-05 -2.57101871E-02 -1.06505768E-03 -4.61964992E-07 -3.21945363E-02
 -7.36744987E-01  9.57834628E-01 -3.23012653E-01  7.24466568E-16 -4.46610969E-01
 -4.00872575E+00  4.09118532E+00  7.62301203E-01 -1.09845255E-15 -3.65227423E-01
 -9.21608439E+00  6.45249676E-08 -6.95664638E-05  1.80592374E-04 -3.44800813E-05
  8.28417764E-20  4.17547576E-06 -3.29418990E-03  6.86178741E-03 -1.62581111E-04
  9.36578697E-19 -2.55432571E-03 -1.45626153E-01  2.32071874E-01 -3.04309624E-02
  8.10793865E-17 -2.48006482E-03 -1.25306630E-01  1.65047583E-01 -1.13218224E-01
  2.36578071E-16 -3.67117401E-06 -2.90321648E-03  4.65409551E-03 -3.58756810E-03
  7.44075788E-18  2.82664689E-08 -7.43317464E-05  1.70514060E-04 -7.94884888E-05
  1.70519413E-19 -1.42596405E-03 -6.38790737E-01 -1.08848691E-03 -3.74384704E-06
 -3.16803363E-02 -6.15638415E-01  3.23835239E-01 -7.47551688E-01  1.48823120E-15
 -4.36930525E-01 -3.37138126E+00 -3.78045554E-01 -3.14127764E+00  6.06691740E-15
 -8.92302137E-02 -1.21232123E+00 -6.71384672E+00  2.54022020E-07  1.40781812E-01
  2.31715442E-01  4.69589659E-02 -6.77078539E-17  0.00000000E+00  5.97195831E-03
  1.39049300E-02 -4.18674872E-03  9.63949671E-18  0.00000000E+00  1.19207539E-05
  4.31500265E-05 -5.17763945E-06  1.46367328E-20  0.00000000E+00  5.37393433E-07
  2.16845810E-06  4.41097438E-07 -6.35886652E-22  0.00000000E+00  1.20423679E-05
  3.80614021E-05  2.18329798E-05 -3.87205410E-20  0.00000000E+00  6.02479246E-03
  1.12543790E-02  9.35630558E-03 -1.71240923E-17  5.38624638E-03  1.04785515E-06
  1.06172068E-06  5.44597488E-03  0.00000000E+00  0.00000000E+00  0.00000000E+00
  0.00000000E+00  0.00000000E+00  0.00000000E+00  0.00000000E+00  0.00000000E+00
  0.00000000E+00  0.00000000E+00  0.00000000E+00  0.00000000E+00  0.00000000E+00
  5.43458912E+00  7.23903487E-02  1.19658586E+00  1.49702117E+00  2.61528188E-01
 -3.77084802E-16  1.19905720E-03  1.45866174E-01  2.35052151E-01 -6.19154222E-02
  1.42552980E-16 -3.27586861E-06  2.81504229E-03  6.37765524E-03 -6.56388227E-04
  1.85555198E-18 -2.32988997E-07  4.18096537E-04  1.06581924E-03  1.81614001E-04
 -2.61814985E-19 -1.24078639E-06  3.51502941E-03  6.90421525E-03  3.44196088E-03
 -6.10427843E-18  2.19672518E-03  1.67183604E-01  2.20387244E-01  1.58864938E-01
 -2.90757697E-16  1.11751180E-01  2.78267160E-04  3.89218618E-04  1.34106401E-01
  0.00000000E+00  0.00000000E+00  3.34186198E-07  0.00000000E+00  0.00000000E+00
  0.00000000E+00  0.00000000E+00  0.00000000E+00  0.00000000E+00  0.00000000E+00
  1.29802926E-07  0.00000000E+00  3.22785800E-08  1.34974754E+00  5.43458912E+00
 -1.18538110E-01 -1.14527881E+00 -1.18249716E+00 -3.27980633E-01  4.72899357E-16
 -2.71094879E-03 -1.88697364E-01 -2.77454086E-01  8.86994659E-02 -2.04220092E-16
  1.19724103E-05 -4.74591473E-03 -1.03587263E-02  1.13995189E-03 -3.22254406E-18
  9.44382576E-07 -7.37026842E-04 -1.83461768E-03 -3.24523533E-04  4.67833555E-19
  4.05890769E-06 -5.21945657E-03 -9.57616844E-03 -5.26845325E-03  9.34354184E-18
 -4.01358518E-03 -1.68878987E-01 -1.79965022E-01 -1.78126058E-01  3.26009773E-16
 -1.03659837E-01 -4.58591855E-04 -5.28211435E-04 -6.59167846E-02  0.00000000E+00
  3.34186198E-07  0.00000000E+00  1.95624113E-07 -2.82024824E-22  0.00000000E+00
  0.00000000E+00  0.00000000E+00  0.00000000E+00  0.00000000E+00 -1.73215666E-07
  0.00000000E+00  2.51745861E-08  7.18554879E-02  8.38743577E-01  5.43458912E+00
 -2.45312443E-02 -2.77791341E-01 -4.23615949E-01  5.81955493E-01  1.10595982E-16
  8.39073036E-04  6.62565244E-02  1.15032168E-01  2.85132266E-02  7.09397578E-17
 -1.42476080E-06  6.82566231E-04  1.57939205E-03  7.73292542E-04  4.62666548E-19
  1.91373107E-07 -1.86185635E-04 -4.78974992E-04  5.26784441E-05  1.18155218E-19
  2.25825432E-06 -3.53745493E-03 -7.10432335E-03 -2.39144472E-03  6.31612158E-18
 -3.40831820E-03 -1.66577075E-01 -2.36486855E-01 -1.05318981E-01  3.17207084E-16
  1.07267826E-01  1.60348077E-04 -5.13013612E-04 -1.76780991E-01  0.00000000E+00
  0.00000000E+00 -1.95624113E-07  0.00000000E+00  0.00000000E+00  0.00000000E+00
  0.00000000E+00  0.00000000E+00  0.00000000E+00  0.00000000E+00 -1.25411787E-07
  0.00000000E+00  1.17655196E-08  0.00000000E+00  0.00000000E+00  0.00000000E+00
  5.43458912E+00  3.53704106E-17  4.00533853E-16  6.10791278E-16  1.10595982E-16
  6.58659637E-01 -1.93186702E-18 -1.52547858E-16 -2.64848043E-16  7.09397578E-17
  5.93246838E-02  4.02767390E-21 -1.92955490E-18 -4.46480287E-18  4.62666548E-19
  9.36957521E-04 -2.75883725E-22  2.68405458E-19  6.90490983E-19  1.18155218E-19
  1.34639535E-04 -4.00498831E-21  6.27363604E-18  1.25994366E-17  6.31612158E-18
  1.16996612E-03  6.23797022E-18  3.04872600E-16  4.32822839E-16  3.17207084E-16
  6.79974404E-02 -2.22966329E-16 -3.73074407E-19  9.36482144E-19  3.36494589E-16
  0.00000000E+00  0.00000000E+00  2.82024824E-22  0.00000000E+00  0.00000000E+00
  0.00000000E+00  0.00000000E+00  0.00000000E+00  0.00000000E+00  0.00000000E+00
  2.10089476E-22  0.00000000E+00 -3.23814417E-23  0.00000000E+00  0.00000000E+00
  0.00000000E+00  0.00000000E+00  5.43458912E+00  0.00000000E+00  8.80325476E-03
  2.04734316E-02 -5.38200458E-03  1.26651871E-17  0.00000000E+00  2.40080792E-05
  7.67633812E-05 -3.84343597E-05  8.31938045E-20  0.00000000E+00  2.09160368E-09
  9.70914916E-09 -2.89016251E-09  6.66981762E-24  0.00000000E+00  0.00000000E+00
  0.00000000E+00  0.00000000E+00  0.00000000E+00  0.00000000E+00  6.36804337E-07
  2.56705207E-06  5.79508737E-07 -8.64690833E-22  0.00000000E+00  1.42505021E-03
  3.90860699E-03  9.22867321E-04 -1.39611341E-18  3.79823498E-05  0.00000000E+00
  2.56883589E-07  1.04241352E-02  0.00000000E+00  0.00000000E+00  0.00000000E+00
  0.00000000E+00  0.00000000E+00  0.00000000E+00  0.00000000E+00  0.00000000E+00
  0.00000000E+00  0.00000000E+00  0.00000000E+00  0.00000000E+00  0.00000000E+00
  1.92401648E-05  3.17084201E-01  3.68591062E-01 -3.75330158E-01  7.72340230E-16
  7.18244858E+00  3.53240312E-03  2.40559184E-01  3.75202811E-01 -9.04730739E-02
  2.12905506E-16  3.99488962E-06  7.58523421E-03  1.43338770E-02 -6.61930846E-03
  1.43279466E-17 -4.76980731E-10  8.63684480E-05  2.23283672E-04 -6.08678825E-05
  1.40468805E-19  0.00000000E+00  2.81505994E-05  7.99827500E-05 -1.18858244E-06
  9.94906894E-21 -4.07545240E-08  8.69358437E-04  2.02697232E-03  4.21482303E-04
 -6.28897996E-19  4.12307618E-04  7.86371470E-02  1.36136466E-01  2.96041113E-02
 -4.47850909E-17  5.37179796E-03  5.71467817E-06  1.98499481E-04  2.09883853E-01
  0.00000000E+00  0.00000000E+00  0.00000000E+00  0.00000000E+00  0.00000000E+00
  0.00000000E+00  0.00000000E+00  0.00000000E+00  0.00000000E+00  0.00000000E+00
  0.00000000E+00  0.00000000E+00  0.00000000E+00  2.47203985E-01  2.54090222E+00
  2.09775069E+00 -1.84803893E+00  3.80282475E-15  1.78385010E+00  7.18244858E+00
 -8.11121856E-03 -3.26374163E-01 -4.62325814E-01  1.35681359E-01 -3.19291774E-16
 -1.25074415E-05 -1.22721496E-02 -2.15037470E-02  1.10605929E-02 -2.39414112E-17
  2.21857019E-09 -1.86399610E-04 -4.60696133E-04  1.31984118E-04 -3.04588407E-19
  0.00000000E+00 -6.56901994E-05 -1.80105106E-04  2.78155027E-06 -2.32830593E-20
  1.70450415E-07 -1.71921893E-03 -3.80783583E-03 -8.44843603E-04  1.26059966E-18
 -1.11445710E-03 -1.18709151E-01 -1.91316440E-01 -4.80332171E-02  7.26646367E-17
 -6.64965175E-03 -1.21045757E-05 -3.62306307E-04 -2.18932687E-01  0.00000000E+00
  0.00000000E+00  0.00000000E+00  0.00000000E+00  0.00000000E+00  0.00000000E+00
  0.00000000E+00  0.00000000E+00  0.00000000E+00  0.00000000E+00  0.00000000E+00
  0.00000000E+00  0.00000000E+00 -2.84534062E-01 -1.54801727E+00 -2.17717089E-01
  1.58159196E+00 -3.25454023E-15  7.18554879E-02  8.38743577E-01  7.18244858E+00
  2.15790594E-03  9.45852556E-02  1.60133873E-01  5.93943161E-02  9.18102973E-17
  6.38021322E-06  6.73710161E-03  1.30804379E-02 -3.51871074E-03  1.31161651E-17
 -6.59118391E-10  6.11549257E-05  1.58719661E-04 -1.59796246E-05  9.99091235E-20
  0.00000000E+00  1.19294903E-06  3.39741690E-06  8.82118141E-06  4.22781946E-22
  3.73022977E-08 -4.26054885E-04 -1.00468624E-03  7.04904851E-05  3.12177093E-19
 -2.66640457E-04 -3.07456748E-02 -5.65145911E-02  1.70473283E-02  1.87268588E-17
  6.74723008E-03  5.52736296E-06 -1.75187599E-04 -1.73337203E-01  0.00000000E+00
  0.00000000E+00  0.00000000E+00  0.00000000E+00  0.00000000E+00  0.00000000E+00
  0.00000000E+00  0.00000000E+00  0.00000000E+00  0.00000000E+00  0.00000000E+00
  0.00000000E+00  0.00000000E+00  2.95522759E-01  1.89668621E+00  2.01833751E+00
 -3.14139006E-01  3.80443453E-15  0.00000000E+00  0.00000000E+00  0.00000000E+00
  7.18244858E+00 -5.07808606E-18 -2.22582486E-16 -3.76834584E-16  9.18102973E-17
  9.84086187E-02 -1.38104086E-20 -1.45829180E-17 -2.83135039E-17  1.31161651E-17
  2.54077181E-03  1.52109075E-24 -1.41131234E-19 -3.66287772E-19  9.99091235E-20
  2.73129540E-05  0.00000000E+00 -9.98561960E-21 -2.84381915E-20  4.22781946E-22
  8.87168977E-06 -5.56591347E-23  6.35720792E-19  1.49910248E-18  3.12177093E-19
  2.79709024E-04  4.03373605E-19  4.65120478E-17  8.54952568E-17  1.87268588E-17
  2.94262696E-02 -1.39758282E-17 -1.22272480E-20  3.00491198E-19  3.13045162E-16
  0.00000000E+00  0.00000000E+00  0.00000000E+00  0.00000000E+00  0.00000000E+00
  0.00000000E+00  0.00000000E+00  0.00000000E+00  0.00000000E+00  0.00000000E+00
  0.00000000E+00  0.00000000E+00  0.00000000E+00 -6.08115578E-16 -3.90292928E-15
 -4.15325873E-15  3.80443453E-15  1.53468222E+00  0.00000000E+00  0.00000000E+00
  0.00000000E+00  0.00000000E+00  7.18244858E+00  1.20014537E-02  3.49632034E-01
  4.20367459E-01  2.81957191E-01 -5.13707052E-16  1.16518780E-03  1.03126731E-01
  1.70968271E-01  1.82841930E-02 -2.03416166E-17 -6.89134414E-06  1.58437374E-03
  3.54629483E-03  4.26858160E-04 -5.38827571E-19 -1.67919452E-07  9.15111824E-05
  2.34723168E-04  7.56988888E-05 -1.29621651E-19 -1.66375648E-07  3.95529047E-04
  7.47700567E-04  5.14102034E-04 -9.40894810E-19  1.31860856E-04  1.91671676E-02
  2.39597120E-02  2.46848386E-02 -4.61675712E-17  2.05139155E-01  2.87208395E-04
  3.29542248E-05  1.26232279E-02  0.00000000E+00 -1.29802926E-07 -1.73215666E-07
 -1.25411787E-07  2.10089476E-22  0.00000000E+00  0.00000000E+00  0.00000000E+00
  0.00000000E+00  0.00000000E+00  0.00000000E+00  0.00000000E+00 -1.14906888E-07
  3.33788628E-01  2.76062520E+00  9.44985035E-01  2.56704973E+00 -4.95788034E-15
  4.12606637E-02  6.69923381E-01 -2.00015102E-01  8.15543748E-01 -1.62359028E-15
  5.90319098E+00  1.58232983E-04  2.57637358E-02  4.62255141E-02 -5.16090013E-03
  1.45870008E-17  2.85886262E-07  7.86491450E-04  1.65184562E-03 -5.05948227E-04
  1.14988100E-18  0.00000000E+00  5.52514042E-06  1.50686422E-05 -2.82881636E-06
  6.98072989E-21  0.00000000E+00  1.20842307E-06  3.57417806E-06  7.01497939E-08
  2.03583787E-22 -1.17682345E-09  4.12790897E-05  1.02824383E-04  2.10122964E-05
 -3.11528160E-20  1.15536373E-05  5.76975443E-03  1.11222146E-02  2.34764841E-03
 -3.51045005E-18  1.06505768E-03  4.61964992E-07  1.07383421E-05  2.57101871E-02
  0.00000000E+00  0.00000000E+00  0.00000000E+00  0.00000000E+00  0.00000000E+00
  0.00000000E+00  0.00000000E+00  0.00000000E+00  0.00000000E+00  0.00000000E+00
  0.00000000E+00  0.00000000E+00  0.00000000E+00  3.21945363E-02  7.36744987E-01
  9.57834628E-01 -3.23012653E-01  7.24466568E-16  4.46610969E-01  4.00872575E+00
  4.09118532E+00  7.62301203E-01 -1.09845255E-15  3.65227423E-01  9.21608439E+00
  2.48006482E-03  1.25306630E-01  1.65047583E-01 -1.13218224E-01  2.36578071E-16
  3.67117401E-06  2.90321648E-03  4.65409551E-03 -3.58756810E-03  7.44075788E-18
 -2.82664689E-08  7.43317464E-05  1.70514060E-04 -7.94884888E-05  1.70519413E-19
 -6.45249676E-08  6.95664638E-05  1.80592374E-04 -3.44800813E-05  8.28417764E-20
 -4.17547576E-06  3.29418990E-03  6.86178741E-03 -1.62581111E-04  9.36578697E-19
  2.55432571E-03  1.45626153E-01  2.32071874E-01 -3.04309624E-02  8.10793865E-17
  1.08848691E-03  3.74384704E-06  1.42596405E-03  6.38790737E-01  0.00000000E+00
 -3.22785800E-08  2.51745861E-08  1.17655196E-08 -3.23814417E-23  0.00000000E+00
  0.00000000E+00  0.00000000E+00  0.00000000E+00  0.00000000E+00  1.14906888E-07
  0.00000000E+00  0.00000000E+00  3.16803363E-02  6.15638415E-01  3.23835239E-01
 -7.47551688E-01  1.48823120E-15  4.36930525E-01  3.37138126E+00 -3.78045554E-01
 -3.14127764E+00  6.06691740E-15  8.92302137E-02  1.21232123E+00  6.71384672E+00
Multipole Matrix (0,1,0)                   R   N=        1830
  5.26797819E-01  1.30836766E-01  5.26797819E-01  0.00000000E+00  0.00000000E+00
  5.26797819E-01  7.18554879E-02  8.38743577E-01  0.00000000E+00  5.26797819E-01
  0.00000000E+00  0.00000000E+00  0.00000000E+00  0.00000000E+00  5.26797819E-01
  1.40528775E-06  9.10235096E-02 -9.88293163E-02  1.14119690E-01 -2.28527690E-16
  2.50022004E+00  2.38467000E-02  5.55565792E-01 -3.67951860E-01  6.85149550E-01
 -8.50832442E-16  6.20960626E-01  2.50022004E+00  2.74578579E-02  4.14175877E-01
 -3.61271396E-02  5.95775892E-01 -8.35647615E-16  0.00000000E+00  0.00000000E+00
  2.50022004E+00 -2.84283990E-02 -1.97686056E-01  2.20059024E-01 -1.35183610E-01
  5.08852860E-16  7.18554879E-02  8.38743577E-01  0.00000000E+00  2.50022004E+00
  6.34920999E-17  9.57718416E-16 -8.35647615E-16  1.37764070E-15  3.25257875E-01
  0.00000000E+00  0.00000000E+00  0.00000000E+00  0.00000000E+00  2.50022004E+00
  0.00000000E+00  3.51280937E-03 -7.67247349E-03  2.66419260E-03 -5.81672566E-18
  2.09331627E-06  7.59986114E-02 -1.23944861E-01 -2.27158292E-02  3.64490689E-17
  1.97341116E+00  1.09401485E-03  7.66012128E-02 -1.03717504E-01  7.50689085E-02
 -7.86312609E-17  9.39504825E-02  8.21574410E-01 -8.63450436E-01  9.38585178E-02
  2.53919075E-16  4.90121113E-01  1.97341116E+00  2.38741533E-03  1.10049178E-01
 -1.32588576E-01  1.10571909E-01 -1.24839911E-16  1.52125246E-01  8.45206203E-01
 -6.85368885E-01  3.97586368E-02  3.43025912E-16  0.00000000E+00  0.00000000E+00
  1.97341116E+00 -6.96145649E-04  3.66371020E-03 -5.62438119E-04  1.37064077E-02
 -4.26400722E-19  3.36015731E-02  4.42418905E-01 -5.15665798E-01  4.32547112E-01
  1.51644353E-16  7.18554879E-02  8.38743577E-01  0.00000000E+00  1.97341116E+00
  1.80996911E-18  8.34314877E-17 -1.24839911E-16  8.38277849E-17  3.20798230E-02
 -4.47362121E-17 -2.48553905E-16  3.43025912E-16 -1.16920160E-17  4.81088867E-01
  0.00000000E+00  0.00000000E+00  0.00000000E+00  0.00000000E+00  1.97341116E+00
  0.00000000E+00 -2.01683197E-04  5.24759722E-04  1.30525330E-04 -1.54276559E-19
  0.00000000E+00 -7.13454218E-04  1.23203733E-03  1.19272313E-03 -2.00493734E-18
  6.74685379E-07 -1.51152072E-02  7.18654800E-03  2.40839003E-02 -4.13259872E-17
 -5.26797819E-01  2.01683197E-04  0.00000000E+00 -8.05640677E-04  1.67025836E-02
  2.36854061E-19  4.35420187E-03  6.05055965E-02 -7.18584434E-02 -2.31934514E-02
  1.16937753E-16  7.00461429E-02  2.65600168E-01 -1.03297951E-01 -3.93542081E-02
  5.94011173E-16 -1.30836766E-01 -5.26797819E-01  5.24759722E-04 -8.05640677E-04
 -8.67361738E-19  2.63135807E-02  0.00000000E+00  7.50581796E-03  6.13923745E-02
 -5.56655822E-02 -2.78660876E-02  1.31825178E-16  3.60367254E-02  7.53104054E-02
  1.16090732E-01 -2.82655839E-02  2.26704993E-16  0.00000000E+00  0.00000000E+00
 -5.26797819E-01  1.30525330E-04  1.67025836E-02 -2.63135807E-02  0.00000000E+00
  7.73605234E-18  6.74966763E-03  9.48322566E-02 -1.15635978E-01 -3.82116205E-02
  1.88178463E-16  1.10462675E-01  4.95407531E-01 -2.07807638E-01 -1.97892606E-01
  1.19499039E-15  7.18554879E-02  8.38743577E-01  0.00000000E+00 -5.26797819E-01
 -1.54276559E-19  2.36854061E-19  5.77778983E-34 -7.73605234E-18  5.42101086E-20
 -1.22144795E-17 -9.99059535E-17  1.31825178E-16  4.53474567E-17  2.53412086E-02
 -2.07227901E-16 -4.33069792E-16  2.26704993E-16  1.62540229E-16  1.55514504E-01
  0.00000000E+00  0.00000000E+00  0.00000000E+00  0.00000000E+00 -5.26797819E-01
  0.00000000E+00 -4.35420187E-03  7.50581796E-03  6.74966763E-03 -1.22144795E-17
  0.00000000E+00 -9.58221166E-04  8.05609511E-04  2.43690943E-03 -4.63527798E-18
  0.00000000E+00 -4.22596840E-03 -1.94703279E-03  9.63907279E-03 -1.88567473E-17
 -1.40528775E-06 -9.10235096E-02 -9.88293163E-02  1.14119690E-01 -2.28527690E-16
 -2.50022004E+00  7.13454218E-04 -6.05055965E-02  6.13923745E-02  9.48322566E-02
 -9.99059535E-17  9.58221166E-04 -4.33680869E-19 -1.23659119E-03  1.31728577E-02
  7.11504002E-18  3.25514958E-03 -1.61416187E-02 -2.68475025E-03  5.35786785E-02
 -2.60014404E-17 -2.38467000E-02 -5.55565792E-01 -3.67951860E-01  6.85149550E-01
 -8.50832442E-16 -6.20960626E-01 -2.50022004E+00  1.23203733E-03 -7.18584434E-02
  5.56655822E-02  1.15635978E-01 -1.31825178E-16  8.05609511E-04 -1.23659119E-03
  0.00000000E+00  8.50804914E-03  6.16297582E-33 -1.49998315E-03  6.81429539E-03
 -5.21695930E-03 -1.92775674E-02  1.49442285E-17  2.74578579E-02  4.14175877E-01
  3.61271396E-02 -5.95775892E-01  8.35647615E-16  0.00000000E+00  0.00000000E+00
 -2.50022004E+00  1.19272313E-03 -2.31934514E-02  2.78660876E-02  3.82116205E-02
 -4.53474567E-17  2.43690943E-03  1.31728577E-02 -8.50804914E-03  0.00000000E+00
  4.89532115E-17  7.44915691E-03  7.04668562E-03  4.16000888E-03  3.02674012E-02
  4.02891193E-17 -2.84283990E-02 -1.97686056E-01 -2.20059024E-01  1.35183610E-01
 -5.08852860E-16  7.18554879E-02  8.38743577E-01  0.00000000E+00 -2.50022004E+00
 -2.00493734E-18  1.16937753E-16 -1.31825178E-16 -1.88178463E-16 -2.53412086E-02
 -4.63527798E-18  7.11504002E-18 -3.08148791E-33 -4.89532115E-17  0.00000000E+00
 -1.45271324E-17  6.59955225E-17  1.49442285E-17 -1.86700614E-16 -6.76000925E-03
  6.34920999E-17  9.57718416E-16  8.35647615E-16 -1.37764070E-15 -3.25257875E-01
  0.00000000E+00  0.00000000E+00  0.00000000E+00  0.00000000E+00 -2.50022004E+00
 -6.74685379E-07 -7.00461429E-02  3.60367254E-02  1.10462675E-01 -2.07227901E-16
  0.00000000E+00 -3.25514958E-03 -1.49998315E-03  7.44915691E-03 -1.45271324E-17
  0.00000000E+00 -7.55257309E-04 -1.32978029E-03  1.52488526E-03 -3.07567827E-18
  0.00000000E+00 -3.51280937E-03 -7.67247349E-03  2.66419260E-03 -5.81672566E-18
 -2.09331627E-06 -7.59986114E-02 -1.23944861E-01 -2.27158292E-02  3.64490689E-17
 -1.97341116E+00  1.51152072E-02 -2.65600168E-01  7.53104054E-02  4.95407531E-01
 -4.33069792E-16  4.22596840E-03  1.61416187E-02  6.81429539E-03  7.04668562E-03
  6.59955225E-17  7.55257309E-04  4.33680869E-19  2.04167344E-03  1.45583795E-02
  4.72223167E-18 -1.09401485E-03 -7.66012128E-02 -1.03717504E-01  7.50689085E-02
 -7.86312609E-17 -9.39504825E-02 -8.21574410E-01 -8.63450436E-01  9.38585178E-02
  2.53919075E-16 -4.90121113E-01 -1.97341116E+00  7.18654800E-03 -1.03297951E-01
 -1.16090732E-01  2.07807638E-01 -2.26704993E-16 -1.94703279E-03 -2.68475025E-03
  5.21695930E-03 -4.16000888E-03 -1.49442285E-17 -1.32978029E-03  2.04167344E-03
 -3.46944695E-18 -1.78026033E-02 -3.08148791E-33  2.38741533E-03  1.10049178E-01
  1.32588576E-01 -1.10571909E-01  1.24839911E-16  1.52125246E-01  8.45206203E-01
  6.85368885E-01 -3.97586368E-02 -3.43025912E-16  0.00000000E+00  0.00000000E+00
 -1.97341116E+00  2.40839003E-02 -3.93542081E-02  2.82655839E-02  1.97892606E-01
 -1.62540229E-16  9.63907279E-03  5.35786785E-02  1.92775674E-02 -3.02674012E-02
  1.86700614E-16  1.52488526E-03  1.45583795E-02  1.78026033E-02  2.60208521E-18
  4.11760350E-17 -6.96145649E-04  3.66371020E-03  5.62438119E-04 -1.37064077E-02
  4.26400722E-19  3.36015731E-02  4.42418905E-01  5.15665798E-01 -4.32547112E-01
 -1.51644353E-16  7.18554879E-02  8.38743577E-01  0.00000000E+00 -1.97341116E+00
 -4.13259872E-17  5.94011173E-16 -2.26704993E-16 -1.19499039E-15 -1.55514504E-01
 -1.88567473E-17 -2.60014404E-17 -1.49442285E-17 -4.02891193E-17  6.76000925E-03
 -3.07567827E-18  4.72223167E-18  0.00000000E+00 -4.11760350E-17  2.16840434E-19
  1.80996911E-18  8.34314877E-17  1.24839911E-16 -8.38277849E-17 -3.20798230E-02
 -4.47362121E-17 -2.48553905E-16 -3.43025912E-16  1.16920160E-17 -4.81088867E-01
  0.00000000E+00  0.00000000E+00  0.00000000E+00  0.00000000E+00 -1.97341116E+00
  3.52527437E-03  2.28776380E-01 -7.79471258E-02  3.50986593E-01 -5.59993899E-16
  1.59825459E-01  1.71427366E+00  5.15701792E-01  1.89242193E+00 -2.96350940E-15
  1.09103736E-02  3.01668462E-01  3.07416394E-01  3.05733135E-01 -4.31058806E-16
 -3.19419200E-05  1.05562831E-02  1.07612236E-02  1.78102211E-02 -2.46754162E-17
 -2.73636183E-05  9.05978026E-04  4.60107643E-04  2.67941609E-03 -2.64640870E-18
 -1.60204262E-04  5.26335089E-03 -3.20235423E-04  1.27225119E-02 -1.58896934E-17
  4.47110415E+00  5.83130121E-05  1.17685902E-02 -1.70179812E-02  1.35602569E-02
 -1.92855472E-17  1.34215924E-02  2.85544122E-01 -3.56581298E-01  1.61430357E-01
 -2.18498181E-16  1.26141028E-01  1.35296685E+00 -8.51538219E-01  1.31044975E+00
 -1.96877771E-15 -2.02879132E-03  1.33131860E-01 -2.24267233E-02  2.36312895E-01
 -3.29875545E-16 -2.09936092E-04  7.06025075E-04 -2.12483039E-04  5.17243923E-03
 -1.11564399E-18 -2.15631726E-05  7.14178636E-04 -7.59345275E-04  2.15748301E-03
 -1.75611388E-18  2.00023730E-01  3.52878408E+00  3.19419200E-05 -1.05562831E-02
  1.07612236E-02  1.78102211E-02 -2.46754162E-17  2.73636183E-05 -9.05978026E-04
  4.60107643E-04  2.67941609E-03 -2.64640870E-18  1.60204262E-04 -5.26335089E-03
 -3.20235423E-04  1.27225119E-02 -1.58896934E-17 -3.52527437E-03 -2.28776380E-01
 -7.79471258E-02  3.50986593E-01 -5.59993899E-16 -1.59825459E-01 -1.71427366E+00
  5.15701792E-01  1.89242193E+00 -2.96350940E-15 -1.09103736E-02 -3.01668462E-01
  3.07416394E-01  3.05733135E-01 -4.31058806E-16  9.92537416E-20 -3.58852963E-04
 -4.47110415E+00  2.02879132E-03 -1.33131860E-01 -2.24267233E-02  2.36312895E-01
 -3.29875545E-16  2.09936092E-04 -7.06025075E-04 -2.12483039E-04  5.17243923E-03
 -1.11564399E-18  2.15631726E-05 -7.14178636E-04 -7.59345275E-04  2.15748301E-03
 -1.75611388E-18 -5.83130121E-05 -1.17685902E-02 -1.70179812E-02  1.35602569E-02
 -1.92855472E-17 -1.34215924E-02 -2.85544122E-01 -3.56581298E-01  1.61430357E-01
 -2.18498181E-16 -1.26141028E-01 -1.35296685E+00 -8.51538219E-01  1.31044975E+00
 -1.96877771E-15  3.58852963E-04  4.65868121E-21 -2.00023730E-01 -3.52878408E+00
  0.00000000E+00 -1.09649051E-07  4.41158226E-07  9.63285932E-08 -1.29745468E-22
  0.00000000E+00 -2.18987355E-06  6.90323250E-06  4.11026922E-06 -7.04799856E-21
  0.00000000E+00 -1.10539220E-03  2.05508417E-03  1.78128890E-03 -3.14455839E-18
 -5.18231740E-08 -2.87243724E-02  4.69415721E-02  1.12295906E-02 -1.38147229E-17
  0.00000000E+00 -1.34229085E-03  3.10891812E-03 -8.77245465E-04  2.16506287E-18
  0.00000000E+00 -2.69911773E-06  9.73166188E-06 -1.03541826E-06  3.31147109E-21
 -1.84705194E-07 -9.61289066E-04 -1.24884658E-03 -2.45685955E-07 -1.10885517E+00
  4.75170984E-08 -8.53376334E-05  1.81703531E-04  2.12670045E-04 -5.34393521E-20
  5.45703888E-06  1.06319452E-03 -1.88127670E-03 -1.57703903E-04  1.92072850E-18
  2.09502392E-03  2.01240458E-02 -2.72842375E-02  7.55572701E-03  4.17485956E-17
 -1.47649991E-02 -2.44116148E-01  2.61396970E-01  2.69064095E-01 -7.69281164E-17
 -2.78595510E-03 -8.39729662E-02  1.24143667E-01 -7.19640502E-03  8.64541409E-17
 -4.52834930E-06 -2.35348704E-03  4.66296190E-03  3.63324086E-04  1.58670366E-18
  2.03170355E-04  2.96530155E-02 -7.98071366E-02 -3.39157031E-04 -2.75397922E-01
 -1.10885517E+00  1.91312319E-07 -1.86275165E-04  3.74463592E-04  4.60538900E-04
 -1.18212741E-19  1.71880016E-05  1.78578265E-03 -2.89651340E-03 -2.76693874E-04
  3.31855749E-18  3.89290321E-03  1.95721007E-02 -2.16625571E-02  9.94945587E-03
  4.56706935E-17 -2.45138505E-02 -2.77660123E-01  2.41241905E-01  3.10940919E-01
 -1.10542165E-16 -6.45659380E-03 -1.19802565E-01  1.59726151E-01 -1.51133228E-02
  1.35017741E-16 -1.63340621E-05 -4.63678389E-03  8.66030618E-03  6.88618625E-04
  3.21346351E-18  3.23068357E-04  1.86366768E-02 -8.81151570E-02 -6.75119935E-04
  0.00000000E+00  0.00000000E+00 -1.10885517E+00  4.53573903E-08  1.37598506E-04
 -2.96536913E-04 -1.07521908E-05  8.72120669E-20  1.00310563E-05  1.95336709E-03
 -3.46571244E-03 -7.23342716E-04  3.53839108E-18  3.31777853E-03  4.67294846E-02
 -5.98567976E-02 -1.26773437E-02  9.15890444E-17 -3.35516702E-03  1.59037217E-01
 -1.57607281E-01 -1.18725065E-01  4.63832126E-17  2.01604465E-03  6.65902599E-02
 -1.02171920E-01 -1.64146364E-02 -7.11529288E-17  2.10213717E-06  1.48274313E-03
 -2.96209804E-03 -6.46503244E-04 -1.00793699E-18  3.68939406E-04  5.95224800E-02
  9.72510126E-02  2.99489650E-04  7.18554879E-02  8.38743577E-01  0.00000000E+00
 -1.10885517E+00 -5.62653148E-23  5.47838782E-20 -1.18212741E-19 -1.35445361E-19
 -2.74812592E-05 -1.75484471E-20 -1.82323187E-18  3.31855749E-18  2.82496356E-19
  3.53880843E-04 -5.95667158E-18 -2.99479770E-17  4.56706935E-17 -1.52240212E-17
  8.18491511E-03  7.21433130E-18  8.17142993E-17 -1.10542165E-16 -9.15087086E-17
 -1.34373520E-01 -4.49639746E-18 -8.34309802E-17  1.35017741E-16 -1.05249778E-17
 -3.41523296E-02 -5.55812308E-21 -1.57779586E-18  3.21346351E-18  2.34321814E-19
 -7.83333659E-04 -4.75001509E-19 -7.12622427E-17 -1.56247207E-16 -4.44029761E-19
  0.00000000E+00  0.00000000E+00  0.00000000E+00  0.00000000E+00 -1.10885517E+00
  0.00000000E+00  0.00000000E+00  0.00000000E+00  0.00000000E+00  0.00000000E+00
  0.00000000E+00  7.29652158E-08 -2.93149818E-07 -6.07512521E-08  9.89599147E-23
  0.00000000E+00  1.53712090E-04 -4.19938064E-04 -8.79305879E-05  1.50440664E-19
  0.00000000E+00  7.95993567E-04 -1.84570713E-03  5.56496979E-04 -1.14568083E-18
  0.00000000E+00  1.85568843E-06 -5.92877113E-06  3.17825510E-06 -6.44237121E-21
  0.00000000E+00  1.91343395E-10 -8.87721453E-10  2.70029900E-10 -6.10184516E-25
  3.10727293E-08  1.16501035E-03  2.71007111E-06  0.00000000E+00 -6.44145881E-07
  2.64425215E-02 -2.89706365E-02  3.29362737E-02 -6.12328052E-17  6.86446481E-01
  0.00000000E+00  7.42541888E-06 -1.92102436E-05  7.59388081E-06 -2.62883552E-21
  2.26255929E-07  4.36423972E-04 -9.42593303E-04 -4.92697171E-05  3.18195500E-19
  3.93538850E-04  2.34218137E-02 -3.85232430E-02  2.00130179E-03  1.38007548E-17
 -5.94324297E-04  3.93277728E-03 -3.67876810E-03  3.31795626E-02 -2.28351184E-18
 -8.19107170E-06 -1.71608111E-03  3.06856631E-03 -3.92255669E-04  3.33439137E-18
 -5.73700960E-10 -2.04528429E-05  4.86519065E-05  4.43308582E-06  3.34413908E-20
  1.32875592E-04  7.75489747E-02 -1.72535915E-03 -2.35742311E-06 -4.53344549E-02
 -8.50674470E-02  8.53523880E-02  2.10878466E-01  1.80402186E-16  1.70487489E-01
  6.86446481E-01  0.00000000E+00  1.92146102E-05 -4.75071894E-05  1.96505198E-05
 -6.82138143E-21  9.09960853E-07  9.38020721E-04 -1.91156003E-03 -1.10978925E-04
  6.92694819E-19  1.07616493E-03  3.73816795E-02 -5.69829678E-02  2.33800179E-03
  2.35537001E-17 -1.37839151E-03  7.79094982E-03 -7.55832485E-03  4.87691826E-02
 -5.69030432E-18 -2.61253753E-05 -2.95077316E-03  4.86500127E-03 -7.19059886E-04
  5.91106816E-18 -2.66155945E-09 -4.83648632E-05  1.09097082E-04  1.04607188E-05
  7.94348251E-20  2.65677529E-04  8.98802502E-02 -2.31511568E-03 -5.54083334E-06
 -5.08367621E-02 -3.67051120E-02  7.28900026E-03  1.52340679E-01  1.24003699E-16
  0.00000000E+00  0.00000000E+00  6.86446481E-01  0.00000000E+00  6.96569281E-06
 -1.80206639E-05  2.32680541E-06 -2.46604689E-21  2.11440145E-07  3.76199836E-04
 -8.17497900E-04  3.53867130E-05  2.75966477E-19  2.66360362E-04  1.99762856E-02
 -3.34772200E-02  5.07749024E-03  1.19930428E-17  4.33230894E-04  3.01541400E-02
 -4.39330528E-02  9.71006857E-04 -2.72704459E-17  1.33170906E-05  2.62949454E-03
 -4.74259969E-03  7.96072062E-04 -5.15344361E-18  7.98361670E-10  3.33292092E-05
 -7.93020476E-05  3.78412209E-06 -5.45090821E-20  1.55182144E-04  9.14250769E-02
  2.89181479E-03  3.67841757E-06  5.53959121E-02  3.36248976E-01 -2.72863541E-01
  1.05171317E-02 -5.76728787E-16  7.18554879E-02  8.38743577E-01  0.00000000E+00
  6.86446481E-01  0.00000000E+00  2.62943307E-21 -6.82138143E-21  2.68908534E-21
  2.34012824E-06 -3.07179616E-22 -3.16651913E-19  6.92694819E-19  3.74636596E-20
  1.40415872E-04 -3.85530581E-19 -1.33917955E-17  2.35537001E-17 -8.37577182E-19
  8.76451689E-03 -8.55605263E-19  4.83605537E-18 -5.69030432E-18  3.02723638E-17
  1.60883145E-03 -2.83885753E-20 -3.20639398E-18  5.91106816E-18 -7.81350909E-19
 -5.74823453E-04 -1.82945040E-24 -3.32440887E-20  7.94348251E-20  7.19028321E-21
 -6.46795873E-06 -1.98793756E-19 -1.13738666E-16 -4.34731527E-18 -5.01203687E-21
 -1.07449401E-16 -7.75805174E-17  1.24003699E-16  3.21989718E-16 -5.13799774E-02
  0.00000000E+00  0.00000000E+00  0.00000000E+00  0.00000000E+00  6.86446481E-01
  2.88787661E-08 -9.00097073E-05  1.75364476E-04  1.34667650E-04 -1.29420551E-19
  6.53148996E-07  1.63431699E-05 -3.30601756E-05  1.04910372E-04  5.05658504E-20
  1.24364977E-04 -1.25217777E-03  1.06925836E-03  5.17664322E-03 -2.45640608E-18
 -2.74986349E-03 -1.47719365E-01  1.51227197E-01  1.79432414E-01 -2.16076425E-16
 -2.89951500E-03 -9.21309994E-02  1.32792837E-01  4.04889857E-02 -1.83760621E-17
 -9.46657662E-06 -2.55587180E-03  4.69763447E-03  1.43475440E-03 -8.96930226E-19
  1.00167430E-05  5.56572050E-04 -2.10832753E-01 -6.88698258E-04 -7.55598187E-02
 -1.05390586E+00  2.24553390E-01  1.31886931E+00 -1.87120065E-15  3.18621290E-03
 -1.14767259E-01 -4.57723315E-02  2.09881552E-01 -2.71900794E-16 -3.13067751E+00
  0.00000000E+00  2.00629515E-07 -5.39480111E-07  3.13157967E-07 -3.38001793E-23
  6.31645618E-09  1.82346883E-05 -4.21885125E-05 -1.31026412E-06  1.38664872E-20
  1.09245217E-05  1.45077716E-03 -2.64381724E-03  2.14624723E-04  9.00603194E-19
 -2.79217755E-05 -8.62046519E-04  1.50451942E-03  3.19233942E-03  5.12145004E-19
 -5.97226773E-07 -2.32738242E-04  4.60240656E-04 -3.00215353E-05  3.45978984E-19
  0.00000000E+00 -1.86587302E-06  4.68682652E-06  2.96611036E-07  2.36874761E-21
  6.59527324E-06  7.91769177E-03 -4.17597253E-04 -2.47038313E-07 -6.12773720E-03
 -4.61607839E-02  5.66654596E-02  5.26125654E-02  4.64114049E-17  4.03279828E-02
  2.28071239E-01 -2.16075217E-01  3.05985767E-01  6.34422499E-17 -6.90536276E-02
  2.72072857E-01  1.76137931E-08  7.21191695E-05 -1.54461238E-04  6.98931579E-05
 -8.70801067E-20  1.87397734E-05  3.55233682E-03 -6.50517333E-03  1.14230197E-03
 -1.03285881E-18  2.65553869E-03  8.41071677E-02 -1.19630534E-01  4.41288718E-02
 -4.71664263E-17 -3.74701266E-04  2.60473481E-02 -2.94177846E-02  4.35141300E-02
 -4.81395519E-17 -8.06952047E-06 -2.32510092E-04  3.69538087E-04  2.77133510E-04
  6.78993974E-19 -3.55663950E-08  1.54172370E-06 -2.11933020E-06  2.80187926E-05
 -2.51543363E-21  1.96100773E-03  4.04902198E-01 -2.33798987E-04 -8.56189096E-07
 -5.62822122E-03  7.17276409E-02 -2.82342255E-02  1.57550321E-01 -1.67719409E-16
  4.97567342E-02  8.48611001E-01  1.80259344E-01  1.12775891E+00 -1.50209892E-15
 -2.98735862E-03  2.26814007E-01  2.70826884E+00  5.18231740E-08  2.87243724E-02
  4.69415721E-02  1.12295906E-02 -1.38147229E-17  0.00000000E+00  1.34229085E-03
  3.10891812E-03 -8.77245465E-04  2.16506287E-18  0.00000000E+00  2.69911773E-06
  9.73166188E-06 -1.03541826E-06  3.31147109E-21  0.00000000E+00  1.09649051E-07
  4.41158226E-07  9.63285932E-08 -1.29745468E-22  0.00000000E+00  2.18987355E-06
  6.90323250E-06  4.11026922E-06 -7.04799856E-21  0.00000000E+00  1.10539220E-03
  2.05508417E-03  1.78128890E-03 -3.14455839E-18  1.24884658E-03  2.45685955E-07
  1.84705194E-07  9.61289066E-04  0.00000000E+00  0.00000000E+00  0.00000000E+00
  0.00000000E+00  0.00000000E+00  0.00000000E+00  0.00000000E+00  0.00000000E+00
  0.00000000E+00  0.00000000E+00  0.00000000E+00  0.00000000E+00  0.00000000E+00
  1.10885517E+00  1.47649991E-02  2.44116148E-01  2.61396970E-01  2.69064095E-01
 -7.69281164E-17  2.78595510E-03  8.39729662E-02  1.24143667E-01 -7.19640502E-03
  8.64541409E-17  4.52834930E-06  2.35348704E-03  4.66296190E-03  3.63324086E-04
  1.58670366E-18 -4.75170984E-08  8.53376334E-05  1.81703531E-04  2.12670045E-04
 -5.34393521E-20 -5.45703888E-06 -1.06319452E-03 -1.88127670E-03 -1.57703903E-04
  1.92072850E-18 -2.09502392E-03 -2.01240458E-02 -2.72842375E-02  7.55572701E-03
  4.17485956E-17  7.98071366E-02  3.39157031E-04 -2.03170355E-04 -2.96530155E-02
  0.00000000E+00  0.00000000E+00  0.00000000E+00  3.34186198E-07  0.00000000E+00
  0.00000000E+00  0.00000000E+00  0.00000000E+00  0.00000000E+00  0.00000000E+00
 -1.73348910E-07  0.00000000E+00  3.05403551E-07  2.75397922E-01  1.10885517E+00
 -2.45138505E-02 -2.77660123E-01 -2.41241905E-01 -3.10940919E-01  1.10542165E-16
 -6.45659380E-03 -1.19802565E-01 -1.59726151E-01  1.51133228E-02 -1.35017741E-16
 -1.63340621E-05 -4.63678389E-03 -8.66030618E-03 -6.88618625E-04 -3.21346351E-18
  1.91312319E-07 -1.86275165E-04 -3.74463592E-04 -4.60538900E-04  1.18212741E-19
  1.71880016E-05  1.78578265E-03  2.89651340E-03  2.76693874E-04 -3.31855749E-18
  3.89290321E-03  1.95721007E-02  2.16625571E-02 -9.94945587E-03 -4.56706935E-17
 -8.81151570E-02 -6.75119935E-04  3.23068357E-04  1.86366768E-02  0.00000000E+00
  0.00000000E+00  0.00000000E+00 -9.58769641E-07  0.00000000E+00  0.00000000E+00
  0.00000000E+00  0.00000000E+00  0.00000000E+00  0.00000000E+00  4.47904095E-07
  0.00000000E+00 -8.45532555E-07  0.00000000E+00  0.00000000E+00  1.10885517E+00
 -3.35516702E-03  1.59037217E-01  1.57607281E-01  1.18725065E-01 -4.63832126E-17
  2.01604465E-03  6.65902599E-02  1.02171920E-01  1.64146364E-02  7.11529288E-17
  2.10213717E-06  1.48274313E-03  2.96209804E-03  6.46503244E-04  1.00793699E-18
  4.53573903E-08  1.37598506E-04  2.96536913E-04  1.07521908E-05 -8.72120669E-20
  1.00310563E-05  1.95336709E-03  3.46571244E-03  7.23342716E-04 -3.53839108E-18
  3.31777853E-03  4.67294846E-02  5.98567976E-02  1.26773437E-02 -9.15890444E-17
  9.72510126E-02  2.99489650E-04  3.68939406E-04  5.95224800E-02  0.00000000E+00
  3.34186198E-07  9.58769641E-07  0.00000000E+00 -2.82024824E-22  0.00000000E+00
  0.00000000E+00  0.00000000E+00  0.00000000E+00  0.00000000E+00  3.29657655E-07
  0.00000000E+00  2.25859625E-07  7.18554879E-02  8.38743577E-01  0.00000000E+00
  1.10885517E+00  7.21433130E-18  8.17142993E-17  1.10542165E-16  9.15087086E-17
  1.34373520E-01 -4.49639746E-18 -8.34309802E-17 -1.35017741E-16  1.05249778E-17
  3.41523296E-02 -5.55812308E-21 -1.57779586E-18 -3.21346351E-18 -2.34321814E-19
  7.83333659E-04 -5.62653148E-23  5.47838782E-20  1.18212741E-19  1.35445361E-19
  2.74812592E-05 -1.75484471E-20 -1.82323187E-18 -3.31855749E-18 -2.82496356E-19
 -3.53880843E-04 -5.95667158E-18 -2.99479770E-17 -4.56706935E-17  1.52240212E-17
 -8.18491511E-03 -1.56247207E-16 -4.44029761E-19 -4.75001509E-19 -7.12622427E-17
  0.00000000E+00  0.00000000E+00  0.00000000E+00  2.82024824E-22  0.00000000E+00
  0.00000000E+00  0.00000000E+00  0.00000000E+00  0.00000000E+00  0.00000000E+00
 -2.80569806E-22  0.00000000E+00 -3.06376776E-22  0.00000000E+00  0.00000000E+00
  0.00000000E+00  0.00000000E+00  1.10885517E+00  0.00000000E+00 -7.95993567E-04
 -1.84570713E-03  5.56496979E-04 -1.14568083E-18  0.00000000E+00 -1.85568843E-06
 -5.92877113E-06  3.17825510E-06 -6.44237121E-21  0.00000000E+00 -1.91343395E-10
 -8.87721453E-10  2.70029900E-10 -6.10184516E-25  0.00000000E+00  0.00000000E+00
  0.00000000E+00  0.00000000E+00  0.00000000E+00  0.00000000E+00 -7.29652158E-08
 -2.93149818E-07 -6.07512521E-08  9.89599147E-23  0.00000000E+00 -1.53712090E-04
 -4.19938064E-04 -8.79305879E-05  1.50440664E-19 -2.71007111E-06  0.00000000E+00
 -3.10727293E-08 -1.16501035E-03  0.00000000E+00  0.00000000E+00  0.00000000E+00
  0.00000000E+00  0.00000000E+00  0.00000000E+00  0.00000000E+00  0.00000000E+00
  0.00000000E+00  0.00000000E+00  0.00000000E+00  0.00000000E+00  0.00000000E+00
  6.44145881E-07 -2.64425215E-02 -2.89706365E-02  3.29362737E-02 -6.12328052E-17
 -6.86446481E-01  5.94324297E-04 -3.93277728E-03 -3.67876810E-03  3.31795626E-02
 -2.28351184E-18  8.19107170E-06  1.71608111E-03  3.06856631E-03 -3.92255669E-04
  3.33439137E-18  5.73700960E-10  2.04528429E-05  4.86519065E-05  4.43308582E-06
  3.34413908E-20  0.00000000E+00 -7.42541888E-06 -1.92102436E-05  7.59388081E-06
 -2.62883552E-21 -2.26255929E-07 -4.36423972E-04 -9.42593303E-04 -4.92697171E-05
  3.18195500E-19 -3.93538850E-04 -2.34218137E-02 -3.85232430E-02  2.00130179E-03
  1.38007548E-17  1.72535915E-03  2.35742311E-06 -1.32875592E-04 -7.75489747E-02
  0.00000000E+00  0.00000000E+00  0.00000000E+00  0.00000000E+00  0.00000000E+00
  0.00000000E+00  0.00000000E+00  0.00000000E+00  0.00000000E+00  0.00000000E+00
  0.00000000E+00  0.00000000E+00  0.00000000E+00  4.53344549E-02  8.50674470E-02
  8.53523880E-02  2.10878466E-01  1.80402186E-16 -1.70487489E-01 -6.86446481E-01
 -1.37839151E-03  7.79094982E-03  7.55832485E-03 -4.87691826E-02  5.69030432E-18
 -2.61253753E-05 -2.95077316E-03 -4.86500127E-03  7.19059886E-04 -5.91106816E-18
 -2.66155945E-09 -4.83648632E-05 -1.09097082E-04 -1.04607188E-05 -7.94348251E-20
  0.00000000E+00  1.92146102E-05  4.75071894E-05 -1.96505198E-05  6.82138143E-21
  9.09960853E-07  9.38020721E-04  1.91156003E-03  1.10978925E-04 -6.92694819E-19
  1.07616493E-03  3.73816795E-02  5.69829678E-02 -2.33800179E-03 -2.35537001E-17
 -2.31511568E-03 -5.54083334E-06  2.65677529E-04  8.98802502E-02  0.00000000E+00
  0.00000000E+00  0.00000000E+00  0.00000000E+00  0.00000000E+00  0.00000000E+00
  0.00000000E+00  0.00000000E+00  0.00000000E+00  0.00000000E+00  0.00000000E+00
  0.00000000E+00  0.00000000E+00 -5.08367621E-02 -3.67051120E-02 -7.28900026E-03
 -1.52340679E-01 -1.24003699E-16  0.00000000E+00  0.00000000E+00 -6.86446481E-01
  4.33230894E-04  3.01541400E-02  4.39330528E-02 -9.71006857E-04  2.72704459E-17
  1.33170906E-05  2.62949454E-03  4.74259969E-03 -7.96072062E-04  5.15344361E-18
  7.98361670E-10  3.33292092E-05  7.93020476E-05 -3.78412209E-06  5.45090821E-20
  0.00000000E+00  6.96569281E-06  1.80206639E-05 -2.32680541E-06  2.46604689E-21
  2.11440145E-07  3.76199836E-04  8.17497900E-04 -3.53867130E-05 -2.75966477E-19
  2.66360362E-04  1.99762856E-02  3.34772200E-02 -5.07749024E-03 -1.19930428E-17
  2.89181479E-03  3.67841757E-06  1.55182144E-04  9.14250769E-02  0.00000000E+00
  0.00000000E+00  0.00000000E+00  0.00000000E+00  0.00000000E+00  0.00000000E+00
  0.00000000E+00  0.00000000E+00  0.00000000E+00  0.00000000E+00  0.00000000E+00
  0.00000000E+00  0.00000000E+00  5.53959121E-02  3.36248976E-01  2.72863541E-01
 -1.05171317E-02  5.76728787E-16  7.18554879E-02  8.38743577E-01  0.00000000E+00
 -6.86446481E-01 -8.55605263E-19  4.83605537E-18  5.69030432E-18 -3.02723638E-17
 -1.60883145E-03 -2.83885753E-20 -3.20639398E-18 -5.91106816E-18  7.81350909E-19
  5.74823453E-04 -1.82945040E-24 -3.32440887E-20 -7.94348251E-20 -7.19028321E-21
  6.46795873E-06  0.00000000E+00  2.62943307E-21  6.82138143E-21 -2.68908534E-21
 -2.34012824E-06 -3.07179616E-22 -3.16651913E-19 -6.92694819E-19 -3.74636596E-20
 -1.40415872E-04 -3.85530581E-19 -1.33917955E-17 -2.35537001E-17  8.37577182E-19
 -8.76451689E-03 -4.34731527E-18 -5.01203687E-21 -1.98793756E-19 -1.13738666E-16
  0.00000000E+00  0.00000000E+00  0.00000000E+00  0.00000000E+00  0.00000000E+00
  0.00000000E+00  0.00000000E+00  0.00000000E+00  0.00000000E+00  0.00000000E+00
  0.00000000E+00  0.00000000E+00  0.00000000E+00 -1.07449401E-16 -7.75805174E-17
 -1.24003699E-16 -3.21989718E-16  5.13799774E-02  0.00000000E+00  0.00000000E+00
  0.00000000E+00  0.00000000E+00 -6.86446481E-01  2.74986349E-03  1.47719365E-01
  1.51227197E-01  1.79432414E-01 -2.16076425E-16  2.89951500E-03  9.21309994E-02
  1.32792837E-01  4.04889857E-02 -1.83760621E-17  9.46657662E-06  2.55587180E-03
  4.69763447E-03  1.43475440E-03 -8.96930226E-19 -2.88787661E-08  9.00097073E-05
  1.75364476E-04  1.34667650E-04 -1.29420551E-19 -6.53148996E-07 -1.63431699E-05
 -3.30601756E-05  1.04910372E-04  5.05658504E-20 -1.24364977E-04  1.25217777E-03
  1.06925836E-03  5.17664322E-03 -2.45640608E-18  2.10832753E-01  6.88698258E-04
 -1.00167430E-05 -5.56572050E-04  0.00000000E+00  1.73348910E-07  4.47904095E-07
  3.29657655E-07 -2.80569806E-22  0.00000000E+00  0.00000000E+00  0.00000000E+00
  0.00000000E+00  0.00000000E+00  0.00000000E+00  0.00000000E+00  8.27644978E-07
  7.55598187E-02  1.05390586E+00  2.24553390E-01  1.31886931E+00 -1.87120065E-15
 -3.18621290E-03  1.14767259E-01 -4.57723315E-02  2.09881552E-01 -2.71900794E-16
  3.13067751E+00  2.79217755E-05  8.62046519E-04  1.50451942E-03  3.19233942E-03
  5.12145004E-19  5.97226773E-07  2.32738242E-04  4.60240656E-04 -3.00215353E-05
  3.45978984E-19  0.00000000E+00  1.86587302E-06  4.68682652E-06  2.96611036E-07
  2.36874761E-21  0.00000000E+00 -2.00629515E-07 -5.39480111E-07  3.13157967E-07
 -3.38001793E-23 -6.31645618E-09 -1.82346883E-05 -4.21885125E-05 -1.31026412E-06
  1.38664872E-20 -1.09245217E-05 -1.45077716E-03 -2.64381724E-03  2.14624723E-04
  9.00603194E-19  4.17597253E-04  2.47038313E-07 -6.59527324E-06 -7.91769177E-03
  0.00000000E+00  0.00000000E+00  0.00000000E+00  0.00000000E+00  0.00000000E+00
  0.00000000E+00  0.00000000E+00  0.00000000E+00  0.00000000E+00  0.00000000E+00
  0.00000000E+00  0.00000000E+00  0.00000000E+00  6.12773720E-03  4.61607839E-02
  5.66654596E-02  5.26125654E-02  4.64114049E-17 -4.03279828E-02 -2.28071239E-01
 -2.16075217E-01  3.05985767E-01  6.34422499E-17  6.90536276E-02 -2.72072857E-01
  3.74701266E-04 -2.60473481E-02 -2.94177846E-02  4.35141300E-02 -4.81395519E-17
  8.06952047E-06  2.32510092E-04  3.69538087E-04  2.77133510E-04  6.78993974E-19
  3.55663950E-08 -1.54172370E-06 -2.11933020E-06  2.80187926E-05 -2.51543363E-21
 -1.76137931E-08 -7.21191695E-05 -1.54461238E-04  6.98931579E-05 -8.70801067E-20
 -1.87397734E-05 -3.55233682E-03 -6.50517333E-03  1.14230197E-03 -1.03285881E-18
 -2.65553869E-03 -8.41071677E-02 -1.19630534E-01  4.41288718E-02 -4.71664263E-17
  2.33798987E-04  8.56189096E-07 -1.96100773E-03 -4.04902198E-01  0.00000000E+00
 -3.05403551E-07 -8.45532555E-07  2.25859625E-07 -3.06376776E-22  0.00000000E+00
  0.00000000E+00  0.00000000E+00  0.00000000E+00  0.00000000E+00 -8.27644978E-07
  0.00000000E+00  0.00000000E+00  5.62822122E-03 -7.17276409E-02 -2.82342255E-02
  1.57550321E-01 -1.67719409E-16 -4.97567342E-02 -8.48611001E-01  1.80259344E-01
  1.12775891E+00 -1.50209892E-15  2.98735862E-03 -2.26814007E-01 -2.70826884E+00
Multipole Matrix (0,0,1)                   R   N=        1830
 -7.59359635E-16 -1.88596374E-16 -7.59359635E-16  0.00000000E+00  0.00000000E+00
 -7.59359635E-16  0.00000000E+00  0.00000000E+00  0.00000000E+00 -7.59359635E-16
  7.18554879E-02  8.38743577E-01  0.00000000E+00  0.00000000E+00 -7.59359635E-16
 -2.58187653E-21 -1.74331331E-16  1.89115804E-16 -2.13466621E-16  2.56497136E-03
 -4.80205391E-15 -3.67149097E-17 -1.02071784E-15  6.71138745E-16 -7.57555515E-16
  2.69819690E-01 -1.19264959E-15 -4.80205391E-15 -4.29063493E-17 -7.65831895E-16
  6.63748853E-17 -7.49449716E-16  1.87858434E-01  0.00000000E+00  0.00000000E+00
 -4.80205391E-15  4.84310313E-17  8.64441489E-16 -7.49449716E-16  2.48367202E-16
 -2.12047351E-01  0.00000000E+00  0.00000000E+00  0.00000000E+00 -4.80205391E-15
  2.56497136E-03  2.69819690E-01 -1.87858434E-01  2.12047351E-01 -5.97582715E-16
  7.18554879E-02  8.38743577E-01  0.00000000E+00  0.00000000E+00 -4.80205391E-15
  0.00000000E+00 -7.16888258E-18  1.56582164E-17 -5.23036630E-18  1.01330663E-04
 -4.13863082E-21 -1.55061139E-16  2.52592882E-16  5.15281249E-17  2.56851859E-03
 -4.04262387E-15 -1.67913538E-18 -1.47122806E-16  1.98098405E-16 -6.61714716E-17
  4.04238045E-02 -1.80939955E-16 -1.62430934E-15  1.70221622E-15  3.47246561E-16
  2.69999593E-01 -1.00403573E-15 -4.04262387E-15 -3.66313659E-18 -2.12468907E-16
  2.54653976E-16 -1.05643902E-16  5.55671733E-02 -2.93216782E-16 -1.67591594E-15
  1.35502161E-15  4.70450659E-16  2.77712217E-01  0.00000000E+00  0.00000000E+00
 -4.04262387E-15  1.22360974E-18  7.09716983E-17 -1.05643902E-16 -2.63249769E-17
 -1.85612884E-02 -5.98152680E-17 -3.41881391E-16  4.70450659E-16 -8.55175508E-16
  5.66523874E-02  0.00000000E+00  0.00000000E+00  0.00000000E+00 -4.04262387E-15
  1.01330663E-04  4.04238045E-02 -5.55671733E-02  1.85612884E-02 -6.16135621E-17
  2.56851859E-03  2.69999593E-01 -2.77712217E-01 -5.66523874E-02 -9.51145910E-16
  7.18554879E-02  8.38743577E-01  0.00000000E+00  0.00000000E+00 -4.04262387E-15
  0.00000000E+00  2.90718893E-19 -7.56421793E-19 -1.54276559E-19  2.34975779E-05
  0.00000000E+00  9.26132617E-19 -1.60070784E-18 -1.41781250E-18  1.01457197E-04
 -1.53128021E-21  1.94456367E-17 -8.76853305E-18 -2.62533964E-17  2.56704084E-03
  7.59359635E-16 -2.90718893E-19  1.92592994E-34  1.16130133E-18  2.36854061E-19
  1.68668986E-02 -8.38446036E-18 -1.23949972E-16  1.46101274E-16  1.29407883E-16
  4.04545156E-02 -1.44118050E-16 -6.02811759E-16  2.29563552E-16  6.87323968E-16
  2.69924669E-01  1.88596374E-16  7.59359635E-16 -7.56421793E-19  1.16130133E-18
  0.00000000E+00  3.85185989E-34  2.63135807E-02 -1.44529889E-17 -1.26872403E-16
  1.14034862E-16  1.46987040E-16  4.38849454E-02 -7.42475060E-17 -1.75809752E-16
 -2.63481981E-16  2.67898389E-16  8.97710268E-02  0.00000000E+00  0.00000000E+00
  7.59359635E-16 -1.54276559E-19  2.36854061E-19 -1.92592994E-34  4.81482486E-35
  5.36680554E-03 -1.28016043E-17 -1.12376084E-16  1.46987040E-16  7.82791933E-17
  3.88706938E-02 -2.22300491E-16 -5.26382587E-16  2.67898389E-16  4.49141245E-16
  2.68778636E-01  0.00000000E+00  0.00000000E+00  0.00000000E+00  7.59359635E-16
  2.34975779E-05  1.68668986E-02 -2.63135807E-02 -5.36680554E-03  1.15555797E-33
  1.01457197E-04  4.04545156E-02 -4.38849454E-02 -3.88706938E-02 -5.19132489E-17
  2.56704084E-03  2.69924669E-01 -8.97710268E-02 -2.68778636E-01 -3.52959009E-16
  7.18554879E-02  8.38743577E-01  0.00000000E+00  0.00000000E+00  7.59359635E-16
  0.00000000E+00  8.38446036E-18 -1.44529889E-17 -1.28016043E-17  1.01457197E-04
  0.00000000E+00  1.84040989E-18 -1.54729593E-18 -4.63527798E-18  2.35223426E-05
  0.00000000E+00  8.09509336E-18  3.72972016E-18 -1.82703946E-17  1.01344527E-04
  2.58187653E-21  1.74331331E-16  1.89115804E-16 -2.13466621E-16  2.56497136E-03
  4.80205391E-15 -9.26132617E-19  1.23949972E-16 -1.26872403E-16 -1.12376084E-16
  4.04545156E-02 -1.84040989E-18  2.31111593E-33  2.37506198E-18  7.11504002E-18
  1.68773487E-02 -6.69559345E-18  2.32692170E-17  2.76455508E-18 -1.35424402E-17
  4.04271700E-02  3.67149097E-17  1.02071784E-15  6.71138745E-16 -7.57555515E-16
  2.69819690E-01  1.19264959E-15  4.80205391E-15 -1.60070784E-18  1.46101274E-16
 -1.14034862E-16 -1.46987040E-16  4.38849454E-02 -1.54729593E-18  2.37506198E-18
  9.62964972E-35  0.00000000E+00  8.50804914E-03  3.08526837E-18 -1.09289510E-17
  7.52059381E-18  1.08964830E-17 -1.17187881E-02 -4.29063493E-17 -7.65831895E-16
 -6.63748853E-17  7.49449716E-16 -1.87858434E-01  0.00000000E+00  0.00000000E+00
  4.80205391E-15 -1.41781250E-18  1.29407883E-16 -1.46987040E-16 -7.82791933E-17
  3.88706938E-02 -4.63527798E-18  7.11504002E-18 -3.08148791E-33 -6.16297582E-33
  2.54878022E-02 -1.51134852E-17  5.35365223E-17  1.08964830E-17 -4.36324719E-17
  5.74056159E-02  4.84310313E-17  8.64441489E-16  7.49449716E-16 -2.48367202E-16
  2.12047351E-01  0.00000000E+00  0.00000000E+00  0.00000000E+00  4.80205391E-15
  1.01457197E-04  4.04545156E-02 -4.38849454E-02 -3.88706938E-02  5.19132489E-17
  2.35223426E-05  1.68773487E-02 -8.50804914E-03 -2.54878022E-02  1.54074396E-33
  1.01344527E-04  4.04271700E-02  1.17187881E-02 -5.74056159E-02  9.74500293E-18
  2.56497136E-03  2.69819690E-01  1.87858434E-01 -2.12047351E-01  5.97582715E-16
  7.18554879E-02  8.38743577E-01  0.00000000E+00  0.00000000E+00  4.80205391E-15
  1.53128021E-21  1.44118050E-16 -7.42475060E-17 -2.22300491E-16  2.56704084E-03
  0.00000000E+00  6.69559345E-18  3.08526837E-18 -1.51134852E-17  1.01344527E-04
  0.00000000E+00  1.54717947E-18  2.72411633E-18 -3.07567827E-18  2.34896254E-05
  0.00000000E+00  7.16888258E-18  1.56582164E-17 -5.23036630E-18  1.01330663E-04
  4.13863082E-21  1.55061139E-16  2.52592882E-16  5.15281249E-17  2.56851859E-03
  4.04262387E-15 -1.94456367E-17  6.02811759E-16 -1.75809752E-16 -5.26382587E-16
  2.69924669E-01 -8.09509336E-18 -2.32692170E-17 -1.09289510E-17  5.35365223E-17
  4.04271700E-02 -1.54717947E-18 -7.70371978E-34 -4.18246230E-18  4.72223167E-18
  1.68635419E-02  1.67913538E-18  1.47122806E-16  1.98098405E-16 -6.61714716E-17
  4.04238045E-02  1.80939955E-16  1.62430934E-15  1.70221622E-15  3.47246561E-16
  2.69999593E-01  1.00403573E-15  4.04262387E-15 -8.76853305E-18  2.29563552E-16
  2.63481981E-16 -2.67898389E-16  8.97710268E-02  3.72972016E-18  2.76455508E-18
 -7.52059381E-18 -1.08964830E-17 -1.17187881E-02  2.72411633E-18 -4.18246230E-18
  6.16297582E-33 -6.16297582E-33 -1.78026033E-02 -3.66313659E-18 -2.12468907E-16
 -2.54653976E-16  1.05643902E-16 -5.55671733E-02 -2.93216782E-16 -1.67591594E-15
 -1.35502161E-15 -4.70450659E-16 -2.77712217E-01  0.00000000E+00  0.00000000E+00
  4.04262387E-15 -2.62533964E-17  6.87323968E-16 -2.67898389E-16 -4.49141245E-16
  2.68778636E-01 -1.82703946E-17 -1.35424402E-17 -1.08964830E-17  4.36324719E-17
  5.74056159E-02 -3.07567827E-18  4.72223167E-18  0.00000000E+00 -1.54074396E-33
  2.01001255E-02  1.22360974E-18  7.09716983E-17  1.05643902E-16  2.63249769E-17
  1.85612884E-02 -5.98152680E-17 -3.41881391E-16 -4.70450659E-16  8.55175508E-16
 -5.66523874E-02  0.00000000E+00  0.00000000E+00  0.00000000E+00  4.04262387E-15
  2.56704084E-03  2.69924669E-01 -8.97710268E-02 -2.68778636E-01  3.52959009E-16
  1.01344527E-04  4.04271700E-02  1.17187881E-02 -5.74056159E-02 -9.74500293E-18
  2.34896254E-05  1.68635419E-02  1.78026033E-02 -2.01001255E-02 -1.54074396E-33
  1.01330663E-04  4.04238045E-02  5.55671733E-02 -1.85612884E-02  6.16135621E-17
  2.56851859E-03  2.69999593E-01  2.77712217E-01  5.66523874E-02  9.51145910E-16
  7.18554879E-02  8.38743577E-01  0.00000000E+00  0.00000000E+00  4.04262387E-15
 -5.48250643E-18 -4.26684531E-16  1.45278967E-16 -5.25903600E-16  6.88213560E-02
 -3.06968844E-16 -3.29250244E-15 -9.90477572E-16 -2.96355676E-15  3.49417246E-01
 -2.22433479E-17 -5.92107380E-16 -6.03610582E-16 -4.65154722E-16  6.88317426E-02
  3.89581166E-20 -2.11981332E-17 -2.16510803E-17 -2.65467444E-17  4.61570853E-03
  5.25560400E-20 -1.74000172E-18 -8.83669257E-19 -2.64631274E-18  1.30153776E-03
  3.30076495E-19 -9.18578862E-18  5.53703051E-19 -1.40187982E-17  4.61470796E-03
 -8.58735257E-15 -9.11305220E-20 -2.29398441E-17  3.31202693E-17 -1.74160897E-17
  4.61145630E-03 -2.58626971E-17 -5.68850067E-16  7.10081982E-16 -1.84408293E-16
  6.88261926E-02 -2.58405947E-16 -2.77162999E-15  1.74442458E-15 -1.96875184E-15
  3.49406516E-01  2.52335163E-18 -2.88837430E-16  4.87401379E-17 -3.63973785E-16
  6.88382076E-02  4.01722795E-19 -2.61560766E-18  1.13479499E-18 -2.98581569E-18
  4.61336451E-03  4.41731286E-20 -1.46307440E-18  1.55560834E-18 -1.75616623E-18
  1.30023861E-03 -3.95459651E-16 -7.22893583E-15 -3.89581166E-20  2.11981332E-17
 -2.16510803E-17 -2.65467444E-17  4.61570853E-03 -5.25560400E-20  1.74000172E-18
 -8.83669257E-19 -2.64631274E-18  1.30153776E-03 -3.30076495E-19  9.18578862E-18
  5.53703051E-19 -1.40187982E-17  4.61470796E-03  5.48250643E-18  4.26684531E-16
  1.45278967E-16 -5.25903600E-16  6.88213560E-02  3.06968844E-16  3.29250244E-15
 -9.90477572E-16 -2.96355676E-15  3.49417246E-01  2.22433479E-17  5.92107380E-16
 -6.03610582E-16 -4.65154722E-16  6.88317426E-02  0.00000000E+00  5.17310296E-19
  8.58735257E-15 -2.52335163E-18  2.88837430E-16  4.87401379E-17 -3.63973785E-16
  6.88382076E-02 -4.01722795E-19  2.61560766E-18  1.13479499E-18 -2.98581569E-18
  4.61336451E-03 -4.41731286E-20  1.46307440E-18  1.55560834E-18 -1.75616623E-18
  1.30023861E-03  9.11305220E-20  2.29398441E-17  3.31202693E-17 -1.74160897E-17
  4.61145630E-03  2.58626971E-17  5.68850067E-16  7.10081982E-16 -1.84408293E-16
  6.88261926E-02  2.58405947E-16  2.77162999E-15  1.74442458E-15 -1.96875184E-15
  3.49406516E-01 -5.17310296E-19 -8.27548023E-36  3.95459651E-16  7.22893583E-15
  0.00000000E+00  1.58077988E-22 -6.36005532E-22 -1.29751844E-22  6.32765727E-09
  0.00000000E+00  3.01972404E-21 -9.52302886E-21 -5.48226471E-21  1.36181928E-07
  0.00000000E+00  1.52993083E-18 -2.84538439E-18 -2.37885424E-18  6.31570064E-05
  7.47083563E-23  4.14108392E-17 -6.76738376E-17 -1.38128988E-17  1.64835203E-03
  0.00000000E+00  1.99876498E-18 -4.62834839E-18  1.39994124E-18  6.31121590E-05
  0.00000000E+00  4.02838667E-21 -1.45207940E-20  1.74788147E-21  1.35990924E-07
  2.49874299E-22  1.30881666E-18  1.87744537E-18  3.70586071E-22  1.59859989E-15
 -6.84929411E-23  1.23044192E-19 -2.61990075E-19 -5.34487414E-20  1.75600606E-04
 -1.05419881E-20 -2.44788038E-18  4.30616531E-18  2.47899470E-18  9.25318841E-04
 -4.32753296E-18 -5.68889136E-17  7.32868316E-17  6.12706987E-17  3.03664320E-02
  2.12834963E-17  3.51918163E-16 -3.76828185E-16 -7.69143551E-17  2.15710392E-01
  5.32263219E-18  1.48925099E-16 -2.21315371E-16  6.69414854E-17  3.03534562E-02
  9.19946398E-21  4.30739772E-18 -8.54728922E-18  1.02884515E-18  9.24609145E-04
 -4.38150865E-19 -7.20554202E-17  1.44355909E-16  6.34093067E-19  3.97032089E-16
  1.59859989E-15 -2.75764844E-22  2.68580549E-19 -5.39920880E-19 -1.18233253E-19
  3.78537907E-04 -3.32025004E-20 -4.13680770E-18  6.66888157E-18  4.30822528E-18
  1.59450928E-03 -8.04073773E-18 -5.91719289E-17  6.12381499E-17  7.05418401E-17
  3.49031267E-02  3.53363943E-17  4.00277236E-16 -3.47774651E-16 -1.10522988E-16
  2.34274100E-01  1.23359781E-17  2.11320494E-16 -2.83272510E-16  1.04002021E-16
  4.35292983E-02  3.31852008E-20  8.47328630E-18 -1.58502607E-17  2.08048311E-18
  1.82535833E-03 -6.98610069E-19 -4.56759623E-17  1.59136391E-16  1.26081711E-18
  0.00000000E+00  0.00000000E+00  1.59859989E-15 -5.62589397E-23  5.47932675E-20
 -1.18233253E-19  1.55030621E-20  7.72257295E-05 -1.91141809E-20 -2.38149807E-18
  4.30822528E-18  1.66541156E-18  9.17935050E-04 -6.72237573E-18 -4.94700800E-17
  7.05418401E-17  3.58377393E-17  2.91803986E-02  7.21250716E-18  8.17005381E-17
 -1.10522988E-16  1.71154211E-16  4.78176581E-02 -3.73127583E-18 -6.39183247E-17
  1.04002021E-16  2.91111707E-17 -1.31663511E-02 -3.99453347E-21 -1.01993735E-18
  2.08048311E-18  1.18324280E-18 -2.19720079E-04 -5.62684295E-19 -9.17563644E-17
 -1.35756723E-16 -3.56411363E-19  0.00000000E+00  0.00000000E+00  0.00000000E+00
  1.59859989E-15  6.32765727E-09  1.75600606E-04 -3.78537907E-04 -7.72257295E-05
  3.96238940E-20  1.36181928E-07  9.25318841E-04 -1.59450928E-03 -9.17935050E-04
 -8.14769035E-19  6.31570064E-05  3.03664320E-02 -3.49031267E-02 -2.91803986E-02
 -2.31380375E-17  1.64835203E-03  2.15710392E-01 -2.34274100E-01 -4.78176581E-02
  1.93713044E-16  6.31121590E-05  3.03534562E-02 -4.35292983E-02  1.31663511E-02
  6.05687677E-17  1.35990924E-07  9.24609145E-04 -1.82535833E-03  2.19720079E-04
  1.43367249E-18  1.08729170E-04  2.20841071E-02  2.20813743E-02  1.08644829E-04
  7.18554879E-02  8.38743577E-01  0.00000000E+00  0.00000000E+00  1.59859989E-15
  0.00000000E+00  0.00000000E+00  0.00000000E+00  0.00000000E+00  0.00000000E+00
  0.00000000E+00 -2.09479024E-22  8.41932751E-22  1.90478613E-22  5.57087484E-09
  0.00000000E+00 -4.50058520E-19  1.22995761E-18  2.91265274E-19  1.15146084E-05
  0.00000000E+00 -2.47992047E-18  5.74939097E-18 -1.51654448E-18  6.96459408E-05
  0.00000000E+00 -6.14690565E-21  1.96239195E-20 -9.85134387E-21  2.01970823E-07
  0.00000000E+00 -5.93556315E-25  2.75372338E-24 -8.20187385E-25  5.62500714E-12
 -8.77079632E-23 -3.37157920E-18 -9.28331757E-21  0.00000000E+00 -7.58051686E-22
 -8.49662950E-17  9.49787076E-17 -9.75567173E-17  3.17928639E-03 -2.09570409E-15
  0.00000000E+00 -1.74738460E-20  4.51933140E-20 -7.38842042E-22  7.27982250E-06
 -4.38205644E-22 -9.44669586E-19  2.03877034E-18  4.61250792E-19  1.63982309E-04
 -8.12868372E-19 -5.40520558E-17  8.84488629E-17  2.09455043E-17  1.11239601E-02
  7.91841116E-19 -3.29194434E-17  4.31653381E-17 -1.13859287E-17  3.22091962E-02
  1.55999949E-20  2.56058194E-18 -4.61824425E-18  2.31839068E-18  1.14818593E-03
  1.17198673E-24  3.09410547E-20 -7.37146845E-20  2.19556745E-20  1.89238949E-05
 -2.80676826E-19 -1.73670682E-16  2.81085728E-18  4.01100058E-21  6.27336574E-17
 -1.00110120E-16  2.17683408E-17 -2.23591995E-17  2.98547576E-01 -5.20494076E-16
 -2.09570409E-15  0.00000000E+00 -4.52298647E-20  1.11796159E-19 -1.91772685E-21
  1.88355919E-05 -1.76228272E-21 -2.03194755E-18  4.13770264E-18  1.00487585E-18
  3.53259487E-04 -2.22269741E-18 -8.67219059E-17  1.31503333E-16  3.59310083E-17
  1.79076109E-02  1.83771004E-18 -5.28423182E-17  6.32672102E-17 -2.02404926E-17
  4.63511177E-02  4.97594764E-20  4.36327289E-18 -7.25911748E-18  4.07469867E-18
  2.01176990E-03  5.43718499E-24  7.30522561E-20 -1.65042033E-19  5.20715709E-20
  4.48813832E-05 -5.61691177E-19 -2.01718730E-16  3.74704056E-18  9.41838276E-21
  6.92459445E-17 -1.21872869E-16  8.57793103E-18 -7.09175996E-17  2.12602110E-01
  0.00000000E+00  0.00000000E+00 -2.09570409E-15  0.00000000E+00  7.39439590E-22
 -1.91772685E-21 -5.47554825E-21 -3.07933318E-07 -3.98698314E-22 -4.59707204E-19
  1.00487585E-18 -7.65969645E-20  7.99213206E-05 -5.26355192E-19 -2.05365450E-17
  3.59310083E-17 -1.17176573E-17  4.24068698E-03 -4.84741609E-19  1.39384722E-17
 -2.02404926E-17 -8.12784528E-18 -1.22262570E-02 -2.49796027E-20 -2.19039329E-18
  4.07469867E-18 -1.18782716E-18 -1.00992246E-03 -1.61944753E-24 -2.17583724E-20
  5.20715709E-20 -5.72461879E-21 -1.33677713E-05 -2.45028796E-19 -1.41343184E-16
 -3.39691595E-18 -3.85127713E-21 -7.11254891E-17  1.25180868E-16 -7.09175996E-17
  1.23769004E-17 -2.18372775E-01  0.00000000E+00  0.00000000E+00  0.00000000E+00
 -2.09570409E-15  0.00000000E+00  7.27982250E-06 -1.88355919E-05  3.07933318E-07
 -5.50690017E-21  5.57087484E-09  1.63982309E-04 -3.53259487E-04 -7.99213206E-05
 -3.03939775E-19  1.15146084E-05  1.11239601E-02 -1.79076109E-02 -4.24068698E-03
 -2.02264506E-17  6.96459408E-05  3.22091962E-02 -4.63511177E-02  1.22262570E-02
 -1.34667773E-17  2.01970823E-07  1.14818593E-03 -2.01176990E-03  1.00992246E-03
  8.57699874E-19  5.62500714E-12  1.89238949E-05 -4.48813832E-05  1.33677713E-05
  9.78472606E-21  3.92845695E-05  2.84464891E-02  7.93024218E-04  1.41271175E-06
  3.17928639E-03  2.98547576E-01 -2.12602110E-01  2.18372775E-01 -6.04656176E-17
  7.18554879E-02  8.38743577E-01  0.00000000E+00  0.00000000E+00 -2.09570409E-15
 -3.88667633E-23  1.66431308E-19 -3.24533670E-19 -1.39872823E-19  5.90862036E-05
 -1.25988909E-21 -7.34421756E-20  1.29168533E-19  1.07948630E-19  1.32539397E-04
 -2.57044333E-19  4.38707527E-19  1.64785470E-20  2.02408938E-20  3.86325406E-03
  4.11916488E-18  2.52221768E-16 -2.58043609E-16 -2.02366322E-16  6.08350507E-02
  5.54826877E-18  1.69361672E-16 -2.44281612E-16 -3.03849767E-17  2.39715440E-02
  1.92361258E-20  4.83225798E-18 -8.89101472E-18 -1.34482120E-18  7.24208006E-04
 -2.30453681E-20 -2.41230704E-18  3.90803571E-16  1.31673923E-18  1.12763769E-16
  1.77156547E-15 -3.76753543E-16 -1.62553502E-15  3.50014722E-01 -1.05582971E-17
  1.54188594E-16  6.08512782E-17 -1.81571619E-16  7.33033803E-02  5.50345343E-15
  0.00000000E+00 -5.19094627E-22  1.39581271E-21  3.01338017E-23  3.24804648E-07
 -1.22294243E-23 -3.99899335E-20  9.24464892E-20  2.04945730E-20  8.04255779E-06
 -2.25763217E-20 -3.44232108E-18  6.25116055E-18  1.42407533E-18  8.16912073E-04
  3.80110682E-20 -1.01606137E-18  1.55170524E-18 -1.86880427E-19  3.37353700E-03
  1.13799074E-21  3.72674854E-19 -7.39656121E-19  2.44651439E-19  1.22209394E-04
  0.00000000E+00  3.06957312E-21 -7.71731361E-21  1.58055634E-21  1.25650379E-06
 -1.40242800E-20 -1.81806301E-17  7.04982063E-19  4.34675137E-22  8.60742007E-18
  1.30098307E-17 -1.80547955E-17  6.59325781E-18  7.33056817E-02 -1.25705456E-16
 -8.66438671E-16  8.14919256E-16  1.66047944E-16  3.50013253E-01  9.67427758E-17
 -1.49860446E-15 -2.76796389E-23 -1.48336262E-19  3.17484147E-19 -7.44972709E-20
  3.36490152E-05 -3.62107320E-20 -7.29263666E-18  1.33405337E-17 -3.67689393E-19
  9.63007553E-04 -5.46121217E-18 -1.79757353E-16  2.55523437E-16 -3.78117609E-17
  2.64262250E-02  4.72695431E-19 -6.40810977E-17  7.26928895E-17 -5.69279917E-17
  2.04761766E-02  1.53962312E-20  1.50240448E-19 -2.97997097E-19  2.63998663E-19
  6.04511064E-04  7.25201839E-23 -1.08105131E-20  1.92116303E-20 -1.06294029E-20
  2.68462105E-05 -3.98461048E-18 -8.58843281E-16  3.43078009E-19  1.28178483E-21
  7.68446248E-18 -2.04839005E-16  8.14906867E-17 -2.43156700E-16  7.33033790E-02
 -1.43129668E-16 -2.01316307E-15 -4.28880201E-16 -1.85043991E-15  3.50014718E-01
 -3.51562056E-18 -5.70711411E-16 -6.00055767E-15 -7.47083563E-23 -4.14108392E-17
 -6.76738376E-17 -1.38128988E-17  1.64835203E-03  0.00000000E+00 -1.99876498E-18
 -4.62834839E-18  1.39994124E-18  6.31121590E-05  0.00000000E+00 -4.02838667E-21
 -1.45207940E-20  1.74788147E-21  1.35990924E-07  0.00000000E+00 -1.58077988E-22
 -6.36005532E-22 -1.29751844E-22  6.32765727E-09  0.00000000E+00 -3.01972404E-21
 -9.52302886E-21 -5.48226471E-21  1.36181928E-07  0.00000000E+00 -1.52993083E-18
 -2.84538439E-18 -2.37885424E-18  6.31570064E-05 -1.87744537E-18 -3.70586071E-22
 -2.49874299E-22 -1.30881666E-18  0.00000000E+00  0.00000000E+00  0.00000000E+00
  0.00000000E+00  0.00000000E+00  0.00000000E+00  0.00000000E+00  0.00000000E+00
  0.00000000E+00  0.00000000E+00  0.00000000E+00  0.00000000E+00  0.00000000E+00
 -1.59859989E-15 -2.12834963E-17 -3.51918163E-16 -3.76828185E-16 -7.69143551E-17
  2.15710392E-01 -5.32263219E-18 -1.48925099E-16 -2.21315371E-16  6.69414854E-17
  3.03534562E-02 -9.19946398E-21 -4.30739772E-18 -8.54728922E-18  1.02884515E-18
  9.24609145E-04  6.84929411E-23 -1.23044192E-19 -2.61990075E-19 -5.34487414E-20
  1.75600606E-04  1.05419881E-20  2.44788038E-18  4.30616531E-18  2.47899470E-18
  9.25318841E-04  4.32753296E-18  5.68889136E-17  7.32868316E-17  6.12706987E-17
  3.03664320E-02 -1.44355909E-16 -6.34093067E-19  4.38150865E-19  7.20554202E-17
  0.00000000E+00  0.00000000E+00  0.00000000E+00  0.00000000E+00  3.34186198E-07
  0.00000000E+00  0.00000000E+00  0.00000000E+00  0.00000000E+00  0.00000000E+00
  3.52624439E-22  0.00000000E+00 -5.93880396E-22 -3.97032089E-16 -1.59859989E-15
  3.53363943E-17  4.00277236E-16  3.47774651E-16  1.10522988E-16 -2.34274100E-01
  1.23359781E-17  2.11320494E-16  2.83272510E-16 -1.04002021E-16 -4.35292983E-02
  3.31852008E-20  8.47328630E-18  1.58502607E-17 -2.08048311E-18 -1.82535833E-03
 -2.75764844E-22  2.68580549E-19  5.39920880E-19  1.18233253E-19 -3.78537907E-04
 -3.32025004E-20 -4.13680770E-18 -6.66888157E-18 -4.30822528E-18 -1.59450928E-03
 -8.04073773E-18 -5.91719289E-17 -6.12381499E-17 -7.05418401E-17 -3.49031267E-02
  1.59136391E-16  1.26081711E-18 -6.98610069E-19 -4.56759623E-17  0.00000000E+00
  0.00000000E+00  0.00000000E+00  0.00000000E+00 -9.58769641E-07  0.00000000E+00
  0.00000000E+00  0.00000000E+00  0.00000000E+00  0.00000000E+00 -9.11121563E-22
  0.00000000E+00  1.64420226E-21  0.00000000E+00  0.00000000E+00 -1.59859989E-15
  7.21250716E-18  8.17005381E-17  1.10522988E-16 -1.71154211E-16 -4.78176581E-02
 -3.73127583E-18 -6.39183247E-17 -1.04002021E-16 -2.91111707E-17  1.31663511E-02
 -3.99453347E-21 -1.01993735E-18 -2.08048311E-18 -1.18324280E-18  2.19720079E-04
 -5.62589397E-23  5.47932675E-20  1.18233253E-19 -1.55030621E-20 -7.72257295E-05
 -1.91141809E-20 -2.38149807E-18 -4.30822528E-18 -1.66541156E-18 -9.17935050E-04
 -6.72237573E-18 -4.94700800E-17 -7.05418401E-17 -3.58377393E-17 -2.91803986E-02
 -1.35756723E-16 -3.56411363E-19 -5.62684295E-19 -9.17563644E-17  0.00000000E+00
  0.00000000E+00  0.00000000E+00  0.00000000E+00 -1.95624113E-07  0.00000000E+00
  0.00000000E+00  0.00000000E+00  0.00000000E+00  0.00000000E+00 -3.40695411E-22
  0.00000000E+00 -2.16468984E-22  0.00000000E+00  0.00000000E+00  0.00000000E+00
 -1.59859989E-15  1.64835203E-03  2.15710392E-01  2.34274100E-01  4.78176581E-02
 -1.93713044E-16  6.31121590E-05  3.03534562E-02  4.35292983E-02 -1.31663511E-02
 -6.05687677E-17  1.35990924E-07  9.24609145E-04  1.82535833E-03 -2.19720079E-04
 -1.43367249E-18  6.32765727E-09  1.75600606E-04  3.78537907E-04  7.72257295E-05
 -3.96238940E-20  1.36181928E-07  9.25318841E-04  1.59450928E-03  9.17935050E-04
  8.14769035E-19  6.31570064E-05  3.03664320E-02  3.49031267E-02  2.91803986E-02
  2.31380375E-17  2.20813743E-02  1.08644829E-04  1.08729170E-04  2.20841071E-02
  0.00000000E+00  3.34186198E-07  9.58769641E-07  1.95624113E-07  0.00000000E+00
  0.00000000E+00  0.00000000E+00  0.00000000E+00  0.00000000E+00  0.00000000E+00
  1.62173013E-07  0.00000000E+00  1.14540247E-07  7.18554879E-02  8.38743577E-01
  0.00000000E+00  0.00000000E+00 -1.59859989E-15  0.00000000E+00  2.47992047E-18
  5.74939097E-18 -1.51654448E-18  6.96459408E-05  0.00000000E+00  6.14690565E-21
  1.96239195E-20 -9.85134387E-21  2.01970823E-07  0.00000000E+00  5.93556315E-25
  2.75372338E-24 -8.20187385E-25  5.62500714E-12  0.00000000E+00  0.00000000E+00
  0.00000000E+00  0.00000000E+00  0.00000000E+00  0.00000000E+00  2.09479024E-22
  8.41932751E-22  1.90478613E-22  5.57087484E-09  0.00000000E+00  4.50058520E-19
  1.22995761E-18  2.91265274E-19  1.15146084E-05  9.28331757E-21  0.00000000E+00
  8.77079632E-23  3.37157920E-18  0.00000000E+00  0.00000000E+00  0.00000000E+00
  0.00000000E+00  0.00000000E+00  0.00000000E+00  0.00000000E+00  0.00000000E+00
  0.00000000E+00  0.00000000E+00  0.00000000E+00  0.00000000E+00  0.00000000E+00
  7.58051686E-22  8.49662950E-17  9.49787076E-17 -9.75567173E-17  3.17928639E-03
  2.09570409E-15 -7.91841116E-19  3.29194434E-17  4.31653381E-17 -1.13859287E-17
  3.22091962E-02 -1.55999949E-20 -2.56058194E-18 -4.61824425E-18  2.31839068E-18
  1.14818593E-03 -1.17198673E-24 -3.09410547E-20 -7.37146845E-20  2.19556745E-20
  1.89238949E-05  0.00000000E+00  1.74738460E-20  4.51933140E-20 -7.38842042E-22
  7.27982250E-06  4.38205644E-22  9.44669586E-19  2.03877034E-18  4.61250792E-19
  1.63982309E-04  8.12868372E-19  5.40520558E-17  8.84488629E-17  2.09455043E-17
  1.11239601E-02 -2.81085728E-18 -4.01100058E-21  2.80676826E-19  1.73670682E-16
  0.00000000E+00  0.00000000E+00  0.00000000E+00  0.00000000E+00  0.00000000E+00
  0.00000000E+00  0.00000000E+00  0.00000000E+00  0.00000000E+00  0.00000000E+00
  0.00000000E+00  0.00000000E+00  0.00000000E+00 -6.27336574E-17  1.00110120E-16
  2.17683408E-17 -2.23591995E-17  2.98547576E-01  5.20494076E-16  2.09570409E-15
  1.83771004E-18 -5.28423182E-17 -6.32672102E-17  2.02404926E-17 -4.63511177E-02
  4.97594764E-20  4.36327289E-18  7.25911748E-18 -4.07469867E-18 -2.01176990E-03
  5.43718499E-24  7.30522561E-20  1.65042033E-19 -5.20715709E-20 -4.48813832E-05
  0.00000000E+00 -4.52298647E-20 -1.11796159E-19  1.91772685E-21 -1.88355919E-05
 -1.76228272E-21 -2.03194755E-18 -4.13770264E-18 -1.00487585E-18 -3.53259487E-04
 -2.22269741E-18 -8.67219059E-17 -1.31503333E-16 -3.59310083E-17 -1.79076109E-02
  3.74704056E-18  9.41838276E-21 -5.61691177E-19 -2.01718730E-16  0.00000000E+00
  0.00000000E+00  0.00000000E+00  0.00000000E+00  0.00000000E+00  0.00000000E+00
  0.00000000E+00  0.00000000E+00  0.00000000E+00  0.00000000E+00  0.00000000E+00
  0.00000000E+00  0.00000000E+00  6.92459445E-17 -1.21872869E-16 -8.57793103E-18
  7.09175996E-17 -2.12602110E-01  0.00000000E+00  0.00000000E+00  2.09570409E-15
 -4.84741609E-19  1.39384722E-17  2.02404926E-17  8.12784528E-18  1.22262570E-02
 -2.49796027E-20 -2.19039329E-18 -4.07469867E-18  1.18782716E-18  1.00992246E-03
 -1.61944753E-24 -2.17583724E-20 -5.20715709E-20  5.72461879E-21  1.33677713E-05
  0.00000000E+00  7.39439590E-22  1.91772685E-21  5.47554825E-21  3.07933318E-07
 -3.98698314E-22 -4.59707204E-19 -1.00487585E-18  7.65969645E-20 -7.99213206E-05
 -5.26355192E-19 -2.05365450E-17 -3.59310083E-17  1.17176573E-17 -4.24068698E-03
 -3.39691595E-18 -3.85127713E-21 -2.45028796E-19 -1.41343184E-16  0.00000000E+00
  0.00000000E+00  0.00000000E+00  0.00000000E+00  0.00000000E+00  0.00000000E+00
  0.00000000E+00  0.00000000E+00  0.00000000E+00  0.00000000E+00  0.00000000E+00
  0.00000000E+00  0.00000000E+00 -7.11254891E-17  1.25180868E-16  7.09175996E-17
 -1.23769004E-17  2.18372775E-01  0.00000000E+00  0.00000000E+00  0.00000000E+00
  2.09570409E-15  6.96459408E-05  3.22091962E-02  4.63511177E-02 -1.22262570E-02
  1.34667773E-17  2.01970823E-07  1.14818593E-03  2.01176990E-03 -1.00992246E-03
 -8.57699874E-19  5.62500714E-12  1.89238949E-05  4.48813832E-05 -1.33677713E-05
 -9.78472606E-21  0.00000000E+00  7.27982250E-06  1.88355919E-05 -3.07933318E-07
  5.50690017E-21  5.57087484E-09  1.63982309E-04  3.53259487E-04  7.99213206E-05
  3.03939775E-19  1.15146084E-05  1.11239601E-02  1.79076109E-02  4.24068698E-03
  2.02264506E-17  7.93024218E-04  1.41271175E-06  3.92845695E-05  2.84464891E-02
  0.00000000E+00  0.00000000E+00  0.00000000E+00  0.00000000E+00  0.00000000E+00
  0.00000000E+00  0.00000000E+00  0.00000000E+00  0.00000000E+00  0.00000000E+00
  0.00000000E+00  0.00000000E+00  0.00000000E+00  3.17928639E-03  2.98547576E-01
  2.12602110E-01 -2.18372775E-01  6.04656176E-17  7.18554879E-02  8.38743577E-01
  0.00000000E+00  0.00000000E+00  2.09570409E-15 -4.11916488E-18 -2.52221768E-16
 -2.58043609E-16 -2.02366322E-16  6.08350507E-02 -5.54826877E-18 -1.69361672E-16
 -2.44281612E-16 -3.03849767E-17  2.39715440E-02 -1.92361258E-20 -4.83225798E-18
 -8.89101472E-18 -1.34482120E-18  7.24208006E-04  3.88667633E-23 -1.66431308E-19
 -3.24533670E-19 -1.39872823E-19  5.90862036E-05  1.25988909E-21  7.34421756E-20
  1.29168533E-19  1.07948630E-19  1.32539397E-04  2.57044333E-19 -4.38707527E-19
  1.64785470E-20  2.02408938E-20  3.86325406E-03 -3.90803571E-16 -1.31673923E-18
  2.30453681E-20  2.41230704E-18  0.00000000E+00 -3.52624439E-22 -9.11121563E-22
 -3.40695411E-22  1.62173013E-07  0.00000000E+00  0.00000000E+00  0.00000000E+00
  0.00000000E+00  0.00000000E+00  0.00000000E+00  0.00000000E+00 -1.63064300E-21
 -1.12763769E-16 -1.77156547E-15 -3.76753543E-16 -1.62553502E-15  3.50014722E-01
  1.05582971E-17 -1.54188594E-16  6.08512782E-17 -1.81571619E-16  7.33033803E-02
 -5.50345343E-15 -3.80110682E-20  1.01606137E-18  1.55170524E-18 -1.86880427E-19
  3.37353700E-03 -1.13799074E-21 -3.72674854E-19 -7.39656121E-19  2.44651439E-19
  1.22209394E-04  0.00000000E+00 -3.06957312E-21 -7.71731361E-21  1.58055634E-21
  1.25650379E-06  0.00000000E+00  5.19094627E-22  1.39581271E-21  3.01338017E-23
  3.24804648E-07  1.22294243E-23  3.99899335E-20  9.24464892E-20  2.04945730E-20
  8.04255779E-06  2.25763217E-20  3.44232108E-18  6.25116055E-18  1.42407533E-18
  8.16912073E-04 -7.04982063E-19 -4.34675137E-22  1.40242800E-20  1.81806301E-17
  0.00000000E+00  0.00000000E+00  0.00000000E+00  0.00000000E+00  0.00000000E+00
  0.00000000E+00  0.00000000E+00  0.00000000E+00  0.00000000E+00  0.00000000E+00
  0.00000000E+00  0.00000000E+00  0.00000000E+00 -8.60742007E-18 -1.30098307E-17
 -1.80547955E-17  6.59325781E-18  7.33056817E-02  1.25705456E-16  8.66438671E-16
  8.14919256E-16  1.66047944E-16  3.50013253E-01 -9.67427758E-17  1.49860446E-15
 -4.72695431E-19  6.40810977E-17  7.26928895E-17 -5.69279917E-17  2.04761766E-02
 -1.53962312E-20 -1.50240448E-19 -2.97997097E-19  2.63998663E-19  6.04511064E-04
 -7.25201839E-23  1.08105131E-20  1.92116303E-20 -1.06294029E-20  2.68462105E-05
  2.76796389E-23  1.48336262E-19  3.17484147E-19 -7.44972709E-20  3.36490152E-05
  3.62107320E-20  7.29263666E-18  1.33405337E-17 -3.67689393E-19  9.63007553E-04
  5.46121217E-18  1.79757353E-16  2.55523437E-16 -3.78117609E-17  2.64262250E-02
 -3.43078009E-19 -1.28178483E-21  3.98461048E-18  8.58843281E-16  0.00000000E+00
  5.93880396E-22  1.64420226E-21 -2.16468984E-22  1.14540247E-07  0.00000000E+00
  0.00000000E+00  0.00000000E+00  0.00000000E+00  0.00000000E+00  1.63064300E-21
  0.00000000E+00  0.00000000E+00 -7.68446248E-18  2.04839005E-16  8.14906867E-17
 -2.43156700E-16  7.33033790E-02  1.43129668E-16  2.01316307E-15 -4.28880201E-16
 -1.85043991E-15  3.50014718E-01  3.51562056E-18  5.70711411E-16  6.00055767E-15
Multipole Matrix (2,0,0)                   R   N=        1830
  6.70245180E+00  1.68327484E+00  7.51273710E+00  3.71191477E-01  4.33278622E+00
  8.19655734E+00  0.00000000E+00  0.00000000E+00  0.00000000E+00  7.17977692E+00
  0.00000000E+00  0.00000000E+00  0.00000000E+00  0.00000000E+00  7.17977692E+00
  2.77709836E-06  3.63970559E-02 -3.71557177E-02  4.75886870E-02 -9.74887738E-17
  7.27614078E-01  2.39785126E-01  1.42691677E+00 -4.59306809E-02  1.17975669E+00
 -2.41681460E-15  1.99349858E-01  1.53789938E+00  2.70775297E-01  1.75019683E+00
  3.32300677E-01  1.64620791E+00 -3.37237274E-15  1.19940477E-01  1.40002257E+00
  2.22171962E+00 -2.91500494E-01 -1.02178622E+00  1.96865169E-01 -2.99920747E-01
  2.25577321E-15  0.00000000E+00  0.00000000E+00  0.00000000E+00  1.20493920E+00
  5.97159274E-16  2.09320096E-15 -4.03292152E-16  2.25577321E-15  8.01224349E-01
  0.00000000E+00  0.00000000E+00  0.00000000E+00  0.00000000E+00  1.20493920E+00
  0.00000000E+00  4.61772224E-03 -1.04022153E-02  3.37252139E-03 -7.65434589E-18
  2.62141363E-07  1.03178605E-01 -1.68258611E-01 -3.27108044E-02  4.71548000E-17
  3.08601892E+00  1.06645405E-02  8.64789026E-02 -8.58380958E-02  4.58115626E-02
 -1.03974892E-16  2.28121166E-02  4.56002078E-01 -5.38675988E-01 -8.28495338E-02
  1.19433113E-16  7.85088922E-01  3.89630422E+00  2.37837281E-02  1.37521966E-01
 -7.62453911E-02  7.83158784E-02 -1.77747374E-16  3.74099799E-02  1.27198399E-01
  2.13096957E-01 -3.76586000E-02  5.42873765E-17 -2.51184169E-01 -2.93198355E+00
  4.58012446E+00 -7.78586284E-03 -4.05242337E-02  4.73162939E-02  1.63414986E-02
  5.42672013E-17  6.97513744E-03  9.95110344E-02 -1.41133904E-01  2.24419885E-01
  3.25557776E-17  0.00000000E+00  0.00000000E+00  0.00000000E+00  3.56334404E+00
  1.76709590E-17  9.19746580E-17 -1.07390062E-16  5.42672013E-17  4.02517451E-02
 -1.00551245E-17 -1.43451774E-16  2.03453910E-16  3.25557776E-17  2.47003496E-01
  0.00000000E+00  0.00000000E+00  0.00000000E+00  0.00000000E+00  3.56334404E+00
  0.00000000E+00  2.36372579E-03 -6.26258087E-03 -1.25526279E-03  1.80941503E-18
  0.00000000E+00  1.10474783E-02 -1.95352293E-02 -1.68727774E-02  3.09996496E-17
  4.43972685E-06  2.48820842E-01 -1.42303098E-01 -3.87393489E-01  7.44040662E-16
  6.70245180E+00  2.36372579E-03  3.38965356E-02 -5.28300838E-02 -1.20850339E-02
  1.74201308E-17  1.04475480E-03  1.17400733E-01 -1.77820920E-01 -1.07138238E-01
  1.96840613E-16  1.25639016E-01  2.06128282E+00 -1.78761725E+00 -1.96260885E+00
  3.76945103E-15  1.68327484E+00  7.51273710E+00  6.26258087E-03  5.28300838E-02
 -5.67791270E-02 -2.09438738E-02  3.01898219E-17  1.93337663E-03  5.70253476E-02
 -3.36577185E-02 -6.12221547E-02  1.12480909E-16  5.75482967E-02 -5.09850132E-01
  1.19609684E+00  3.31478005E-01 -6.36647548E-16 -3.71191477E-01 -4.33278622E+00
  8.19655734E+00  1.25526279E-03  1.20850339E-02 -2.09438738E-02  1.05565945E-02
  6.84186725E-18  1.59631805E-03  1.25436147E-01 -1.97138019E-01 -7.67725717E-02
  2.33793803E-16  2.00204497E-01  2.08381578E+00 -1.99654567E+00 -1.42705632E+00
  4.97544801E-15  0.00000000E+00  0.00000000E+00  0.00000000E+00  7.17977692E+00
 -1.80941503E-18 -1.74201308E-17  3.01898219E-17  6.84186725E-18  1.53030685E-02
 -2.93284850E-18 -2.30458596E-16  3.62193452E-16  2.33793803E-16  5.04788927E-02
 -3.84519334E-16 -4.00224505E-15  3.83463121E-15  4.97544801E-15  1.16346898E+00
  0.00000000E+00  0.00000000E+00  0.00000000E+00  0.00000000E+00  7.17977692E+00
  0.00000000E+00  1.04475480E-03 -1.93337663E-03 -1.59631805E-03  2.93284850E-18
  0.00000000E+00  2.86955389E-04 -2.76014482E-04 -7.22214981E-04  1.38712402E-18
  0.00000000E+00  1.60916757E-03  5.60493324E-04 -3.62426252E-03  7.16541725E-18
  2.77709836E-06  3.63970559E-02  3.71557177E-02 -4.75886870E-02  9.74887738E-17
  7.27614078E-01  1.10474783E-02  1.17400733E-01 -5.70253476E-02 -1.25436147E-01
  2.30458596E-16  2.86955389E-04  2.81012620E-02 -1.16080407E-02 -4.09973516E-02
  7.87416665E-17  5.55305656E-03  1.64535481E-01 -6.00085676E-02 -2.35592286E-01
  4.65782217E-16  2.39785126E-01  1.42691677E+00  4.59306809E-02 -1.17975669E+00
  2.41681460E-15  1.99349858E-01  1.53789938E+00  1.95352293E-02  1.77820920E-01
 -3.36577185E-02 -1.97138019E-01  3.62193452E-16  2.76014482E-04  1.16080407E-02
  2.47160402E-02 -1.76063093E-02  3.38156023E-17 -2.90111992E-03 -1.46615720E-01
  9.89875338E-02  2.14544084E-01 -4.24168467E-16 -2.70775297E-01 -1.75019683E+00
  3.32300677E-01  1.64620791E+00 -3.37237274E-15 -1.19940477E-01 -1.40002257E+00
  2.22171962E+00  1.68727774E-02  1.07138238E-01 -6.12221547E-02 -7.67725717E-02
  2.33793803E-16  7.22214981E-04  4.09973516E-02 -1.76063093E-02 -5.32512298E-02
  1.21863397E-16  1.25259665E-02  2.24927993E-01 -8.19487729E-02 -2.86733748E-01
  6.97443510E-16  2.91500494E-01  1.02178622E+00  1.96865169E-01 -2.99920747E-01
  2.25577321E-15  0.00000000E+00  0.00000000E+00  0.00000000E+00  1.20493920E+00
 -3.09996496E-17 -1.96840613E-16  1.12480909E-16  2.33793803E-16  5.04788927E-02
 -1.38712402E-18 -7.87416665E-17  3.38156023E-17  1.21863397E-16  1.01977262E-02
 -2.47647007E-17 -4.44698173E-16  1.62018383E-16  6.97443510E-16  6.60326416E-02
 -5.97159274E-16 -2.09320096E-15 -4.03292152E-16  2.25577321E-15  8.01224349E-01
  0.00000000E+00  0.00000000E+00  0.00000000E+00  0.00000000E+00  1.20493920E+00
  4.43972685E-06  1.25639016E-01 -5.75482967E-02 -2.00204497E-01  3.84519334E-16
  0.00000000E+00  5.55305656E-03  2.90111992E-03 -1.25259665E-02  2.47647007E-17
  0.00000000E+00  1.10614142E-03  2.02159606E-03 -2.20000966E-03  4.50682137E-18
  0.00000000E+00  4.61772224E-03  1.04022153E-02 -3.37252139E-03  7.65434589E-18
  2.62141363E-07  1.03178605E-01  1.68258611E-01  3.27108044E-02 -4.71548000E-17
  3.08601892E+00  2.48820842E-01  2.06128282E+00  5.09850132E-01 -2.08381578E+00
  4.00224505E-15  1.60916757E-03  1.64535481E-01  1.46615720E-01 -2.24927993E-01
  4.44698173E-16  1.10614142E-03  3.03729144E-02  2.88115947E-02 -3.74360039E-02
  7.66893824E-17  1.06645405E-02  8.64789026E-02  8.58380958E-02 -4.58115626E-02
  1.03974892E-16  2.28121166E-02  4.56002078E-01  5.38675988E-01  8.28495338E-02
 -1.19433113E-16  7.85088922E-01  3.89630422E+00  1.42303098E-01  1.78761725E+00
  1.19609684E+00 -1.99654567E+00  3.83463121E-15 -5.60493324E-04  6.00085676E-02
  9.89875338E-02 -8.19487729E-02  1.62018383E-16 -2.02159606E-03 -2.88115947E-02
  2.47348227E-03  3.85526666E-02 -7.89769176E-17 -2.37837281E-02 -1.37521966E-01
 -7.62453911E-02  7.83158784E-02 -1.77747374E-16 -3.74099799E-02 -1.27198399E-01
  2.13096957E-01 -3.76586000E-02  5.42873765E-17  2.51184169E-01  2.93198355E+00
  4.58012446E+00  3.87393489E-01  1.96260885E+00  3.31478005E-01 -1.42705632E+00
  4.97544801E-15  3.62426252E-03  2.35592286E-01  2.14544084E-01 -2.86733748E-01
  6.97443510E-16  2.20000966E-03  3.74360039E-02  3.85526666E-02 -3.79833254E-02
  1.02816127E-16  7.78586284E-03  4.05242337E-02  4.73162939E-02  1.63414986E-02
  5.42672013E-17 -6.97513744E-03 -9.95110344E-02 -1.41133904E-01  2.24419885E-01
  3.25557776E-17  0.00000000E+00  0.00000000E+00  0.00000000E+00  3.56334404E+00
 -7.44040662E-16 -3.76945103E-15 -6.36647548E-16  4.97544801E-15  1.16346898E+00
 -7.16541725E-18 -4.65782217E-16 -4.24168467E-16  6.97443510E-16  6.60326416E-02
 -4.50682137E-18 -7.66893824E-17 -7.89769176E-17  1.02816127E-16  1.22064766E-02
 -1.76709590E-17 -9.19746580E-17 -1.07390062E-16  5.42672013E-17  4.02517451E-02
  1.00551245E-17  1.43451774E-16  2.03453910E-16  3.25557776E-17  2.47003496E-01
  0.00000000E+00  0.00000000E+00  0.00000000E+00  0.00000000E+00  3.56334404E+00
  3.47995535E-02  5.10012953E-01  1.24517400E-01  6.24259281E-01 -1.23892437E-15
  5.28659130E-02  1.09420594E+00  1.06707072E+00  8.90315812E-01 -1.70994897E-15
  1.46787295E-02  1.29707787E-01  6.77011451E-02  1.03357274E-01 -1.88065856E-16
  5.56315410E-04  1.29524405E-02  5.64224862E-03  1.75278371E-02 -3.27792842E-17
  8.17743927E-06  2.37086376E-03  1.64585469E-03  3.95744672E-03 -7.60083184E-18
  2.87843061E-04  2.50084046E-02  1.35737908E-02  4.07469358E-02 -7.98559418E-17
  2.87947634E+00  5.29896657E-04  9.58784365E-03 -1.31489748E-02  8.26360202E-03
 -1.78088766E-17  3.12406279E-03  2.41883103E-01 -4.03504051E-01  7.93503750E-02
 -1.87226058E-16  2.11372441E-01  3.40416727E+00 -3.68063089E+00  2.33565556E+00
 -4.78478643E-15  3.63832305E-02  8.70363944E-01 -5.31603549E-01  1.09631031E+00
 -2.15940669E-15  8.71969790E-05  2.95045340E-02 -3.32028261E-02  4.46432995E-02
 -8.90865337E-17  3.13673036E-05  2.69123735E-03 -3.95736116E-03  3.70299332E-03
 -7.58579229E-18  1.26972338E-01  1.04213395E+01  5.56315410E-04  1.29524405E-02
 -5.64224862E-03 -1.75278371E-02  3.27792842E-17  8.17743927E-06  2.37086376E-03
 -1.64585469E-03 -3.95744672E-03  7.60083184E-18  2.87843061E-04  2.50084046E-02
 -1.35737908E-02 -4.07469358E-02  7.98559418E-17  3.47995535E-02  5.10012953E-01
 -1.24517400E-01 -6.24259281E-01  1.23892437E-15  5.28659130E-02  1.09420594E+00
 -1.06707072E+00 -8.90315812E-01  1.70994897E-15  1.46787295E-02  1.29707787E-01
 -6.77011451E-02 -1.03357274E-01  1.88065856E-16  1.64834345E-04  5.15832344E-03
  2.87947634E+00  3.63832305E-02  8.70363944E-01  5.31603549E-01 -1.09631031E+00
  2.15940669E-15  8.71969790E-05  2.95045340E-02  3.32028261E-02 -4.46432995E-02
  8.90865337E-17  3.13673036E-05  2.69123735E-03  3.95736116E-03 -3.70299332E-03
  7.58579229E-18  5.29896657E-04  9.58784365E-03  1.31489748E-02 -8.26360202E-03
  1.78088766E-17  3.12406279E-03  2.41883103E-01  4.03504051E-01 -7.93503750E-02
  1.87226058E-16  2.11372441E-01  3.40416727E+00  3.68063089E+00 -2.33565556E+00
  4.78478643E-15  5.15832344E-03  1.71275753E-04  1.26972338E-01  1.04213395E+01
  0.00000000E+00  2.71960134E-06 -1.10107149E-05 -2.23343668E-06  3.21972528E-21
  0.00000000E+00  6.20479164E-05 -1.96875533E-04 -1.12541130E-04  1.99590412E-19
  0.00000000E+00  3.18362844E-02 -5.98104349E-02 -4.94514218E-02  9.05069534E-17
  1.02279684E-06  7.48296512E-01 -1.23387426E+00 -2.48326235E-01  3.58049547E-16
  0.00000000E+00  3.13082224E-02 -7.32408069E-02  2.19554031E-02 -5.05497345E-17
  0.00000000E+00  6.09020238E-05 -2.21231972E-04  2.64651246E-05 -7.48145872E-20
  5.52003002E-06  2.92598874E-02  2.86317168E-02  5.38541893E-06  2.95658240E+01
  5.22712281E-07  9.46656104E-04 -2.53807515E-03 -4.18371864E-04  6.03125433E-19
  9.45486377E-07  9.93286969E-03 -2.10887196E-02 -9.76097175E-03  1.73109723E-17
  4.34145239E-03  6.54898398E-01 -9.39711187E-01 -6.11815872E-01  1.11975730E-15
  1.99968509E-01  5.11624249E+00 -6.94857514E+00 -1.08497075E+00  1.56436666E-15
  1.38602603E-03  5.15661325E-01 -8.89464117E-01  2.15325233E-01 -4.95761034E-16
  4.87592914E-06  7.08848088E-03 -1.72042894E-02  1.67753934E-03 -4.74225667E-18
  1.16826479E-03  6.26796300E-01  4.52046220E-01  7.05391643E-04  7.36167661E+00
  3.03761093E+01  2.13386967E-06  1.60046234E-03 -4.10915714E-03 -7.31944983E-04
  1.05517286E-18  3.12236007E-06  1.33388398E-02 -2.63530527E-02 -1.36628407E-02
  2.42308924E-17  7.80392742E-03  5.69756643E-01 -6.50498652E-01 -5.97568772E-01
  1.09368198E-15  3.26475915E-01  4.12848361E+00 -4.56676197E+00 -1.19031547E+00
  1.71625811E-15  3.06367633E-03  5.98857421E-01 -9.30853853E-01  2.79925593E-01
 -6.44495767E-16  1.80095211E-05  1.11884759E-02 -2.59961828E-02  2.78532648E-03
 -7.87387380E-18  1.39493965E-03  2.11967582E-01  3.43135602E-01  1.08348472E-03
 -7.81010105E-01 -9.11645344E+00  3.10599295E+01  4.29829060E-07  4.31408730E-04
 -1.17239210E-03  1.18234928E-04  2.82236275E-19  1.72159731E-06  1.02002438E-02
 -2.21078322E-02 -7.01818460E-03  1.84154688E-17  6.73040842E-03  6.67207768E-01
 -1.01674121E+00 -4.16092393E-01  1.25163588E-15  6.85121589E-02  1.21536044E+00
 -1.95707084E+00  2.48278592E+00  4.68941959E-16 -9.68207534E-04 -2.42540402E-01
  4.45010154E-01  1.01658940E-01  2.56671450E-16 -2.12374856E-06 -1.77405100E-03
  4.40543095E-03  2.00464370E-03  1.23759614E-18  1.56176226E-03  8.27396019E-01
 -4.39032102E-01 -4.17516920E-04  0.00000000E+00  0.00000000E+00  0.00000000E+00
  3.00431491E+01 -6.19642142E-22 -6.21919396E-19  1.69012201E-18  2.82236275E-19
  3.14014628E-04 -3.05323322E-21 -1.80900163E-17  3.92079886E-17  1.84154688E-17
  3.36556900E-03 -1.23181243E-17 -1.22113663E-15  1.86085953E-15  1.25163588E-15
  2.67779637E-01 -9.87843569E-17 -1.75236924E-15  2.82180547E-15  4.68941959E-16
  2.80802189E+00  2.22918402E-18  5.58420761E-16 -1.02458356E-15  2.56671450E-16
  2.13139747E-01  6.00365103E-21  5.01508668E-18 -1.24537671E-17  1.23759614E-18
  2.44243447E-03 -2.85092331E-18 -1.57491075E-15  9.12569772E-16  9.71417184E-19
  0.00000000E+00  0.00000000E+00  0.00000000E+00  0.00000000E+00  3.00431491E+01
  0.00000000E+00  0.00000000E+00  0.00000000E+00  0.00000000E+00  0.00000000E+00
  0.00000000E+00  4.33120551E-06 -1.75036062E-05 -3.94304414E-06  5.88345593E-21
  0.00000000E+00  9.89447801E-03 -2.72250084E-02 -6.40960021E-03  9.69644132E-18
  0.00000000E+00  6.14921335E-02 -1.43518809E-01  3.76020561E-02 -8.84869323E-17
  0.00000000E+00  1.65447284E-04 -5.30539291E-04  2.64949843E-04 -5.73502087E-19
  0.00000000E+00  1.47359165E-08 -6.84439979E-08  2.03622478E-08 -4.69912950E-23
  1.76574913E-06  7.35396168E-02  2.65524459E-04  0.00000000E+00  1.21594898E-04
  2.25271792E+00 -2.62967194E+00  2.65511568E+00 -5.46359681E-15  5.16186327E+01
  0.00000000E+00  7.87883638E-05 -2.37256944E-04  3.33362115E-06 -2.79041870E-20
  3.01611425E-08  3.08606723E-03 -7.65146976E-03 -1.49830626E-03  2.23563788E-18
  8.50391774E-04  3.73767975E-01 -6.83776440E-01 -1.39299329E-01  2.10731984E-16
  1.00204154E-02  1.23654318E+00 -2.03627526E+00  4.57783430E-01 -1.07727756E-15
  5.00066891E-06  3.27163462E-02 -6.57677945E-02  2.84807967E-02 -6.16486355E-17
  7.76672378E-10  2.71396206E-04 -7.45492883E-04  1.91568741E-04 -4.42095749E-19
  7.62264041E-04  1.17746960E+00  2.70221967E-02  1.83559213E-05  1.37103661E+00
  1.64165580E+01 -1.51245261E+01  1.17551957E+01 -2.41893980E-14  1.28387649E+01
  5.24289180E+01  0.00000000E+00  1.71517703E-04 -4.99134923E-04  7.30021811E-06
 -6.11067191E-20  1.26341541E-07  5.69789633E-03 -1.34702208E-02 -2.81799525E-03
  4.20475913E-18  2.27243623E-03  5.28145438E-01 -8.98124037E-01 -2.12971980E-01
  3.22183949E-16  2.27974560E-02  1.55944636E+00 -2.32296727E+00  6.43073083E-01
 -1.51330992E-15  1.53966148E-05  4.92388361E-02 -9.19773882E-02  4.44820615E-02
 -9.62844696E-17  3.62154330E-09  5.45042541E-04 -1.43537091E-03  3.87719106E-04
 -8.94764815E-19  1.28370951E-03  1.08103213E+00  3.01825290E-02  3.58407794E-05
  1.56912159E+00  8.18851889E+00 -9.28867337E-01  8.73895163E+00 -1.79826848E-14
 -1.03219669E+00 -1.20484652E+01  5.31127382E+01  0.00000000E+00 -3.35370547E-06
  1.01329249E-05  2.48053723E-05  1.19384247E-21  2.76180659E-08  1.52733234E-03
 -3.83265291E-03  2.47172500E-04  1.12507473E-18  5.49303224E-04  1.49493824E-01
 -2.88713119E-01  8.15075559E-02  9.04647241E-17 -6.11760012E-03 -4.97940330E-01
  8.81860475E-01  3.06902760E-01  4.76859363E-16 -7.97035131E-06 -2.94251495E-02
  6.06752465E-02 -1.54454344E-02  5.73360283E-17 -1.07330469E-09 -1.93128707E-04
  5.33016245E-04 -5.10228820E-05  3.16768559E-19  6.79509177E-04  9.80353682E-01
 -3.42956720E-02 -1.78311623E-05 -1.64818272E+00 -1.23689802E+01  1.42493867E+01
 -1.98836970E+00  2.44117908E-14  0.00000000E+00  0.00000000E+00  0.00000000E+00
  5.20959578E+01  0.00000000E+00  2.80723034E-20 -8.48179859E-20  1.19384247E-21
  2.49479968E-05 -4.12091947E-23 -2.27894799E-18  5.71874007E-18  1.12507473E-18
  1.00118840E-03 -8.30985756E-19 -2.26154212E-16  4.36765122E-16  9.04647241E-17
  1.41307094E-01  1.43962252E-17  1.17177667E-15 -2.07523567E-15  4.76859363E-16
  5.09541637E-01  1.72523715E-20  6.36927521E-17 -1.31335728E-16  5.73360283E-17
  1.10429988E-02  2.47693563E-24  4.45695787E-19 -1.23007655E-18  3.16768559E-19
  8.62391343E-05 -1.16553071E-18 -1.77050842E-15  7.10381019E-17  3.94448572E-20
  3.39156818E-15  2.54524206E-14 -2.93218500E-14  2.44117908E-14  9.87490107E+00
  0.00000000E+00  0.00000000E+00  0.00000000E+00  0.00000000E+00  5.20959578E+01
  3.89535432E-07  2.12621048E-04 -5.41357746E-04 -1.81183288E-04  3.10245992E-19
  1.31296197E-07  1.06879584E-03 -2.20003915E-03 -1.39262772E-03  2.54874735E-18
  2.57892534E-04  7.51444061E-02 -1.04907607E-01 -9.63026126E-02  1.80112895E-16
  3.28783983E-02  1.56042277E+00 -2.07072886E+00 -1.25379772E+00  2.28433518E-15
  1.30855721E-03  3.73650069E-01 -6.72547242E-01 -6.67948226E-02  7.43108912E-17
  1.06836262E-05  3.91890262E-03 -9.29971659E-03 -1.09329994E-03  1.38008408E-18
  9.52050418E-05  6.10556837E-02  8.59414904E-01  7.46128594E-04  1.83001065E+00
  1.60966042E+01 -7.38030300E+00 -1.48559143E+01  2.86920213E-14  2.95082148E-01
  4.51358590E+00  8.58868672E-01 -5.48622805E+00  1.09220217E-14  3.54971880E+01
  0.00000000E+00  3.64920448E-06 -1.14434280E-05 -2.11838841E-07 -6.14783751E-22
  8.77229006E-10  1.59519808E-04 -4.21617911E-04 -8.10877687E-05  1.20220669E-19
  2.40430491E-05  3.02345202E-02 -6.17420711E-02 -1.22620805E-02  1.83355484E-17
  4.53110599E-04  1.47511110E-01 -2.80288396E-01  2.94702145E-02 -8.32959430E-17
  3.59240406E-07  3.72619670E-03 -8.29883157E-03  2.39090575E-03 -5.43387040E-18
  0.00000000E+00  1.88559958E-05 -5.45872557E-05  9.65182618E-06 -2.38180153E-20
  4.55822942E-05  1.66311616E-01  6.02433857E-03  1.63132084E-06  1.79902769E-01
  5.47110574E+00 -7.56801449E+00  2.39367367E+00 -5.36863350E-15  3.27204369E+00
  3.35479587E+01 -3.67303641E+01 -6.34231005E+00  9.13907337E-15  2.83411229E+00
  8.55857357E+01  1.47743955E-07  1.64078420E-04 -4.45049981E-04  8.26343892E-05
 -1.98537223E-19  3.23736948E-06  9.91658624E-03 -2.23624042E-02  4.94836387E-04
 -2.85059695E-18  5.05915371E-03  6.38676133E-01 -1.09993432E+00  1.33844942E-01
 -3.56612639E-16  6.86725541E-03  5.95311420E-01 -8.57650328E-01  5.36623312E-01
 -1.12131514E-15  4.26317812E-06  1.09081094E-02 -1.91353154E-02  1.34365947E-02
 -2.78680279E-17  4.28571116E-08  1.92396611E-04 -4.73561675E-04  2.06664155E-04
 -4.43337783E-19  4.67869362E-03  3.34834937E+00  4.87385400E-03  9.80604777E-06
  1.74206802E-01  3.82867051E+00 -2.42111204E+00  4.62836974E+00 -9.21419131E-15
  3.13135590E+00  2.38025365E+01  2.27206269E-01  2.21009696E+01 -4.26847839E-14
  5.80905005E-01  9.85085318E+00  4.57252620E+01  1.02279684E-06  7.48296512E-01
  1.23387426E+00  2.48326235E-01 -3.58049547E-16  0.00000000E+00  3.13082224E-02
  7.32408069E-02 -2.19554031E-02  5.05497345E-17  0.00000000E+00  6.09020238E-05
  2.21231972E-04 -2.64651246E-05  7.48145872E-20  0.00000000E+00  2.71960134E-06
  1.10107149E-05  2.23343668E-06 -3.21972528E-21  0.00000000E+00  6.20479164E-05
  1.96875533E-04  1.12541130E-04 -1.99590412E-19  0.00000000E+00  3.18362844E-02
  5.98104349E-02  4.94514218E-02 -9.05069534E-17  2.86317168E-02  5.38541893E-06
  5.52003002E-06  2.92598874E-02  0.00000000E+00  0.00000000E+00  0.00000000E+00
  0.00000000E+00  0.00000000E+00  0.00000000E+00  0.00000000E+00  0.00000000E+00
  0.00000000E+00  0.00000000E+00  0.00000000E+00  0.00000000E+00  0.00000000E+00
  2.95658240E+01  1.99968509E-01  5.11624249E+00  6.94857514E+00  1.08497075E+00
 -1.56436666E-15  1.38602603E-03  5.15661325E-01  8.89464117E-01 -2.15325233E-01
  4.95761034E-16  4.87592914E-06  7.08848088E-03  1.72042894E-02 -1.67753934E-03
  4.74225667E-18  5.22712281E-07  9.46656104E-04  2.53807515E-03  4.18371864E-04
 -6.03125433E-19  9.45486377E-07  9.93286969E-03  2.10887196E-02  9.76097175E-03
 -1.73109723E-17  4.34145239E-03  6.54898398E-01  9.39711187E-01  6.11815872E-01
 -1.11975730E-15  4.52046220E-01  7.05391643E-04  1.16826479E-03  6.26796300E-01
  0.00000000E+00  6.33037532E-07  1.81616467E-06  3.70564095E-07 -5.34230018E-22
  0.00000000E+00  0.00000000E+00  0.00000000E+00  0.00000000E+00  0.00000000E+00
  3.77309032E-07  0.00000000E+00  2.23108181E-07  7.36167661E+00  3.03761093E+01
 -3.26475915E-01 -4.12848361E+00 -4.56676197E+00 -1.19031547E+00  1.71625811E-15
 -3.06367633E-03 -5.98857421E-01 -9.30853853E-01  2.79925593E-01 -6.44495767E-16
 -1.80095211E-05 -1.11884759E-02 -2.59961828E-02  2.78532648E-03 -7.87387380E-18
 -2.13386967E-06 -1.60046234E-03 -4.10915714E-03 -7.31944983E-04  1.05517286E-18
 -3.12236007E-06 -1.33388398E-02 -2.63530527E-02 -1.36628407E-02  2.42308924E-17
 -7.80392742E-03 -5.69756643E-01 -6.50498652E-01 -5.97568772E-01  1.09368198E-15
 -3.43135602E-01 -1.08348472E-03 -1.39493965E-03 -2.11967582E-01  0.00000000E+00
 -1.81616467E-06 -4.61528319E-06 -1.06313668E-06  1.53268904E-21  0.00000000E+00
  0.00000000E+00  0.00000000E+00  0.00000000E+00  0.00000000E+00 -7.99713924E-07
  0.00000000E+00 -5.74126910E-07  7.81010105E-01  9.11645344E+00  3.10599295E+01
 -6.85121589E-02 -1.21536044E+00 -1.95707084E+00  2.48278592E+00  4.68941959E-16
  9.68207534E-04  2.42540402E-01  4.45010154E-01  1.01658940E-01  2.56671450E-16
  2.12374856E-06  1.77405100E-03  4.40543095E-03  2.00464370E-03  1.23759614E-18
 -4.29829060E-07 -4.31408730E-04 -1.17239210E-03  1.18234928E-04  2.82236275E-19
 -1.72159731E-06 -1.02002438E-02 -2.21078322E-02 -7.01818460E-03  1.84154688E-17
 -6.73040842E-03 -6.67207768E-01 -1.01674121E+00 -4.16092393E-01  1.25163588E-15
  4.39032102E-01  4.17516920E-04 -1.56176226E-03 -8.27396019E-01  0.00000000E+00
 -3.70564095E-07 -1.06313668E-06 -1.85068549E-08  3.12724685E-22  0.00000000E+00
  0.00000000E+00  0.00000000E+00  0.00000000E+00  0.00000000E+00 -3.64544942E-07
  0.00000000E+00  8.13227739E-08  0.00000000E+00  0.00000000E+00  0.00000000E+00
  3.00431491E+01  9.87843569E-17  1.75236924E-15  2.82180547E-15  4.68941959E-16
  2.80802189E+00 -2.22918402E-18 -5.58420761E-16 -1.02458356E-15  2.56671450E-16
  2.13139747E-01 -6.00365103E-21 -5.01508668E-18 -1.24537671E-17  1.23759614E-18
  2.44243447E-03  6.19642142E-22  6.21919396E-19  1.69012201E-18  2.82236275E-19
  3.14014628E-04  3.05323322E-21  1.80900163E-17  3.92079886E-17  1.84154688E-17
  3.36556900E-03  1.23181243E-17  1.22113663E-15  1.86085953E-15  1.25163588E-15
  2.67779637E-01 -9.12569772E-16 -9.71417184E-19  2.85092331E-18  1.57491075E-15
  0.00000000E+00  5.34230018E-22  1.53268904E-21  3.12724685E-22  1.98411955E-07
  0.00000000E+00  0.00000000E+00  0.00000000E+00  0.00000000E+00  0.00000000E+00
  6.10684669E-22  0.00000000E+00 -2.23819157E-22  0.00000000E+00  0.00000000E+00
  0.00000000E+00  0.00000000E+00  3.00431491E+01  0.00000000E+00  6.14921335E-02
  1.43518809E-01 -3.76020561E-02  8.84869323E-17  0.00000000E+00  1.65447284E-04
  5.30539291E-04 -2.64949843E-04  5.73502087E-19  0.00000000E+00  1.47359165E-08
  6.84439979E-08 -2.03622478E-08  4.69912950E-23  0.00000000E+00  0.00000000E+00
  0.00000000E+00  0.00000000E+00  0.00000000E+00  0.00000000E+00  4.33120551E-06
  1.75036062E-05  3.94304414E-06 -5.88345593E-21  0.00000000E+00  9.89447801E-03
  2.72250084E-02  6.40960021E-03 -9.69644132E-18  2.65524459E-04  0.00000000E+00
  1.76574913E-06  7.35396168E-02  0.00000000E+00  0.00000000E+00  0.00000000E+00
  0.00000000E+00  0.00000000E+00  0.00000000E+00  0.00000000E+00  0.00000000E+00
  0.00000000E+00  0.00000000E+00  0.00000000E+00  0.00000000E+00  0.00000000E+00
  1.21594898E-04  2.25271792E+00  2.62967194E+00 -2.65511568E+00  5.46359681E-15
  5.16186327E+01  1.00204154E-02  1.23654318E+00  2.03627526E+00 -4.57783430E-01
  1.07727756E-15  5.00066891E-06  3.27163462E-02  6.57677945E-02 -2.84807967E-02
  6.16486355E-17  7.76672378E-10  2.71396206E-04  7.45492883E-04 -1.91568741E-04
  4.42095749E-19  0.00000000E+00  7.87883638E-05  2.37256944E-04 -3.33362115E-06
  2.79041870E-20  3.01611425E-08  3.08606723E-03  7.65146976E-03  1.49830626E-03
 -2.23563788E-18  8.50391774E-04  3.73767975E-01  6.83776440E-01  1.39299329E-01
 -2.10731984E-16  2.70221967E-02  1.83559213E-05  7.62264041E-04  1.17746960E+00
  0.00000000E+00  0.00000000E+00  0.00000000E+00  0.00000000E+00  0.00000000E+00
  0.00000000E+00  0.00000000E+00  0.00000000E+00  0.00000000E+00  0.00000000E+00
  0.00000000E+00  0.00000000E+00  0.00000000E+00  1.37103661E+00  1.64165580E+01
  1.51245261E+01 -1.17551957E+01  2.41893980E-14  1.28387649E+01  5.24289180E+01
 -2.27974560E-02 -1.55944636E+00 -2.32296727E+00  6.43073083E-01 -1.51330992E-15
 -1.53966148E-05 -4.92388361E-02 -9.19773882E-02  4.44820615E-02 -9.62844696E-17
 -3.62154330E-09 -5.45042541E-04 -1.43537091E-03  3.87719106E-04 -8.94764815E-19
  0.00000000E+00 -1.71517703E-04 -4.99134923E-04  7.30021811E-06 -6.11067191E-20
 -1.26341541E-07 -5.69789633E-03 -1.34702208E-02 -2.81799525E-03  4.20475913E-18
 -2.27243623E-03 -5.28145438E-01 -8.98124037E-01 -2.12971980E-01  3.22183949E-16
 -3.01825290E-02 -3.58407794E-05 -1.28370951E-03 -1.08103213E+00  0.00000000E+00
  0.00000000E+00  0.00000000E+00  0.00000000E+00  0.00000000E+00  0.00000000E+00
  0.00000000E+00  0.00000000E+00  0.00000000E+00  0.00000000E+00  0.00000000E+00
  0.00000000E+00  0.00000000E+00 -1.56912159E+00 -8.18851889E+00 -9.28867337E-01
  8.73895163E+00 -1.79826848E-14  1.03219669E+00  1.20484652E+01  5.31127382E+01
  6.11760012E-03  4.97940330E-01  8.81860475E-01  3.06902760E-01  4.76859363E-16
  7.97035131E-06  2.94251495E-02  6.06752465E-02 -1.54454344E-02  5.73360283E-17
  1.07330469E-09  1.93128707E-04  5.33016245E-04 -5.10228820E-05  3.16768559E-19
  0.00000000E+00  3.35370547E-06  1.01329249E-05  2.48053723E-05  1.19384247E-21
 -2.76180659E-08 -1.52733234E-03 -3.83265291E-03  2.47172500E-04  1.12507473E-18
 -5.49303224E-04 -1.49493824E-01 -2.88713119E-01  8.15075559E-02  9.04647241E-17
  3.42956720E-02  1.78311623E-05 -6.79509177E-04 -9.80353682E-01  0.00000000E+00
  0.00000000E+00  0.00000000E+00  0.00000000E+00  0.00000000E+00  0.00000000E+00
  0.00000000E+00  0.00000000E+00  0.00000000E+00  0.00000000E+00  0.00000000E+00
  0.00000000E+00  0.00000000E+00  1.64818272E+00  1.23689802E+01  1.42493867E+01
 -1.98836970E+00  2.44117908E-14  0.00000000E+00  0.00000000E+00  0.00000000E+00
  5.20959578E+01 -1.43962252E-17 -1.17177667E-15 -2.07523567E-15  4.76859363E-16
  5.09541637E-01 -1.72523715E-20 -6.36927521E-17 -1.31335728E-16  5.73360283E-17
  1.10429988E-02 -2.47693563E-24 -4.45695787E-19 -1.23007655E-18  3.16768559E-19
  8.62391343E-05  0.00000000E+00 -2.80723034E-20 -8.48179859E-20  1.19384247E-21
  2.49479968E-05  4.12091947E-23  2.27894799E-18  5.71874007E-18  1.12507473E-18
  1.00118840E-03  8.30985756E-19  2.26154212E-16  4.36765122E-16  9.04647241E-17
  1.41307094E-01 -7.10381019E-17 -3.94448572E-20  1.16553071E-18  1.77050842E-15
  0.00000000E+00  0.00000000E+00  0.00000000E+00  0.00000000E+00  0.00000000E+00
  0.00000000E+00  0.00000000E+00  0.00000000E+00  0.00000000E+00  0.00000000E+00
  0.00000000E+00  0.00000000E+00  0.00000000E+00 -3.39156818E-15 -2.54524206E-14
 -2.93218500E-14  2.44117908E-14  9.87490107E+00  0.00000000E+00  0.00000000E+00
  0.00000000E+00  0.00000000E+00  5.20959578E+01  3.28783983E-02  1.56042277E+00
  2.07072886E+00  1.25379772E+00 -2.28433518E-15  1.30855721E-03  3.73650069E-01
  6.72547242E-01  6.67948226E-02 -7.43108912E-17  1.06836262E-05  3.91890262E-03
  9.29971659E-03  1.09329994E-03 -1.38008408E-18  3.89535432E-07  2.12621048E-04
  5.41357746E-04  1.81183288E-04 -3.10245992E-19  1.31296197E-07  1.06879584E-03
  2.20003915E-03  1.39262772E-03 -2.54874735E-18  2.57892534E-04  7.51444061E-02
  1.04907607E-01  9.63026126E-02 -1.80112895E-16  8.59414904E-01  7.46128594E-04
  9.52050418E-05  6.10556837E-02  0.00000000E+00  3.77309032E-07  7.99713924E-07
  3.64544942E-07 -6.10684669E-22  0.00000000E+00  0.00000000E+00  0.00000000E+00
  0.00000000E+00  0.00000000E+00  8.27889881E-08  0.00000000E+00  4.66299782E-07
  1.83001065E+00  1.60966042E+01  7.38030300E+00  1.48559143E+01 -2.86920213E-14
  2.95082148E-01  4.51358590E+00 -8.58868672E-01  5.48622805E+00 -1.09220217E-14
  3.54971880E+01  4.53110599E-04  1.47511110E-01  2.80288396E-01 -2.94702145E-02
  8.32959430E-17  3.59240406E-07  3.72619670E-03  8.29883157E-03 -2.39090575E-03
  5.43387040E-18  0.00000000E+00  1.88559958E-05  5.45872557E-05 -9.65182618E-06
  2.38180153E-20  0.00000000E+00  3.64920448E-06  1.14434280E-05  2.11838841E-07
  6.14783751E-22  8.77229006E-10  1.59519808E-04  4.21617911E-04  8.10877687E-05
 -1.20220669E-19  2.40430491E-05  3.02345202E-02  6.17420711E-02  1.22620805E-02
 -1.83355484E-17  6.02433857E-03  1.63132084E-06  4.55822942E-05  1.66311616E-01
  0.00000000E+00  0.00000000E+00  0.00000000E+00  0.00000000E+00  0.00000000E+00
  0.00000000E+00  0.00000000E+00  0.00000000E+00  0.00000000E+00  0.00000000E+00
  0.00000000E+00  0.00000000E+00  0.00000000E+00  1.79902769E-01  5.47110574E+00
  7.56801449E+00 -2.39367367E+00  5.36863350E-15  3.27204369E+00  3.35479587E+01
  3.67303641E+01  6.34231005E+00 -9.13907337E-15  2.83411229E+00  8.55857357E+01
  6.86725541E-03  5.95311420E-01  8.57650328E-01 -5.36623312E-01  1.12131514E-15
  4.26317812E-06  1.09081094E-02  1.91353154E-02 -1.34365947E-02  2.78680279E-17
  4.28571116E-08  1.92396611E-04  4.73561675E-04 -2.06664155E-04  4.43337783E-19
  1.47743955E-07  1.64078420E-04  4.45049981E-04 -8.26343892E-05  1.98537223E-19
  3.23736948E-06  9.91658624E-03  2.23624042E-02 -4.94836387E-04  2.85059695E-18
  5.05915371E-03  6.38676133E-01  1.09993432E+00 -1.33844942E-01  3.56612639E-16
  4.87385400E-03  9.80604777E-06  4.67869362E-03  3.34834937E+00  0.00000000E+00
  2.23108181E-07  5.74126910E-07 -8.13227739E-08  2.23819157E-22  0.00000000E+00
  0.00000000E+00  0.00000000E+00  0.00000000E+00  0.00000000E+00  4.66299782E-07
  0.00000000E+00  0.00000000E+00  1.74206802E-01  3.82867051E+00  2.42111204E+00
 -4.62836974E+00  9.21419131E-15  3.13135590E+00  2.38025365E+01 -2.27206269E-01
 -2.21009696E+01  4.26847839E-14  5.80905005E-01  9.85085318E+00  4.57252620E+01
Multipole Matrix (1,1,0)                   R   N=        1830
  1.36066755E+00  3.37938644E-01  1.36066755E+00  3.78533143E-02  4.41848287E-01
  1.36066755E+00  1.85595739E-01  2.16639311E+00  5.08390209E-01  1.36066755E+00
  0.00000000E+00  0.00000000E+00  0.00000000E+00  0.00000000E+00  1.36066755E+00
  2.40087345E-06  8.40159741E-02 -8.76292496E-02  1.08192885E-01 -2.16514830E-16
  2.08667141E+00  5.93022445E-02  9.26337276E-01 -2.68387393E-01  1.21438481E+00
 -1.46423842E-15  5.18250698E-01  2.08667141E+00  6.91365615E-02  1.10214180E+00
 -1.12501659E-01  1.50906849E+00 -2.07790684E-15  1.79654531E-01  2.09704350E+00
  2.08667141E+00 -6.97893231E-02 -3.11471623E-01  2.25191574E-01 -2.73479090E-01
  8.45916210E-16  5.99702384E-02  7.00011283E-01  5.08390209E-01  2.08667141E+00
  1.55799756E-16  1.50356079E-15 -7.62988687E-16  2.33045650E-15  5.28785334E-01
  0.00000000E+00  0.00000000E+00  0.00000000E+00  0.00000000E+00  2.08667141E+00
  0.00000000E+00 -5.44050185E-03  1.20843233E-02 -4.12539635E-03  9.01600086E-18
 -9.55694054E-07 -1.22669975E-01  2.00298242E-01  3.58494377E-02 -5.73800019E-17
 -3.44921213E+00  2.60180654E-03  2.72863775E-02  4.33104246E-03  4.01083861E-02
 -3.28053201E-17  6.59742786E-02 -3.66080968E-01  8.94372040E-01 -9.39754005E-03
 -8.19885581E-17 -8.56654571E-01 -3.44921213E+00  5.74144221E-03  7.56845794E-02
 -4.04063382E-02  9.72262439E-02 -8.68065955E-17  1.07321257E-01  1.21790075E-01
  3.18890991E-01  5.41467189E-02  3.05640587E-17  1.41800422E-01  1.65518594E+00
 -3.44921213E+00 -1.65975980E-03  6.80104562E-04  4.41721190E-03 -4.28832675E-03
  2.65179818E-18  2.22141985E-02 -2.76288457E-01  5.61208600E-01 -1.66630236E-01
 -8.30424540E-17 -1.25592084E-01 -1.46599177E+00  5.08390209E-01 -3.44921213E+00
  4.30616090E-18  1.68449300E-17  1.85199402E-17  3.78304545E-17  9.01212415E-03
 -2.97040642E-17  1.38367560E-16 -3.34789279E-16 -8.45918748E-18 -2.09021860E-01
  0.00000000E+00  0.00000000E+00  0.00000000E+00  0.00000000E+00 -3.44921213E+00
  0.00000000E+00  4.73018492E-04 -1.24288432E-03 -3.05245311E-04  3.62163527E-19
  0.00000000E+00  1.73767827E-03 -3.03915866E-03 -2.90250386E-03  4.88629358E-18
 -1.46069508E-06  3.84790255E-02 -1.90983372E-02 -6.11393392E-02  1.05023575E-16
  1.36066755E+00  4.73018492E-04  1.32352884E-03 -3.19958850E-03  2.42539949E-03
  1.13323369E-18  2.95311143E-03 -4.51280764E-02  8.75454544E-02  8.31676063E-03
 -6.75151600E-17 -1.25353618E-01 -5.61208725E-01  4.63055716E-01  7.05818076E-02
 -1.22274891E-15  3.37938644E-01  1.36066755E+00  1.24288432E-03  3.19958850E-03
 -7.08193687E-03  1.33838159E-02  2.76653175E-18  5.33507501E-03 -1.02218099E-02
  4.14670580E-02 -2.34386089E-03 -9.48868909E-18 -6.03406943E-02 -1.87368979E-02
 -2.06517484E-01  5.85809548E-02 -1.87498350E-16 -3.78533143E-02 -4.41848287E-01
  1.36066755E+00  3.05245311E-04 -2.42539949E-03  1.33838159E-02  3.05244191E-03
 -1.04395961E-18  4.58137144E-03 -8.12670832E-02  1.51088816E-01  3.24414701E-02
 -1.36115035E-16 -1.98940460E-01 -1.07835080E+00  8.36175176E-01  4.40120768E-01
 -2.54710859E-15 -1.85595739E-01 -2.16639311E+00  5.08390209E-01  1.36066755E+00
 -3.62163527E-19 -1.13323369E-18  2.76653175E-18 -1.04395961E-18  1.16410291E-03
 -8.29669682E-18  7.16000886E-17 -1.50421630E-16 -1.12587637E-17 -1.49088175E-02
  3.73142172E-16  9.13131318E-16 -9.34276435E-16 -3.11469206E-16 -3.20401052E-01
  0.00000000E+00  0.00000000E+00  0.00000000E+00  0.00000000E+00  1.36066755E+00
  0.00000000E+00  2.95311143E-03 -5.33507501E-03 -4.58137144E-03  8.29669682E-18
  0.00000000E+00  7.26176789E-04 -6.63403948E-04 -1.84809378E-03  3.51599902E-18
  0.00000000E+00  3.70252196E-03  1.47690152E-03 -8.44326171E-03  1.65156039E-17
  2.40087345E-06  8.40159741E-02  8.76292496E-02 -1.08192885E-01  2.16514830E-16
  2.08667141E+00  1.73767827E-03 -4.51280764E-02  1.02218099E-02  8.12670832E-02
 -7.16000886E-17  7.26176789E-04  2.03137513E-03  1.19973396E-03 -4.68824255E-03
  1.09993037E-17 -5.55496844E-03  1.77790362E-02  3.61490017E-04 -6.35715886E-02
  1.88224655E-17  5.93022445E-02  9.26337276E-01  2.68387393E-01 -1.21438481E+00
  1.46423842E-15  5.18250698E-01  2.08667141E+00  3.03915866E-03 -8.75454544E-02
  4.14670580E-02  1.51088816E-01 -1.50421630E-16  6.63403948E-04 -1.19973396E-03
  3.66568565E-03  1.04738842E-02 -5.30403440E-19  2.73521039E-03 -2.67689773E-02
 -1.02296600E-03  7.32651865E-02 -6.89783875E-17 -6.91365615E-02 -1.10214180E+00
 -1.12501659E-01  1.50906849E+00 -2.07790684E-15 -1.79654531E-01 -2.09704350E+00
  2.08667141E+00  2.90250386E-03 -8.31676063E-03 -2.34386089E-03  3.24414701E-02
 -1.12587637E-17  1.84809378E-03  4.68824255E-03  1.04738842E-02 -9.84744725E-03
  2.57769794E-17 -1.27134235E-02 -1.57967656E-02  1.27603577E-02 -2.80999407E-02
 -8.50351877E-17  6.97893231E-02  3.11471623E-01  2.25191574E-01 -2.73479090E-01
  8.45916210E-16 -5.99702384E-02 -7.00011283E-01  5.08390209E-01  2.08667141E+00
 -4.88629358E-18  6.75151600E-17 -9.48868909E-18 -1.36115035E-16 -1.49088175E-02
 -3.51599902E-18 -1.09993037E-17 -5.30403440E-19  2.57769794E-17  1.78675087E-03
  2.47951931E-17 -6.83130406E-17 -9.18828390E-18  2.08058237E-16  5.87059624E-03
 -1.55799756E-16 -1.50356079E-15 -7.62988687E-16  2.33045650E-15  5.28785334E-01
  0.00000000E+00  0.00000000E+00  0.00000000E+00  0.00000000E+00  2.08667141E+00
 -1.46069508E-06 -1.25353618E-01  6.03406943E-02  1.98940460E-01 -3.73142172E-16
  0.00000000E+00 -5.55496844E-03 -2.73521039E-03  1.27134235E-02 -2.47951931E-17
  0.00000000E+00 -1.19866402E-03 -2.15365497E-03  2.42155913E-03 -4.88584636E-18
  0.00000000E+00 -5.44050185E-03 -1.20843233E-02  4.12539635E-03 -9.01600086E-18
 -9.55694054E-07 -1.22669975E-01 -2.00298242E-01 -3.58494377E-02  5.73800019E-17
 -3.44921213E+00  3.84790255E-02 -5.61208725E-01  1.87368979E-02  1.07835080E+00
 -9.13131318E-16  3.70252196E-03  1.77790362E-02  2.67689773E-02  1.57967656E-02
  6.83130406E-17 -1.19866402E-03 -3.35418730E-03 -4.15730209E-03  5.29079896E-03
 -1.52892494E-17  2.60180654E-03  2.72863775E-02 -4.33104246E-03 -4.01083861E-02
  3.28053201E-17  6.59742786E-02 -3.66080968E-01 -8.94372040E-01  9.39754005E-03
  8.19885581E-17 -8.56654571E-01 -3.44921213E+00  1.90983372E-02 -4.63055716E-01
 -2.06517484E-01  8.36175176E-01 -9.34276435E-16 -1.47690152E-03 -3.61490017E-04
 -1.02296600E-03  1.27603577E-02 -9.18828390E-18  2.15365497E-03  4.15730209E-03
  3.42081066E-03  1.68248650E-03  2.15588796E-17 -5.74144221E-03 -7.56845794E-02
 -4.04063382E-02  9.72262439E-02 -8.68065955E-17 -1.07321257E-01 -1.21790075E-01
  3.18890991E-01  5.41467189E-02  3.05640587E-17 -1.41800422E-01 -1.65518594E+00
 -3.44921213E+00  6.11393392E-02 -7.05818076E-02  5.85809548E-02  4.40120768E-01
 -3.11469206E-16  8.44326171E-03  6.35715886E-02  7.32651865E-02 -2.80999407E-02
  2.08058237E-16 -2.42155913E-03 -5.29079896E-03  1.68248650E-03  6.79251521E-03
 -2.60017086E-17  1.65975980E-03 -6.80104562E-04  4.41721190E-03 -4.28832675E-03
  2.65179818E-18 -2.22141985E-02  2.76288457E-01  5.61208600E-01 -1.66630236E-01
 -8.30424540E-17  1.25592084E-01  1.46599177E+00  5.08390209E-01 -3.44921213E+00
 -1.05023575E-16  1.22274891E-15 -1.87498350E-16 -2.54710859E-15 -3.20401052E-01
 -1.65156039E-17 -1.88224655E-17 -6.89783875E-17 -8.50351877E-17  5.87059624E-03
  4.88584636E-18  1.52892494E-17  2.15588796E-17 -2.60017086E-17 -2.95012330E-03
 -4.30616090E-18 -1.68449300E-17  1.85199402E-17  3.78304545E-17  9.01212415E-03
  2.97040642E-17 -1.38367560E-16 -3.34789279E-16 -8.45918748E-18 -2.09021860E-01
  0.00000000E+00  0.00000000E+00  0.00000000E+00  0.00000000E+00 -3.44921213E+00
  8.96281275E-03  4.61961432E-01 -1.37193250E-02  7.13016631E-01 -1.12039023E-15
  1.40263737E-01  2.04469506E+00  1.76446469E+00  2.21644481E+00 -3.51796070E-15
 -1.78059978E-02 -4.38825245E-02  1.62933921E-01 -6.40490393E-02  5.61129082E-17
  7.82616182E-05 -7.51148247E-03 -1.54047864E-04 -1.29526532E-02  1.61318519E-17
  2.05620503E-05  2.86253992E-04  7.03182147E-04  8.16901608E-04 -1.25747957E-18
 -2.78581460E-04  8.52876164E-03  2.38473753E-03  2.06126256E-02 -2.55186566E-17
  6.67671062E+00  1.38283120E-04  3.67177851E-04  7.79694693E-03  1.39919550E-03
 -2.50455213E-19  9.31481607E-03 -3.07270679E-01  5.81231715E-01 -1.48057955E-01
  2.33775650E-16 -2.31825391E-01 -3.37858027E+00  3.02578302E+00 -3.19406774E+00
  4.89306979E-15  5.27568380E-03 -3.83713244E-01  1.37804446E-01 -6.78360172E-01
  9.57202169E-16  1.92204517E-04 -2.05407982E-03  9.01304180E-04 -1.12943073E-02
  6.33877371E-18 -3.39347545E-05 -4.72033050E-04  1.13693534E-03 -1.19090377E-03
  1.74593381E-18 -1.55747665E-01 -1.10309448E+01  7.82616182E-05 -7.51148247E-03
  1.54047864E-04  1.29526532E-02 -1.61318519E-17  2.05620503E-05  2.86253992E-04
 -7.03182147E-04 -8.16901608E-04  1.25747957E-18 -2.78581460E-04  8.52876164E-03
 -2.38473753E-03 -2.06126256E-02  2.55186566E-17  8.96281275E-03  4.61961432E-01
  1.37193250E-02 -7.13016631E-01  1.12039023E-15  1.40263737E-01  2.04469506E+00
 -1.76446469E+00 -2.21644481E+00  3.51796070E-15 -1.78059978E-02 -4.38825245E-02
 -1.62933921E-01  6.40490393E-02 -5.61129082E-17  5.88316794E-06  7.72673505E-04
  6.67671062E+00  5.27568380E-03 -3.83713244E-01 -1.37804446E-01  6.78360172E-01
 -9.57202169E-16  1.92204517E-04 -2.05407982E-03 -9.01304180E-04  1.12943073E-02
 -6.33877371E-18 -3.39347545E-05 -4.72033050E-04 -1.13693534E-03  1.19090377E-03
 -1.74593381E-18  1.38283120E-04  3.67177851E-04 -7.79694693E-03 -1.39919550E-03
  2.50455213E-19  9.31481607E-03 -3.07270679E-01 -5.81231715E-01  1.48057955E-01
 -2.33775650E-16 -2.31825391E-01 -3.37858027E+00 -3.02578302E+00  3.19406774E+00
 -4.89306979E-15  7.72673505E-04 -9.70221895E-06 -1.55747665E-01 -1.10309448E+01
  0.00000000E+00  5.52458166E-07 -2.23040948E-06 -4.85245810E-07  6.54075509E-22
  0.00000000E+00  1.12489005E-05 -3.56009475E-05 -2.11161757E-05  3.62214113E-20
  0.00000000E+00  5.82323855E-03 -1.08885550E-02 -9.38408729E-03  1.65702130E-17
  2.07745939E-07  1.52128643E-01 -2.49102982E-01 -5.91073579E-02  7.27923207E-17
  0.00000000E+00  7.00507869E-03 -1.63042216E-02  4.58192088E-03 -1.13022213E-17
  0.00000000E+00  1.37167226E-05 -4.96379203E-05  5.27157926E-06 -1.68371466E-20
  9.57672893E-07  5.14839319E-03  6.60964275E-03  1.25574300E-06  6.02617227E+00
  1.04160504E-07  1.26590291E-04 -3.25991917E-04 -3.00028531E-04  8.12473875E-20
  2.90188182E-06 -2.34864536E-03  4.62844189E-03  2.06876237E-04 -4.03208632E-18
 -4.01535736E-03 -6.63399026E-02  1.00769685E-01 -3.42447320E-02 -1.27583941E-16
  4.02367109E-02  9.87400033E-01 -1.19809635E+00 -1.02702281E+00  3.03575637E-16
  2.91749771E-03  2.59882936E-01 -4.24031173E-01  2.23195137E-02 -2.55813089E-16
 -6.33133972E-06  4.31184583E-03 -9.76093336E-03 -6.31547135E-04 -2.83366759E-18
 -4.91971600E-04 -1.24687550E-01  2.85445819E-01  5.93051192E-04  1.49667455E+00
  6.02617227E+00  4.22679761E-07  2.36822331E-04 -6.03685124E-04 -5.27900370E-04
  1.58870873E-19  9.49354084E-06 -3.23674884E-03  5.88266226E-03  1.36383218E-04
 -5.54942213E-18 -7.34191589E-03 -5.08078505E-02  6.89125274E-02 -4.12430040E-02
 -1.10756661E-16  6.66365227E-02  9.75626977E-01 -9.66110311E-01 -1.04358609E+00
  3.92275137E-16  6.59785925E-03  3.26774633E-01 -4.87798815E-01  4.50561312E-02
 -3.55307492E-16 -2.31424072E-05  7.19794812E-03 -1.56642432E-02 -9.33841990E-04
 -4.85014111E-18 -6.40545957E-04 -6.02438653E-02  2.58868208E-01  9.62420945E-04
 -7.96773295E-02 -9.30045156E-01  6.02617227E+00  9.91567512E-08 -1.98069015E-04
  5.06621208E-04  2.31894963E-05 -1.24887516E-19  5.35101763E-06 -4.40332974E-03
  8.74829896E-03  1.55772811E-03 -7.68101941E-18 -6.35658055E-03 -1.64038968E-01
  2.34674410E-01  4.42112055E-02 -3.06677389E-16  9.19880927E-03 -6.75826156E-01
  7.56491510E-01  5.04359002E-01 -1.98450660E-16 -2.11058515E-03 -2.16328705E-01
  3.65467673E-01  4.43197785E-02  2.25416946E-16  2.93723765E-06 -2.81178758E-03
  6.47302725E-03  1.13454433E-03  1.90201073E-18 -8.97703624E-04 -2.52752176E-01
 -3.52402743E-01 -5.34322543E-04 -3.90505053E-01 -4.55822672E+00  5.08390209E-01
  6.02617227E+00 -1.23501976E-22 -8.50824877E-20  2.23670570E-19  1.92587058E-19
  4.29270682E-05 -9.37306018E-21  3.92566347E-18 -7.81449089E-18 -1.92471300E-19
 -7.37985793E-04  1.14084375E-17  9.13069339E-17 -1.56929599E-16  7.69113874E-17
 -2.39763304E-02 -1.98866095E-17 -3.41939484E-16  5.05046804E-16  3.54323020E-16
  5.48540577E-01  4.70129671E-18  2.64372846E-16 -4.64712909E-16  3.53730493E-17
  1.04004107E-01 -7.78577148E-21  2.93129554E-18 -6.76462736E-18 -3.87935929E-19
  1.42315860E-03  1.14210818E-18  2.90845391E-16  5.54257287E-16  7.85419739E-19
  0.00000000E+00  0.00000000E+00  0.00000000E+00  0.00000000E+00  6.02617227E+00
  0.00000000E+00  0.00000000E+00  0.00000000E+00  0.00000000E+00  0.00000000E+00
  0.00000000E+00 -4.94407304E-07  1.99149573E-06  4.12064772E-07 -6.70795192E-22
  0.00000000E+00 -1.06410729E-03  2.91671527E-03  6.09393699E-04 -1.04177339E-18
  0.00000000E+00 -5.55007442E-03  1.29155025E-02 -3.87799033E-03  7.99021737E-18
  0.00000000E+00 -1.27794177E-05  4.09473709E-05 -2.18833424E-05  4.43829906E-20
  0.00000000E+00 -1.34714237E-09  6.25365375E-09 -1.90112153E-09  4.29603015E-24
 -2.12757830E-07 -8.19669471E-03 -1.89361695E-05  0.00000000E+00  4.06116874E-06
 -1.87648029E-01  2.06636376E-01 -2.32864674E-01  4.33168886E-16 -4.93036655E+00
  0.00000000E+00 -1.70818563E-05  4.85383523E-05 -1.73947502E-05  6.03808508E-21
  9.86362716E-08 -1.38025551E-03  3.21780350E-03  1.54163188E-04 -9.97584929E-19
 -7.88093138E-04 -1.03604722E-01  1.81097220E-01 -8.49537888E-03 -5.94161390E-17
  1.65913899E-03 -2.23417469E-02  2.64442547E-02 -1.57159446E-01  1.59458173E-17
  9.34354268E-06  6.76088425E-03 -1.28814922E-02  1.40534555E-03 -1.28192411E-17
 -9.21123773E-10  5.52547796E-05 -1.42674271E-04 -1.23123189E-05 -8.96442576E-20
 -4.57477738E-04 -4.05599058E-01  8.06660109E-03  6.44360318E-06  2.50399374E-01
  5.13574689E-01 -6.14238279E-01 -1.31963690E+00 -1.07075302E-15 -1.22451762E+00
 -4.93036655E+00  0.00000000E+00 -3.98782166E-05  1.09363669E-04 -4.04616949E-05
  1.41398070E-20  4.12544988E-07 -2.71293675E-03  5.99732988E-03  3.20818134E-04
 -1.98245539E-18 -2.13084330E-03 -1.52822884E-01  2.48528522E-01 -7.96177004E-03
 -9.39203603E-17  3.81353091E-03 -4.26249902E-02  4.90690953E-02 -2.12831852E-01
  3.66133384E-17  2.92695129E-05  1.05395625E-02 -1.85131544E-02  2.23501942E-03
 -2.04356557E-17 -4.28445893E-09  1.18160045E-04 -2.90736317E-04 -2.68500833E-05
 -1.91739943E-19 -8.27470637E-04 -4.14917439E-01  9.60133104E-03  1.35596945E-05
  2.79076899E-01  1.91239934E-01 -9.77675423E-02 -8.17760683E-01 -6.79296930E-16
  4.93249468E-02  5.75752577E-01 -4.93036655E+00  0.00000000E+00 -1.60863138E-05
  4.57998744E-05 -5.36225988E-06  5.70224118E-21  9.24452582E-08 -1.19910108E-03
  2.81794020E-03 -1.05222135E-04 -8.75297714E-19 -5.33373601E-04 -9.11559470E-02
  1.63238034E-01 -2.06251465E-02 -5.41060478E-17 -1.21189140E-03 -1.51750230E-01
  2.37851192E-01 -1.19336491E-02  1.36523794E-16 -1.51691297E-05 -1.04801915E-02
  2.01952373E-02 -3.15116671E-03  2.01677958E-17  1.28187752E-09 -9.04839851E-05
  2.34266399E-04 -1.04321628E-05  1.47354615E-19 -5.37343009E-04 -4.85683110E-01
 -1.35730664E-02 -1.00783905E-05 -3.07524916E-01 -2.14220139E+00  1.95689071E+00
 -1.16392237E-01  3.62686115E-15 -5.16098347E-01 -6.02423261E+00  5.08390209E-01
 -4.93036655E+00  0.00000000E+00 -6.06163175E-21  1.72670244E-20 -6.15339223E-21
 -5.38548608E-06 -1.34754948E-22  1.00355668E-18 -2.36246986E-18 -1.18307245E-19
 -4.41922396E-04  7.71210818E-19  5.98868061E-17 -1.10984172E-16  3.18453880E-18
 -3.82951061E-02  2.38704882E-18 -2.91815179E-17  4.12066547E-17 -1.44439083E-16
 -1.07354157E-02  3.23147349E-20  1.25373909E-17 -2.44006487E-17  2.64216673E-18
  2.21098276E-03 -2.93750781E-24  8.95343890E-20 -2.31442395E-19 -2.03012538E-20
  1.73352974E-05  6.86722692E-19  5.89909309E-16  2.01936163E-17  1.37053225E-20
  5.96281032E-16  4.43243101E-16 -8.69110185E-16 -2.04272148E-15  2.96328686E-01
  0.00000000E+00  0.00000000E+00  0.00000000E+00  0.00000000E+00 -4.93036655E+00
  6.58597346E-08  9.82217832E-05 -2.53054504E-04 -1.43383334E-04  1.41944941E-19
  3.83347350E-07 -2.27287365E-05  4.77211821E-05 -2.40267848E-04 -4.86104673E-20
 -2.35636453E-04  5.33967337E-03 -5.87503652E-03 -2.00260187E-02  1.26678384E-17
  7.43549126E-03  6.30819406E-01 -7.46978374E-01 -7.48160746E-01  9.33147706E-16
  2.94007865E-03  2.89031833E-01 -4.78993223E-01 -1.19159030E-01  5.71678032E-17
 -1.38824519E-05  3.94372145E-03 -8.83767862E-03 -2.10371957E-03  1.34805625E-18
 -2.15607146E-05 -1.94804574E-03  7.68003175E-01  9.54255693E-04  4.13035641E-01
  6.00262403E+00 -1.95290533E+00 -7.48440728E+00  1.06530529E-14 -2.27490179E-02
  7.41021936E-01  2.34073315E-01 -1.36417421E+00  1.74054452E-15  1.84809872E+01
  0.00000000E+00 -5.03712271E-07  1.48984027E-06 -7.86232827E-07  8.48607199E-23
  2.85333888E-09 -6.35460244E-05  1.58459055E-04  4.44901162E-06 -4.79968778E-20
 -2.20643502E-05 -7.12524404E-03  1.37899419E-02 -1.05250953E-03 -4.34467071E-18
  7.87293044E-05  4.50862914E-03 -8.21138870E-03 -1.68890382E-02 -2.56257500E-18
  6.83980652E-07  1.02515190E-03 -2.16133369E-03  1.26023909E-04 -1.50277110E-18
  0.00000000E+00  5.54871549E-06 -1.51404748E-05 -8.88729603E-07 -7.01233210E-21
 -2.54669286E-05 -4.77704547E-02  2.21624480E-03  7.52243287E-07  3.41138339E-02
  3.19261303E-01 -4.23867265E-01 -3.67084051E-01 -3.12962218E-16 -2.94711071E-01
 -1.86674246E+00  1.94125891E+00 -2.44344110E+00 -5.16664429E-16  5.03346970E-01
 -2.50744641E+00  3.91895276E-08 -1.02641311E-04  2.66828755E-04 -9.75529976E-05
  1.22794412E-19  1.04687129E-05 -8.53850289E-03  1.77865042E-02 -2.62593883E-03
  2.42860082E-18 -5.10818774E-03 -3.38255805E-01  5.38629635E-01 -1.68579792E-01
  1.88796692E-16  1.01963898E-03 -1.21877682E-01  1.57244942E-01 -1.97364861E-01
  2.32264916E-16  8.45293820E-06  6.96716935E-04 -1.19383494E-03 -1.10422924E-03
 -1.82501226E-18 -5.09303084E-08 -4.00136141E-06  9.10317456E-06 -5.46911708E-05
  1.00249732E-20 -5.08138231E-03 -1.97533936E+00  9.27649317E-04  1.53594178E-06
  3.08335994E-02 -4.46949876E-01  2.06647092E-01 -9.68136900E-01  1.06139623E-15
 -3.55742175E-01 -5.87044507E+00 -7.20603513E-01 -7.82891353E+00  1.03932376E-14
  1.73511991E-02 -1.76478073E+00 -1.81829019E+01  2.07745939E-07  1.52128643E-01
  2.49102982E-01  5.91073579E-02 -7.27923207E-17  0.00000000E+00  7.00507869E-03
  1.63042216E-02 -4.58192088E-03  1.13022213E-17  0.00000000E+00  1.37167226E-05
  4.96379203E-05 -5.27157926E-06  1.68371466E-20  0.00000000E+00  5.52458166E-07
  2.23040948E-06  4.85245810E-07 -6.54075509E-22  0.00000000E+00  1.12489005E-05
  3.56009475E-05  2.11161757E-05 -3.62214113E-20  0.00000000E+00  5.82323855E-03
  1.08885550E-02  9.38408729E-03 -1.65702130E-17  6.60964275E-03  1.25574300E-06
  9.57672893E-07  5.14839319E-03  0.00000000E+00  0.00000000E+00  0.00000000E+00
  0.00000000E+00  0.00000000E+00  0.00000000E+00  0.00000000E+00  0.00000000E+00
  0.00000000E+00  0.00000000E+00  0.00000000E+00  0.00000000E+00  0.00000000E+00
  6.02617227E+00  4.02367109E-02  9.87400033E-01  1.19809635E+00  1.02702281E+00
 -3.03575637E-16  2.91749771E-03  2.59882936E-01  4.24031173E-01 -2.23195137E-02
  2.55813089E-16 -6.33133972E-06  4.31184583E-03  9.76093336E-03  6.31547135E-04
  2.83366759E-18  1.04160504E-07  1.26590291E-04  3.25991917E-04  3.00028531E-04
 -8.12473875E-20  2.90188182E-06 -2.34864536E-03 -4.62844189E-03 -2.06876237E-04
  4.03208632E-18 -4.01535736E-03 -6.63399026E-02 -1.00769685E-01  3.42447320E-02
  1.27583941E-16  2.85445819E-01  5.93051192E-04 -4.91971600E-04 -1.24687550E-01
  0.00000000E+00  0.00000000E+00  0.00000000E+00  0.00000000E+00  0.00000000E+00
  0.00000000E+00  0.00000000E+00  0.00000000E+00  0.00000000E+00  0.00000000E+00
 -9.36306311E-08  0.00000000E+00  5.80792934E-08  1.49667455E+00  6.02617227E+00
 -6.66365227E-02 -9.75626977E-01 -9.66110311E-01 -1.04358609E+00  3.92275137E-16
 -6.59785925E-03 -3.26774633E-01 -4.87798815E-01  4.50561312E-02 -3.55307492E-16
  2.31424072E-05 -7.19794812E-03 -1.56642432E-02 -9.33841990E-04 -4.85014111E-18
 -4.22679761E-07 -2.36822331E-04 -6.03685124E-04 -5.27900370E-04  1.58870873E-19
 -9.49354084E-06  3.23674884E-03  5.88266226E-03  1.36383218E-04 -5.54942213E-18
  7.34191589E-03  5.08078505E-02  6.89125274E-02 -4.12430040E-02 -1.10756661E-16
 -2.58868208E-01 -9.62420945E-04  6.40545957E-04  6.02438653E-02  0.00000000E+00
  0.00000000E+00  0.00000000E+00  1.98411955E-07  0.00000000E+00  0.00000000E+00
  0.00000000E+00  0.00000000E+00  0.00000000E+00  0.00000000E+00  1.24945505E-07
  0.00000000E+00  4.52969793E-08  7.96773295E-02  9.30045156E-01  6.02617227E+00
 -9.19880927E-03  6.75826156E-01  7.56491510E-01  5.04359002E-01 -1.98450660E-16
  2.11058515E-03  2.16328705E-01  3.65467673E-01  4.43197785E-02  2.25416946E-16
 -2.93723765E-06  2.81178758E-03  6.47302725E-03  1.13454433E-03  1.90201073E-18
 -9.91567512E-08  1.98069015E-04  5.06621208E-04  2.31894963E-05 -1.24887516E-19
 -5.35101763E-06  4.40332974E-03  8.74829896E-03  1.55772811E-03 -7.68101941E-18
  6.35658055E-03  1.64038968E-01  2.34674410E-01  4.42112055E-02 -3.06677389E-16
  3.52402743E-01  5.34322543E-04  8.97703624E-04  2.52752176E-01  0.00000000E+00
  0.00000000E+00  1.98411955E-07  0.00000000E+00  0.00000000E+00  0.00000000E+00
  0.00000000E+00  0.00000000E+00  0.00000000E+00  0.00000000E+00  1.78057389E-07
  0.00000000E+00  4.29522428E-08  3.90505053E-01  4.55822672E+00  5.08390209E-01
  6.02617227E+00  1.98866095E-17  3.41939484E-16  5.05046804E-16  3.54323020E-16
  5.48540577E-01 -4.70129671E-18 -2.64372846E-16 -4.64712909E-16  3.53730493E-17
  1.04004107E-01  7.78577148E-21 -2.93129554E-18 -6.76462736E-18 -3.87935929E-19
  1.42315860E-03  1.23501976E-22  8.50824877E-20  2.23670570E-19  1.92587058E-19
  4.29270682E-05  9.37306018E-21 -3.92566347E-18 -7.81449089E-18 -1.92471300E-19
 -7.37985793E-04 -1.14084375E-17 -9.13069339E-17 -1.56929599E-16  7.69113874E-17
 -2.39763304E-02 -5.54257287E-16 -7.85419739E-19 -1.14210818E-18 -2.90845391E-16
  0.00000000E+00  0.00000000E+00  0.00000000E+00  0.00000000E+00  0.00000000E+00
  0.00000000E+00  0.00000000E+00  0.00000000E+00  0.00000000E+00  0.00000000E+00
 -1.51543658E-22  0.00000000E+00 -5.82643740E-23  0.00000000E+00  0.00000000E+00
  0.00000000E+00  0.00000000E+00  6.02617227E+00  0.00000000E+00 -5.55007442E-03
 -1.29155025E-02  3.87799033E-03 -7.99021737E-18  0.00000000E+00 -1.27794177E-05
 -4.09473709E-05  2.18833424E-05 -4.43829906E-20  0.00000000E+00 -1.34714237E-09
 -6.25365375E-09  1.90112153E-09 -4.29603015E-24  0.00000000E+00  0.00000000E+00
  0.00000000E+00  0.00000000E+00  0.00000000E+00  0.00000000E+00 -4.94407304E-07
 -1.99149573E-06 -4.12064772E-07  6.70795192E-22  0.00000000E+00 -1.06410729E-03
 -2.91671527E-03 -6.09393699E-04  1.04177339E-18 -1.89361695E-05  0.00000000E+00
 -2.12757830E-07 -8.19669471E-03  0.00000000E+00  0.00000000E+00  0.00000000E+00
  0.00000000E+00  0.00000000E+00  0.00000000E+00  0.00000000E+00  0.00000000E+00
  0.00000000E+00  0.00000000E+00  0.00000000E+00  0.00000000E+00  0.00000000E+00
  4.06116874E-06 -1.87648029E-01 -2.06636376E-01  2.32864674E-01 -4.33168886E-16
 -4.93036655E+00  1.65913899E-03 -2.23417469E-02 -2.64442547E-02  1.57159446E-01
 -1.59458173E-17  9.34354268E-06  6.76088425E-03  1.28814922E-02 -1.40534555E-03
  1.28192411E-17 -9.21123773E-10  5.52547796E-05  1.42674271E-04  1.23123189E-05
  8.96442576E-20  0.00000000E+00 -1.70818563E-05 -4.85383523E-05  1.73947502E-05
 -6.03808508E-21  9.86362716E-08 -1.38025551E-03 -3.21780350E-03 -1.54163188E-04
  9.97584929E-19 -7.88093138E-04 -1.03604722E-01 -1.81097220E-01  8.49537888E-03
  5.94161390E-17  8.06660109E-03  6.44360318E-06 -4.57477738E-04 -4.05599058E-01
  0.00000000E+00  0.00000000E+00  0.00000000E+00  0.00000000E+00  0.00000000E+00
  0.00000000E+00  0.00000000E+00  0.00000000E+00  0.00000000E+00  0.00000000E+00
  0.00000000E+00  0.00000000E+00  0.00000000E+00  2.50399374E-01  5.13574689E-01
  6.14238279E-01  1.31963690E+00  1.07075302E-15 -1.22451762E+00 -4.93036655E+00
 -3.81353091E-03  4.26249902E-02  4.90690953E-02 -2.12831852E-01  3.66133384E-17
 -2.92695129E-05 -1.05395625E-02 -1.85131544E-02  2.23501942E-03 -2.04356557E-17
  4.28445893E-09 -1.18160045E-04 -2.90736317E-04 -2.68500833E-05 -1.91739943E-19
  0.00000000E+00  3.98782166E-05  1.09363669E-04 -4.04616949E-05  1.41398070E-20
 -4.12544988E-07  2.71293675E-03  5.99732988E-03  3.20818134E-04 -1.98245539E-18
  2.13084330E-03  1.52822884E-01  2.48528522E-01 -7.96177004E-03 -9.39203603E-17
 -9.60133104E-03 -1.35596945E-05  8.27470637E-04  4.14917439E-01  0.00000000E+00
  0.00000000E+00  0.00000000E+00  0.00000000E+00  0.00000000E+00  0.00000000E+00
  0.00000000E+00  0.00000000E+00  0.00000000E+00  0.00000000E+00  0.00000000E+00
  0.00000000E+00  0.00000000E+00 -2.79076899E-01 -1.91239934E-01 -9.77675423E-02
 -8.17760683E-01 -6.79296930E-16 -4.93249468E-02 -5.75752577E-01 -4.93036655E+00
  1.21189140E-03  1.51750230E-01  2.37851192E-01 -1.19336491E-02  1.36523794E-16
  1.51691297E-05  1.04801915E-02  2.01952373E-02 -3.15116671E-03  2.01677958E-17
 -1.28187752E-09  9.04839851E-05  2.34266399E-04 -1.04321628E-05  1.47354615E-19
  0.00000000E+00  1.60863138E-05  4.57998744E-05 -5.36225988E-06  5.70224118E-21
 -9.24452582E-08  1.19910108E-03  2.81794020E-03 -1.05222135E-04 -8.75297714E-19
  5.33373601E-04  9.11559470E-02  1.63238034E-01 -2.06251465E-02 -5.41060478E-17
  1.35730664E-02  1.00783905E-05  5.37343009E-04  4.85683110E-01  0.00000000E+00
  0.00000000E+00  0.00000000E+00  0.00000000E+00  0.00000000E+00  0.00000000E+00
  0.00000000E+00  0.00000000E+00  0.00000000E+00  0.00000000E+00  0.00000000E+00
  0.00000000E+00  0.00000000E+00  3.07524916E-01  2.14220139E+00  1.95689071E+00
 -1.16392237E-01  3.62686115E-15  5.16098347E-01  6.02423261E+00  5.08390209E-01
 -4.93036655E+00 -2.38704882E-18  2.91815179E-17  4.12066547E-17 -1.44439083E-16
 -1.07354157E-02 -3.23147349E-20 -1.25373909E-17 -2.44006487E-17  2.64216673E-18
  2.21098276E-03  2.93750781E-24 -8.95343890E-20 -2.31442395E-19 -2.03012538E-20
  1.73352974E-05  0.00000000E+00  6.06163175E-21  1.72670244E-20 -6.15339223E-21
 -5.38548608E-06  1.34754948E-22 -1.00355668E-18 -2.36246986E-18 -1.18307245E-19
 -4.41922396E-04 -7.71210818E-19 -5.98868061E-17 -1.10984172E-16  3.18453880E-18
 -3.82951061E-02 -2.01936163E-17 -1.37053225E-20 -6.86722692E-19 -5.89909309E-16
  0.00000000E+00  0.00000000E+00  0.00000000E+00  0.00000000E+00  0.00000000E+00
  0.00000000E+00  0.00000000E+00  0.00000000E+00  0.00000000E+00  0.00000000E+00
  0.00000000E+00  0.00000000E+00  0.00000000E+00 -5.96281032E-16 -4.43243101E-16
 -8.69110185E-16 -2.04272148E-15  2.96328686E-01  0.00000000E+00  0.00000000E+00
  0.00000000E+00  0.00000000E+00 -4.93036655E+00  7.43549126E-03  6.30819406E-01
  7.46978374E-01  7.48160746E-01 -9.33147706E-16  2.94007865E-03  2.89031833E-01
  4.78993223E-01  1.19159030E-01 -5.71678032E-17 -1.38824519E-05  3.94372145E-03
  8.83767862E-03  2.10371957E-03 -1.34805625E-18  6.58597346E-08  9.82217832E-05
  2.53054504E-04  1.43383334E-04 -1.41944941E-19  3.83347350E-07 -2.27287365E-05
 -4.77211821E-05  2.40267848E-04  4.86104673E-20 -2.35636453E-04  5.33967337E-03
  5.87503652E-03  2.00260187E-02 -1.26678384E-17  7.68003175E-01  9.54255693E-04
 -2.15607146E-05 -1.94804574E-03  0.00000000E+00 -9.36306311E-08 -1.24945505E-07
 -1.78057389E-07  1.51543658E-22  0.00000000E+00  0.00000000E+00  0.00000000E+00
  0.00000000E+00  0.00000000E+00  0.00000000E+00  0.00000000E+00 -3.35467577E-07
  4.13035641E-01  6.00262403E+00  1.95290533E+00  7.48440728E+00 -1.06530529E-14
 -2.27490179E-02  7.41021936E-01 -2.34073315E-01  1.36417421E+00 -1.74054452E-15
  1.84809872E+01  7.87293044E-05  4.50862914E-03  8.21138870E-03  1.68890382E-02
  2.56257500E-18  6.83980652E-07  1.02515190E-03  2.16133369E-03 -1.26023909E-04
  1.50277110E-18  0.00000000E+00  5.54871549E-06  1.51404748E-05  8.88729603E-07
  7.01233210E-21  0.00000000E+00 -5.03712271E-07 -1.48984027E-06  7.86232827E-07
 -8.48607199E-23  2.85333888E-09 -6.35460244E-05 -1.58459055E-04 -4.44901162E-06
  4.79968778E-20 -2.20643502E-05 -7.12524404E-03 -1.37899419E-02  1.05250953E-03
  4.34467071E-18  2.21624480E-03  7.52243287E-07 -2.54669286E-05 -4.77704547E-02
  0.00000000E+00  0.00000000E+00  0.00000000E+00  0.00000000E+00  0.00000000E+00
  0.00000000E+00  0.00000000E+00  0.00000000E+00  0.00000000E+00  0.00000000E+00
  0.00000000E+00  0.00000000E+00  0.00000000E+00  3.41138339E-02  3.19261303E-01
  4.23867265E-01  3.67084051E-01  3.12962218E-16 -2.94711071E-01 -1.86674246E+00
 -1.94125891E+00  2.44344110E+00  5.16664429E-16  5.03346970E-01 -2.50744641E+00
  1.01963898E-03 -1.21877682E-01 -1.57244942E-01  1.97364861E-01 -2.32264916E-16
  8.45293820E-06  6.96716935E-04  1.19383494E-03  1.10422924E-03  1.82501226E-18
 -5.09303084E-08 -4.00136141E-06 -9.10317456E-06  5.46911708E-05 -1.00249732E-20
  3.91895276E-08 -1.02641311E-04 -2.66828755E-04  9.75529976E-05 -1.22794412E-19
  1.04687129E-05 -8.53850289E-03 -1.77865042E-02  2.62593883E-03 -2.42860082E-18
 -5.10818774E-03 -3.38255805E-01 -5.38629635E-01  1.68579792E-01 -1.88796692E-16
  9.27649317E-04  1.53594178E-06 -5.08138231E-03 -1.97533936E+00  0.00000000E+00
  5.80792934E-08 -4.52969793E-08 -4.29522428E-08  5.82643740E-23  0.00000000E+00
  0.00000000E+00  0.00000000E+00  0.00000000E+00  0.00000000E+00 -3.35467577E-07
  0.00000000E+00  0.00000000E+00  3.08335994E-02 -4.46949876E-01 -2.06647092E-01
  9.68136900E-01 -1.06139623E-15 -3.55742175E-01 -5.87044507E+00  7.20603513E-01
  7.82891353E+00 -1.03932376E-14  1.73511991E-02 -1.76478073E+00 -1.81829019E+01
Multipole Matrix (0,2,0)                   R   N=        1830
  3.08581032E-01  9.52778092E-02  1.11886633E+00  0.00000000E+00  0.00000000E+00
  7.85906151E-01  7.57066286E-02  8.83696574E-01  0.00000000E+00  1.80268657E+00
  0.00000000E+00  0.00000000E+00  0.00000000E+00  0.00000000E+00  7.85906151E-01
  2.19306823E-06  2.22320997E-01 -2.38630245E-01  2.81366558E-01 -5.51795972E-16
  6.28216534E+00  1.89755946E-02  1.20156876E+00 -7.49126095E-01  1.57526190E+00
 -1.73223961E-15  1.57889149E+00  7.09245064E+00  2.25875660E-02  8.89047019E-01
 -4.87944077E-02  1.32891531E+00 -1.66807281E-15  0.00000000E+00  0.00000000E+00
  6.75949046E+00 -2.19774908E-02 -9.97012012E-02  1.91613643E-01  1.75027550E-01
  4.43077265E-16  3.59309062E-01  4.19408700E+00  0.00000000E+00  7.77627088E+00
  5.22302943E-17  2.05578536E-15 -1.66807281E-15  3.07291356E-15  6.72582050E-01
  0.00000000E+00  0.00000000E+00  0.00000000E+00  0.00000000E+00  6.75949046E+00
  0.00000000E+00  6.89022342E-03 -1.50485891E-02  5.41050857E-03 -1.14087738E-17
  4.74860496E-06  1.55880591E-01 -2.55081468E-01 -4.16800736E-02  7.50130495E-17
  3.92541670E+00  8.42731644E-04  1.59063784E-01 -2.08425460E-01  1.64825967E-01
 -1.58013413E-16  2.36190642E-01  2.17452074E+00 -2.24654748E+00  7.72852420E-01
  6.60653160E-16  9.93563760E-01  4.73570200E+00  1.83483921E-03  2.24255969E-01
 -2.58217618E-01  2.37872155E-01 -2.44453956E-16  3.81150119E-01  2.16492951E+00
 -1.69260867E+00  6.67854180E-01  8.58939173E-16  0.00000000E+00  0.00000000E+00
  4.40274182E+00 -4.89979915E-04  3.20220335E-02 -3.99869363E-02  7.94218305E-02
 -3.03152613E-17  9.03788774E-02  1.62625499E+00 -1.81690990E+00  1.41521200E+00
  5.34307544E-16  2.83600843E-01  3.31037187E+00  0.00000000E+00  5.41952223E+00
  1.39104506E-18  1.70014983E-16 -2.44453956E-16  1.80337810E-16  6.42260741E-02
 -1.12086672E-16 -6.36651366E-16  8.58939173E-16 -1.96399132E-16  1.22820933E+00
  0.00000000E+00  0.00000000E+00  0.00000000E+00  0.00000000E+00  4.40274182E+00
  0.00000000E+00  1.40979227E-04 -3.65937270E-04 -9.66614649E-05  1.07583605E-19
  0.00000000E+00  4.74596979E-04 -8.17580327E-04 -7.97210646E-04  1.33047700E-18
  5.54745732E-07  1.01087993E-02 -4.86245768E-03 -1.62281090E-02  2.79613890E-17
  3.08581032E-01  1.40979227E-04  2.76771822E-02 -4.11401596E-02 -7.08073566E-03
  1.20949875E-17  1.04752221E-02  1.28356110E-01 -1.51988019E-01 -4.25074615E-02
  2.47335407E-16  1.33304344E-01  5.68652455E-01 -2.02052484E-01 -1.04112751E-01
  1.16189558E-15  9.52778092E-02  1.11886633E+00  3.65937270E-04  4.11401596E-02
 -5.45816044E-02 -1.08094950E-02  1.89375114E-17  1.80610581E-02  1.31334046E-01
 -1.18263165E-01 -5.15756361E-02  2.80486422E-16  6.73898217E-02  1.61565327E-01
  2.38271909E-01 -5.61263444E-02  4.20007697E-16  0.00000000E+00  0.00000000E+00
  7.85906151E-01  9.66614649E-05  7.08073566E-03 -1.08094950E-02  2.72939470E-02
  3.17793386E-18  1.64709011E-02  1.83881072E-01 -2.24782689E-01 -1.01112258E-02
  3.65796714E-16  2.10864980E-01  7.63845573E-01 -3.15854274E-01  1.52099480E-01
  1.81630871E-15 -7.57066286E-02 -8.83696574E-01  0.00000000E+00  1.80268657E+00
 -1.07583605E-19 -1.20949875E-17  1.89375114E-17  3.17793386E-18  9.83286847E-03
 -2.93913901E-17 -2.13724476E-16  2.80486422E-16  8.39308325E-17  5.40962077E-02
 -3.87522759E-16 -9.29075636E-16  4.20007697E-16  3.22752536E-16  3.11310829E-01
  0.00000000E+00  0.00000000E+00  0.00000000E+00  0.00000000E+00  7.85906151E-01
  0.00000000E+00  1.04752221E-02 -1.80610581E-02 -1.64709011E-02  2.93913901E-17
  0.00000000E+00  2.21997953E-03 -1.86772541E-03 -5.69984694E-03  1.07464303E-17
  0.00000000E+00  9.89753902E-03  4.56202429E-03 -2.28043149E-02  4.41825838E-17
  2.19306823E-06  2.22320997E-01  2.38630245E-01 -2.81366558E-01  5.51795972E-16
  6.28216534E+00  4.74596979E-04  1.28356110E-01 -1.31334046E-01 -1.83881072E-01
  2.13724476E-16  2.21997953E-03  3.35086191E-02 -1.87739952E-02 -5.00189684E-02
  1.08020927E-16  5.95641963E-03  8.09978313E-02  2.47773931E-02 -1.24538460E-01
  2.39965677E-16  1.89755946E-02  1.20156876E+00  7.49126095E-01 -1.57526190E+00
  1.73223961E-15  1.57889149E+00  7.09245064E+00  8.17580327E-04  1.51988019E-01
 -1.18263165E-01 -2.24782689E-01  2.80486422E-16  1.86772541E-03  1.87739952E-02
  3.37310802E-03 -3.11194422E-02  6.66330901E-17 -2.74610568E-03 -2.69528742E-02
  2.92758269E-02  4.53592444E-02 -8.87739456E-17 -2.25875660E-02 -8.89047019E-01
 -4.87944077E-02  1.32891531E+00 -1.66807281E-15  0.00000000E+00  0.00000000E+00
  6.75949046E+00  7.97210646E-04  4.25074615E-02 -5.15756361E-02 -1.01112258E-02
  8.39308325E-17  5.69984694E-03  5.00189684E-02 -3.11194422E-02 -4.83636493E-02
  1.79053578E-16  1.38020838E-02  9.26004802E-02  3.30121211E-02 -8.01898359E-02
  3.19717896E-16  2.19774908E-02  9.97012012E-02  1.91613643E-01  1.75027550E-01
  4.43077265E-16 -3.59309062E-01 -4.19408700E+00  0.00000000E+00  7.77627088E+00
 -1.33047700E-18 -2.47335407E-16  2.80486422E-16  3.65796714E-16  5.40962077E-02
 -1.07464303E-17 -1.08020927E-16  6.66330901E-17  1.79053578E-16  1.49539132E-02
 -2.65956594E-17 -2.61034915E-16 -8.87739456E-17  4.39298103E-16  3.84420834E-02
 -5.22302943E-17 -2.05578536E-15 -1.66807281E-15  3.07291356E-15  6.72582050E-01
  0.00000000E+00  0.00000000E+00  0.00000000E+00  0.00000000E+00  6.75949046E+00
  5.54745732E-07  1.33304344E-01 -6.73898217E-02 -2.10864980E-01  3.87522759E-16
  0.00000000E+00  5.95641963E-03  2.74610568E-03 -1.38020838E-02  2.65956594E-17
  0.00000000E+00  1.39784743E-03  2.46261530E-03 -2.86291342E-03  5.69583741E-18
  0.00000000E+00  6.89022342E-03  1.50485891E-02 -5.41050857E-03  1.14087738E-17
  4.74860496E-06  1.55880591E-01  2.55081468E-01  4.16800736E-02 -7.50130495E-17
  3.92541670E+00  1.01087993E-02  5.68652455E-01 -1.61565327E-01 -7.63845573E-01
  9.29075636E-16  9.89753902E-03  8.09978313E-02  2.69528742E-02 -9.26004802E-02
  2.61034915E-16  1.39784743E-03  3.11891870E-02  3.47656162E-02 -3.43461898E-02
  8.04101631E-17  8.42731644E-04  1.59063784E-01  2.08425460E-01 -1.64825967E-01
  1.58013413E-16  2.36190642E-01  2.17452074E+00  2.24654748E+00 -7.72852420E-01
 -6.60653160E-16  9.93563760E-01  4.73570200E+00  4.86245768E-03  2.02052484E-01
  2.38271909E-01 -3.15854274E-01  4.20007697E-16 -4.56202429E-03 -2.47773931E-02
  2.92758269E-02  3.30121211E-02 -8.87739456E-17 -2.46261530E-03 -3.47656162E-02
 -2.94336623E-02  4.19243712E-02 -9.79709376E-17 -1.83483921E-03 -2.24255969E-01
 -2.58217618E-01  2.37872155E-01 -2.44453956E-16 -3.81150119E-01 -2.16492951E+00
 -1.69260867E+00  6.67854180E-01  8.58939173E-16  0.00000000E+00  0.00000000E+00
  4.40274182E+00  1.62281090E-02  1.04112751E-01 -5.61263444E-02  1.52099480E-01
  3.22752536E-16  2.28043149E-02  1.24538460E-01  4.53592444E-02 -8.01898359E-02
  4.39298103E-16  2.86291342E-03  3.43461898E-02  4.19243712E-02 -8.56168849E-03
  9.69678058E-17  4.89979915E-04 -3.20220335E-02 -3.99869363E-02  7.94218305E-02
 -3.03152613E-17 -9.03788774E-02 -1.62625499E+00 -1.81690990E+00  1.41521200E+00
  5.34307544E-16 -2.83600843E-01 -3.31037187E+00  0.00000000E+00  5.41952223E+00
 -2.79613890E-17 -1.16189558E-15  4.20007697E-16  1.81630871E-15  3.11310829E-01
 -4.41825838E-17 -2.39965677E-16 -8.87739456E-17  3.19717896E-16  3.84420834E-02
 -5.69583741E-18 -8.04101631E-17 -9.79709376E-17  9.69678058E-17  1.29244165E-02
 -1.39104506E-18 -1.70014983E-16 -2.44453956E-16  1.80337810E-16  6.42260741E-02
  1.12086672E-16  6.36651366E-16  8.58939173E-16 -1.96399132E-16  1.22820933E+00
  0.00000000E+00  0.00000000E+00  0.00000000E+00  0.00000000E+00  4.40274182E+00
  2.92072724E-03  6.85752707E-01 -2.34609986E-01  1.13373993E+00 -1.68550360E-15
  4.26208573E-01  6.53450841E+00  1.92640669E+00  8.06845951E+00 -1.10702046E-14
  2.30518511E-02  1.06629306E+00  1.07698331E+00  1.23584893E+00 -1.51014438E-15
  2.14190604E-05  2.63716975E-02  2.73804270E-02  4.73340547E-02 -6.27831426E-17
  6.29145949E-05  3.13164229E-03  1.90275881E-03  6.66727749E-03 -1.09441292E-17
  2.89723311E-04  1.43053678E-02 -9.92366728E-04  3.09230631E-02 -4.92400339E-17
  2.06402965E+01  4.69830829E-05  2.96954937E-02 -4.25906651E-02  3.84319470E-02
 -4.82656708E-17  3.45942972E-02  9.54073676E-01 -1.17431865E+00  7.04406813E-01
 -7.19573600E-16  2.67780009E-01  4.22554625E+00 -2.58404284E+00  4.73519484E+00
 -5.97437183E-15  1.35106377E-03  3.25904585E-01 -5.61725916E-02  5.64934005E-01
 -8.26244834E-16  4.89960234E-04  9.79679852E-03 -6.44616051E-03  1.63488856E-02
 -3.38456201E-17  3.96265099E-05  2.80571270E-03 -3.46334409E-03  4.67384203E-03
 -8.00956667E-18  8.58305203E-01  1.31018413E+01  2.14190604E-05  2.63716975E-02
 -2.73804270E-02 -4.73340547E-02  6.27831426E-17  6.29145949E-05  3.13164229E-03
 -1.90275881E-03 -6.66727749E-03  1.09441292E-17  2.89723311E-04  1.43053678E-02
  9.92366728E-04 -3.09230631E-02  4.92400339E-17  2.92072724E-03  6.85752707E-01
  2.34609986E-01 -1.13373993E+00  1.68550360E-15  4.26208573E-01  6.53450841E+00
 -1.92640669E+00 -8.06845951E+00  1.10702046E-14  2.30518511E-02  1.06629306E+00
 -1.07698331E+00 -1.23584893E+00  1.51014438E-15  1.80484250E-04  1.52813856E-03
  2.06402965E+01  1.35106377E-03  3.25904585E-01  5.61725916E-02 -5.64934005E-01
  8.26244834E-16  4.89960234E-04  9.79679852E-03  6.44616051E-03 -1.63488856E-02
  3.38456201E-17  3.96265099E-05  2.80571270E-03  3.46334409E-03 -4.67384203E-03
  8.00956667E-18  4.69830829E-05  2.96954937E-02  4.25906651E-02 -3.84319470E-02
  4.82656708E-17  3.45942972E-02  9.54073676E-01  1.17431865E+00 -7.04406813E-01
  7.19573600E-16  2.67780009E-01  4.22554625E+00  2.58404284E+00 -4.73519484E+00
  5.97437183E-15  1.52813856E-03  1.73633376E-04  8.58305203E-01  1.31018413E+01
  0.00000000E+00  1.24709092E-07 -5.01652009E-07 -1.15209515E-07  1.47536804E-22
  0.00000000E+00  2.31077724E-06 -7.28698603E-06 -4.44205801E-06  7.43979969E-21
  0.00000000E+00  1.19133613E-03 -2.21514860E-03 -1.97057890E-03  3.38947874E-18
  4.68694584E-08  3.37342225E-02 -5.48311350E-02 -1.47099534E-02  1.61365908E-17
  0.00000000E+00  1.69549621E-03 -3.92320327E-03  1.03702073E-03 -2.73213427E-18
  0.00000000E+00  3.36511149E-06 -1.21232427E-05  1.14454964E-06 -4.12527359E-21
  1.90350723E-07  1.02011455E-03  1.64253521E-03  3.17551982E-07  1.26062489E+00
  3.32293791E-08  3.52275643E-04 -7.53613555E-04 -2.53217121E-04  2.21639171E-19
  1.29504225E-05  2.47565456E-03 -4.36511056E-03 -1.15457918E-03  4.45665026E-18
  3.95827504E-03  6.10699577E-02 -7.48815290E-02 -2.78261231E-02  1.14578928E-16
  1.09015318E-02  4.77758629E-01 -4.69759766E-01 -4.29012922E-01  1.38248480E-16
  6.90578908E-03  1.99936436E-01 -2.94073056E-01 -2.44450837E-02 -2.04793639E-16
  9.00329039E-06  5.30930573E-03 -1.04685215E-02 -1.60674937E-03 -3.56220826E-18
  4.67461902E-04  7.44474382E-02  2.49056728E-01  9.28993950E-04  3.31729697E-01
  2.07091019E+00  1.33517876E-07  7.56274508E-04 -1.52016097E-03 -5.45915185E-04
  4.80155043E-19  4.08066827E-05  4.23224349E-03 -6.87461029E-03 -2.06652891E-03
  7.86888258E-18  7.35751669E-03  6.82139550E-02 -6.66020528E-02 -3.57174542E-02
  1.40429250E-16  1.81471651E-02  4.96360641E-01 -3.67541639E-01 -4.85651391E-01
  1.76198295E-16  1.60052166E-02  2.78405691E-01 -3.66907898E-01 -2.81285394E-02
 -3.10985107E-16  3.24735987E-05  1.03878339E-02 -1.92277838E-02 -3.14251349E-03
 -7.13897833E-18  7.49094437E-04  5.00626710E-02  2.73823499E-01  1.84189088E-03
  0.00000000E+00  0.00000000E+00  1.73795001E+00  3.27401460E-08  4.93407348E-05
 -1.05253640E-04  2.54942598E-04  3.09552944E-20  2.41178015E-05  3.65300185E-03
 -6.50361731E-03 -4.61293838E-04  6.64000312E-18  6.37900816E-03  7.47587277E-02
 -9.60688685E-02  1.33552144E-02  1.46998440E-16  1.83012887E-03 -2.71212272E-01
  2.80730875E-01  4.52806134E-01 -8.26180096E-17 -5.14703265E-03 -1.89911806E-01
  2.86072484E-01  7.66832020E-02  1.99222009E-16 -4.43246141E-06 -4.08332147E-03
  8.10996758E-03  2.54274760E-03  2.75964409E-18  8.75845120E-04  1.32206096E-01
 -3.41001617E-01 -9.84193841E-04 -1.59354659E-01 -1.86009031E+00  0.00000000E+00
  2.75473043E+00 -3.92678597E-23 -2.22421763E-19  4.80155043E-19  1.60554688E-19
  1.12453642E-04 -4.16624300E-20 -4.32099687E-18  7.86888258E-18  2.10986560E-18
  8.32645258E-04 -1.12580016E-17 -1.04376632E-16  1.40429250E-16  5.46525647E-17
  2.51736096E-02 -5.34064042E-18 -1.46077015E-16  1.76198295E-16  1.42925324E-16
  2.31169245E-01  1.11460962E-17  1.93882825E-16 -3.10985107E-16 -1.95888261E-17
  7.96506040E-02  1.10500534E-20  3.53475204E-18 -7.13897833E-18 -1.06932841E-18
  1.75205303E-03 -1.10137988E-18 -1.91427809E-16  4.85548213E-16  1.21142086E-18
  0.00000000E+00  0.00000000E+00  0.00000000E+00  0.00000000E+00  1.73795001E+00
  0.00000000E+00  0.00000000E+00  0.00000000E+00  0.00000000E+00  0.00000000E+00
  0.00000000E+00  6.73500670E-08 -2.70171580E-07 -5.23369601E-08  9.12030468E-23
  0.00000000E+00  1.36779831E-04 -3.73005593E-04 -7.08853218E-05  1.33627346E-19
  0.00000000E+00  6.34133926E-04 -1.46829825E-03  4.73611126E-04 -9.11412831E-19
  0.00000000E+00  1.38083098E-06 -4.40755381E-06  2.41800362E-06 -4.78937324E-21
  0.00000000E+00  1.33909252E-10 -6.21251879E-10  1.92263695E-10 -4.27023901E-25
  3.00610640E-08  1.07407864E-03  1.97140391E-06  0.00000000E+00  3.54133027E-07
  2.03127640E-02 -2.17453189E-02  2.57241474E-02 -4.59612573E-17  5.02273861E-01
  0.00000000E+00  1.82422044E-05 -4.71289204E-05  9.60044842E-06 -6.44938099E-21
  5.55836453E-07  1.00151307E-03 -2.16140722E-03  3.63018211E-05  7.29636045E-19
  7.74684873E-04  4.98963420E-02 -8.10196160E-02  1.13014121E-02  2.90248630E-17
  4.12171539E-04  5.12113633E-02 -6.95218955E-02  1.98487844E-02 -4.31541395E-17
  1.96033789E-05  3.69114484E-03 -6.59412010E-03  1.14183527E-03 -7.16535832E-18
  1.11849431E-09  4.88834603E-05 -1.16070870E-04  1.00590656E-05 -7.97825125E-20
  3.80870321E-04  2.02539619E-01  4.14223332E-03  5.33245766E-06  5.06319827E-02
  4.06431160E-01 -2.68242524E-01  6.02422253E-02 -5.66961731E-16  1.43383823E-01
  1.31255916E+00  0.00000000E+00  4.71342182E-05 -1.16243761E-04  2.48389305E-05
 -1.66925270E-20  2.23574266E-06  2.14683592E-03 -4.36588009E-03  7.27600187E-05
  1.58231524E-18  2.11847563E-03  7.79832195E-02 -1.16326135E-01  1.74485792E-02
  4.82017203E-17  9.53575215E-04  7.01783998E-02 -8.28840865E-02  2.85179915E-02
 -6.32508706E-17  6.25465171E-05  6.38046999E-03 -1.05286781E-02  2.07298381E-03
 -1.27889160E-17  5.18905104E-09  1.15701456E-04 -2.60427172E-04  2.39278232E-05
 -1.89626308E-19  7.59618164E-04  2.32670785E-01  5.60804162E-03  1.25381690E-05
  5.54566579E-02  2.47693492E-01  2.06586526E-03  6.37202435E-02 -4.30341800E-16
  0.00000000E+00  0.00000000E+00  9.79598981E-01  0.00000000E+00  8.06387128E-06
 -2.08654185E-05  1.43395491E-05 -2.85533876E-21  5.32532212E-07  1.00551544E-03
 -2.17868035E-03  2.78598432E-04  7.35467014E-19  5.45483121E-04  4.71558417E-02
 -7.78148123E-02  2.42105069E-02  2.78767585E-17 -3.15602395E-04 -9.73764355E-03
  1.37182036E-02  5.12144642E-02  8.51526368E-18 -3.23368256E-05 -5.19967999E-03
  9.37077392E-03 -1.92990966E-04  1.01825493E-17 -1.56724591E-09 -5.86578054E-05
  1.39449333E-04  1.36921587E-05  9.58519404E-20  5.11968417E-04  2.65529951E-01
 -7.38914594E-03 -8.31021521E-06 -6.30364306E-02 -2.91353613E-01  2.43330202E-01
  4.37615442E-01  5.14306645E-16  9.86498936E-02  1.15150515E+00  0.00000000E+00
  1.99637940E+00  0.00000000E+00  6.45010596E-21 -1.66925270E-20  3.39909603E-21
  5.73705893E-06 -7.54729797E-22 -7.24717147E-19  1.58231524E-18 -2.45619298E-20
  3.21426128E-04 -7.58933060E-19 -2.79370895E-17  4.82017203E-17 -6.25086425E-18
  1.82235046E-02  5.91910183E-19  4.35616497E-17 -6.32508706E-17  1.77018963E-17
  1.90139114E-02  6.79648231E-20  6.93320003E-18 -1.27889160E-17  2.25256313E-18
  1.24067718E-03  3.56674787E-24  7.95285916E-20 -1.89626308E-19  1.64470366E-20
  1.54489552E-05 -5.68385850E-19 -2.94432476E-16  1.05307589E-17  1.13415729E-20
  1.17214088E-16  5.23528964E-16 -4.30341800E-16  1.34680136E-16  2.05670385E-01
  0.00000000E+00  0.00000000E+00  0.00000000E+00  0.00000000E+00  9.79598981E-01
  1.97022537E-08  2.04355689E-04 -3.98835158E-04 -2.93335525E-04  2.94343913E-19
  1.52930608E-06  2.53262933E-04 -4.10483244E-04 -3.11169862E-04  6.27837993E-19
  2.30396751E-04  7.90161332E-03 -8.86797470E-03 -1.16143016E-02  2.03723887E-17
  2.17005884E-03  3.61147916E-01 -3.64370424E-01 -4.73528448E-01  5.20619705E-16
  7.43433828E-03  2.93543539E-01 -4.17378434E-01 -1.83666863E-01  5.77574225E-17
  1.95939547E-05  7.60204152E-03 -1.38818087E-02 -5.65429078E-03  2.65048588E-18
  2.92849514E-05  5.29626345E-03  8.67151357E-01  2.59361236E-03  1.00196604E-01
  2.76746470E+00 -5.65891648E-01 -3.79055931E+00  4.71556818E-15  2.37965661E-03
  2.74095294E-01  1.11868989E-01 -4.51668227E-01  6.64533922E-16  1.04506659E+01
  0.00000000E+00  6.98895661E-07 -1.87928635E-06  2.30208108E-07 -1.17743387E-22
  1.55528258E-08  4.31994214E-05 -9.99380129E-05  2.70363250E-06  3.28475477E-20
  2.15015202E-05  3.26377968E-03 -5.89471775E-03  7.28516144E-04  2.00800628E-18
  1.99003006E-05  5.88788132E-03 -9.43611347E-03 -2.30270685E-04 -3.21209438E-18
  1.45935869E-06  5.31170826E-04 -1.04973483E-03  2.26877209E-05 -7.89122354E-19
  0.00000000E+00  4.24591052E-06 -1.06561948E-05 -3.49157310E-07 -5.38569879E-21
  1.97586310E-05  2.12447781E-02  1.17789456E-03  6.26881926E-07  7.09591361E-03
  1.30568854E-01 -1.43990164E-01 -3.09370557E-02 -1.17934026E-16  3.27131658E-02
  5.21956403E-01 -3.94038137E-01  2.82858513E-01  1.15694277E-16  1.72823413E-01
  7.23547876E-01  1.39925446E-08  1.68303125E-04 -3.59450072E-04  1.82380685E-04
 -2.02645991E-19  4.78046061E-05  1.08963859E-02 -1.98436632E-02  5.52820528E-03
 -3.15067737E-18  5.44829728E-03  2.34617774E-01 -3.27529701E-01  1.68017615E-01
 -1.29134302E-16  2.52006210E-04  6.07732696E-02 -6.94748694E-02  8.50264195E-02
 -1.13689360E-16  1.90334036E-05  1.21407957E-03 -1.79686150E-03  1.19069029E-03
 -3.30157614E-18  6.61910877E-08  5.06241454E-05 -9.94813009E-05  5.63546259E-05
 -1.18074385E-19  7.82993604E-03  1.39885200E+00  6.33825104E-04  3.44111304E-06
  6.10295011E-03  1.95318225E-01 -8.06079752E-02  2.96461808E-01 -4.78834524E-16
  4.72618015E-02  1.96382503E+00  3.94895227E-01  2.75708228E+00 -3.29065713E-15
  2.91832457E-02  5.30512393E-01  7.98424434E+00  4.68694584E-08  3.37342225E-02
  5.48311350E-02  1.47099534E-02 -1.61365908E-17  0.00000000E+00  1.69549621E-03
  3.92320327E-03 -1.03702073E-03  2.73213427E-18  0.00000000E+00  3.36511149E-06
  1.21232427E-05 -1.14454964E-06  4.12527359E-21  0.00000000E+00  1.24709092E-07
  5.01652009E-07  1.15209515E-07 -1.47536804E-22  0.00000000E+00  2.31077724E-06
  7.28698603E-06  4.44205801E-06 -7.43979969E-21  0.00000000E+00  1.19133613E-03
  2.21514860E-03  1.97057890E-03 -3.38947874E-18  1.64253521E-03  3.17551982E-07
  1.90350723E-07  1.02011455E-03  0.00000000E+00  0.00000000E+00  0.00000000E+00
  0.00000000E+00  0.00000000E+00  0.00000000E+00  0.00000000E+00  0.00000000E+00
  0.00000000E+00  0.00000000E+00  0.00000000E+00  0.00000000E+00  0.00000000E+00
  1.26062489E+00  1.09015318E-02  4.77758629E-01  4.69759766E-01  4.29012922E-01
 -1.38248480E-16  6.90578908E-03  1.99936436E-01  2.94073056E-01  2.44450837E-02
  2.04793639E-16  9.00329039E-06  5.30930573E-03  1.04685215E-02  1.60674937E-03
  3.56220826E-18  3.32293791E-08  3.52275643E-04  7.53613555E-04  2.53217121E-04
 -2.21639171E-19  1.29504225E-05  2.47565456E-03  4.36511056E-03  1.15457918E-03
 -4.45665026E-18  3.95827504E-03  6.10699577E-02  7.48815290E-02  2.78261231E-02
 -1.14578928E-16  2.49056728E-01  9.28993950E-04  4.67461902E-04  7.44474382E-02
  0.00000000E+00  6.33037532E-07  1.81616467E-06  3.70564095E-07 -5.34230018E-22
  0.00000000E+00  0.00000000E+00  0.00000000E+00  0.00000000E+00  0.00000000E+00
  4.32240432E-07  0.00000000E+00  7.66486503E-07  3.31729697E-01  2.07091019E+00
 -1.81471651E-02 -4.96360641E-01 -3.67541639E-01 -4.85651391E-01  1.76198295E-16
 -1.60052166E-02 -2.78405691E-01 -3.66907898E-01 -2.81285394E-02 -3.10985107E-16
 -3.24735987E-05 -1.03878339E-02 -1.92277838E-02 -3.14251349E-03 -7.13897833E-18
 -1.33517876E-07 -7.56274508E-04 -1.52016097E-03 -5.45915185E-04  4.80155043E-19
 -4.08066827E-05 -4.23224349E-03 -6.87461029E-03 -2.06652891E-03  7.86888258E-18
 -7.35751669E-03 -6.82139550E-02 -6.66020528E-02 -3.57174542E-02  1.40429250E-16
 -2.73823499E-01 -1.84189088E-03 -7.49094437E-04 -5.00626710E-02  0.00000000E+00
 -1.81616467E-06 -5.01210710E-06 -1.06313668E-06  1.53268904E-21  0.00000000E+00
  0.00000000E+00  0.00000000E+00  0.00000000E+00  0.00000000E+00 -1.11683575E-06
  0.00000000E+00 -2.12207517E-06  0.00000000E+00  0.00000000E+00  1.73795001E+00
 -1.83012887E-03  2.71212272E-01  2.80730875E-01  4.52806134E-01 -8.26180096E-17
  5.14703265E-03  1.89911806E-01  2.86072484E-01  7.66832020E-02  1.99222009E-16
  4.43246141E-06  4.08332147E-03  8.10996758E-03  2.54274760E-03  2.75964409E-18
 -3.27401460E-08 -4.93407348E-05 -1.05253640E-04  2.54942598E-04  3.09552944E-20
 -2.41178015E-05 -3.65300185E-03 -6.50361731E-03 -4.61293838E-04  6.64000312E-18
 -6.37900816E-03 -7.47587277E-02 -9.60688685E-02  1.33552144E-02  1.46998440E-16
  3.41001617E-01  9.84193841E-04 -8.75845120E-04 -1.32206096E-01  0.00000000E+00
 -3.70564095E-07 -1.06313668E-06  3.78317056E-07  3.12724685E-22  0.00000000E+00
  0.00000000E+00  0.00000000E+00  0.00000000E+00  0.00000000E+00 -6.51578288E-07
  0.00000000E+00  6.91571475E-07  1.59354659E-01  1.86009031E+00  0.00000000E+00
  2.75473043E+00  5.34064042E-18  1.46077015E-16  1.76198295E-16  1.42925324E-16
  2.31169245E-01 -1.11460962E-17 -1.93882825E-16 -3.10985107E-16 -1.95888261E-17
  7.96506040E-02 -1.10500534E-20 -3.53475204E-18 -7.13897833E-18 -1.06932841E-18
  1.75205303E-03  3.92678597E-23  2.22421763E-19  4.80155043E-19  1.60554688E-19
  1.12453642E-04  4.16624300E-20  4.32099687E-18  7.86888258E-18  2.10986560E-18
  8.32645258E-04  1.12580016E-17  1.04376632E-16  1.40429250E-16  5.46525647E-17
  2.51736096E-02 -4.85548213E-16 -1.21142086E-18  1.10137988E-18  1.91427809E-16
  0.00000000E+00  5.34230018E-22  1.53268904E-21  3.12724685E-22  1.98411955E-07
  0.00000000E+00  0.00000000E+00  0.00000000E+00  0.00000000E+00  0.00000000E+00
  6.99592596E-22  0.00000000E+00 -7.68929055E-22  0.00000000E+00  0.00000000E+00
  0.00000000E+00  0.00000000E+00  1.73795001E+00  0.00000000E+00  6.34133926E-04
  1.46829825E-03 -4.73611126E-04  9.11412831E-19  0.00000000E+00  1.38083098E-06
  4.40755381E-06 -2.41800362E-06  4.78937324E-21  0.00000000E+00  1.33909252E-10
  6.21251879E-10 -1.92263695E-10  4.27023901E-25  0.00000000E+00  0.00000000E+00
  0.00000000E+00  0.00000000E+00  0.00000000E+00  0.00000000E+00  6.73500670E-08
  2.70171580E-07  5.23369601E-08 -9.12030468E-23  0.00000000E+00  1.36779831E-04
  3.73005593E-04  7.08853218E-05 -1.33627346E-19  1.97140391E-06  0.00000000E+00
  3.00610640E-08  1.07407864E-03  0.00000000E+00  0.00000000E+00  0.00000000E+00
  0.00000000E+00  0.00000000E+00  0.00000000E+00  0.00000000E+00  0.00000000E+00
  0.00000000E+00  0.00000000E+00  0.00000000E+00  0.00000000E+00  0.00000000E+00
  3.54133027E-07  2.03127640E-02  2.17453189E-02 -2.57241474E-02  4.59612573E-17
  5.02273861E-01  4.12171539E-04  5.12113633E-02  6.95218955E-02 -1.98487844E-02
  4.31541395E-17  1.96033789E-05  3.69114484E-03  6.59412010E-03 -1.14183527E-03
  7.16535832E-18  1.11849431E-09  4.88834603E-05  1.16070870E-04 -1.00590656E-05
  7.97825125E-20  0.00000000E+00  1.82422044E-05  4.71289204E-05 -9.60044842E-06
  6.44938099E-21  5.55836453E-07  1.00151307E-03  2.16140722E-03 -3.63018211E-05
 -7.29636045E-19  7.74684873E-04  4.98963420E-02  8.10196160E-02 -1.13014121E-02
 -2.90248630E-17  4.14223332E-03  5.33245766E-06  3.80870321E-04  2.02539619E-01
  0.00000000E+00  0.00000000E+00  0.00000000E+00  0.00000000E+00  0.00000000E+00
  0.00000000E+00  0.00000000E+00  0.00000000E+00  0.00000000E+00  0.00000000E+00
  0.00000000E+00  0.00000000E+00  0.00000000E+00  5.06319827E-02  4.06431160E-01
  2.68242524E-01 -6.02422253E-02  5.66961731E-16  1.43383823E-01  1.31255916E+00
 -9.53575215E-04 -7.01783998E-02 -8.28840865E-02  2.85179915E-02 -6.32508706E-17
 -6.25465171E-05 -6.38046999E-03 -1.05286781E-02  2.07298381E-03 -1.27889160E-17
 -5.18905104E-09 -1.15701456E-04 -2.60427172E-04  2.39278232E-05 -1.89626308E-19
  0.00000000E+00 -4.71342182E-05 -1.16243761E-04  2.48389305E-05 -1.66925270E-20
 -2.23574266E-06 -2.14683592E-03 -4.36588009E-03  7.27600187E-05  1.58231524E-18
 -2.11847563E-03 -7.79832195E-02 -1.16326135E-01  1.74485792E-02  4.82017203E-17
 -5.60804162E-03 -1.25381690E-05 -7.59618164E-04 -2.32670785E-01  0.00000000E+00
  0.00000000E+00  0.00000000E+00  0.00000000E+00  0.00000000E+00  0.00000000E+00
  0.00000000E+00  0.00000000E+00  0.00000000E+00  0.00000000E+00  0.00000000E+00
  0.00000000E+00  0.00000000E+00 -5.54566579E-02 -2.47693492E-01  2.06586526E-03
  6.37202435E-02 -4.30341800E-16  0.00000000E+00  0.00000000E+00  9.79598981E-01
  3.15602395E-04  9.73764355E-03  1.37182036E-02  5.12144642E-02  8.51526368E-18
  3.23368256E-05  5.19967999E-03  9.37077392E-03 -1.92990966E-04  1.01825493E-17
  1.56724591E-09  5.86578054E-05  1.39449333E-04  1.36921587E-05  9.58519404E-20
  0.00000000E+00 -8.06387128E-06 -2.08654185E-05  1.43395491E-05 -2.85533876E-21
 -5.32532212E-07 -1.00551544E-03 -2.17868035E-03  2.78598432E-04  7.35467014E-19
 -5.45483121E-04 -4.71558417E-02 -7.78148123E-02  2.42105069E-02  2.78767585E-17
  7.38914594E-03  8.31021521E-06 -5.11968417E-04 -2.65529951E-01  0.00000000E+00
  0.00000000E+00  0.00000000E+00  0.00000000E+00  0.00000000E+00  0.00000000E+00
  0.00000000E+00  0.00000000E+00  0.00000000E+00  0.00000000E+00  0.00000000E+00
  0.00000000E+00  0.00000000E+00  6.30364306E-02  2.91353613E-01  2.43330202E-01
  4.37615442E-01  5.14306645E-16 -9.86498936E-02 -1.15150515E+00  0.00000000E+00
  1.99637940E+00 -5.91910183E-19 -4.35616497E-17 -6.32508706E-17  1.77018963E-17
  1.90139114E-02 -6.79648231E-20 -6.93320003E-18 -1.27889160E-17  2.25256313E-18
  1.24067718E-03 -3.56674787E-24 -7.95285916E-20 -1.89626308E-19  1.64470366E-20
  1.54489552E-05  0.00000000E+00 -6.45010596E-21 -1.66925270E-20  3.39909603E-21
  5.73705893E-06  7.54729797E-22  7.24717147E-19  1.58231524E-18 -2.45619298E-20
  3.21426128E-04  7.58933060E-19  2.79370895E-17  4.82017203E-17 -6.25086425E-18
  1.82235046E-02 -1.05307589E-17 -1.13415729E-20  5.68385850E-19  2.94432476E-16
  0.00000000E+00  0.00000000E+00  0.00000000E+00  0.00000000E+00  0.00000000E+00
  0.00000000E+00  0.00000000E+00  0.00000000E+00  0.00000000E+00  0.00000000E+00
  0.00000000E+00  0.00000000E+00  0.00000000E+00 -1.17214088E-16 -5.23528964E-16
 -4.30341800E-16  1.34680136E-16  2.05670385E-01  0.00000000E+00  0.00000000E+00
  0.00000000E+00  0.00000000E+00  9.79598981E-01  2.17005884E-03  3.61147916E-01
  3.64370424E-01  4.73528448E-01 -5.20619705E-16  7.43433828E-03  2.93543539E-01
  4.17378434E-01  1.83666863E-01 -5.77574225E-17  1.95939547E-05  7.60204152E-03
  1.38818087E-02  5.65429078E-03 -2.65048588E-18  1.97022537E-08  2.04355689E-04
  3.98835158E-04  2.93335525E-04 -2.94343913E-19  1.52930608E-06  2.53262933E-04
  4.10483244E-04  3.11169862E-04 -6.27837993E-19  2.30396751E-04  7.90161332E-03
  8.86797470E-03  1.16143016E-02 -2.03723887E-17  8.67151357E-01  2.59361236E-03
  2.92849514E-05  5.29626345E-03  0.00000000E+00  4.32240432E-07  1.11683575E-06
  6.51578288E-07 -6.99592596E-22  0.00000000E+00  0.00000000E+00  0.00000000E+00
  0.00000000E+00  0.00000000E+00  8.27889881E-08  0.00000000E+00  2.83601213E-06
  1.00196604E-01  2.76746470E+00  5.65891648E-01  3.79055931E+00 -4.71556818E-15
  2.37965661E-03  2.74095294E-01 -1.11868989E-01  4.51668227E-01 -6.64533922E-16
  1.04506659E+01  1.99003006E-05  5.88788132E-03  9.43611347E-03  2.30270685E-04
  3.21209438E-18  1.45935869E-06  5.31170826E-04  1.04973483E-03 -2.26877209E-05
  7.89122354E-19  0.00000000E+00  4.24591052E-06  1.06561948E-05  3.49157310E-07
  5.38569879E-21  0.00000000E+00  6.98895661E-07  1.87928635E-06 -2.30208108E-07
  1.17743387E-22  1.55528258E-08  4.31994214E-05  9.99380129E-05 -2.70363250E-06
 -3.28475477E-20  2.15015202E-05  3.26377968E-03  5.89471775E-03 -7.28516144E-04
 -2.00800628E-18  1.17789456E-03  6.26881926E-07  1.97586310E-05  2.12447781E-02
  0.00000000E+00  0.00000000E+00  0.00000000E+00  0.00000000E+00  0.00000000E+00
  0.00000000E+00  0.00000000E+00  0.00000000E+00  0.00000000E+00  0.00000000E+00
  0.00000000E+00  0.00000000E+00  0.00000000E+00  7.09591361E-03  1.30568854E-01
  1.43990164E-01  3.09370557E-02  1.17934026E-16  3.27131658E-02  5.21956403E-01
  3.94038137E-01 -2.82858513E-01 -1.15694277E-16  1.72823413E-01  7.23547876E-01
  2.52006210E-04  6.07732696E-02  6.94748694E-02 -8.50264195E-02  1.13689360E-16
  1.90334036E-05  1.21407957E-03  1.79686150E-03 -1.19069029E-03  3.30157614E-18
  6.61910877E-08  5.06241454E-05  9.94813009E-05 -5.63546259E-05  1.18074385E-19
  1.39925446E-08  1.68303125E-04  3.59450072E-04 -1.82380685E-04  2.02645991E-19
  4.78046061E-05  1.08963859E-02  1.98436632E-02 -5.52820528E-03  3.15067737E-18
  5.44829728E-03  2.34617774E-01  3.27529701E-01 -1.68017615E-01  1.29134302E-16
  6.33825104E-04  3.44111304E-06  7.82993604E-03  1.39885200E+00  0.00000000E+00
  7.66486503E-07  2.12207517E-06 -6.91571475E-07  7.68929055E-22  0.00000000E+00
  0.00000000E+00  0.00000000E+00  0.00000000E+00  0.00000000E+00  2.83601213E-06
  0.00000000E+00  0.00000000E+00  6.10295011E-03  1.95318225E-01  8.06079752E-02
 -2.96461808E-01  4.78834524E-16  4.72618015E-02  1.96382503E+00 -3.94895227E-01
 -2.75708228E+00  3.29065713E-15  2.91832457E-02  5.30512393E-01  7.98424434E+00
Multipole Matrix (1,0,1)                   R   N=        1830
 -1.96135210E-15 -4.87126097E-16 -1.96135210E-15 -5.45641570E-17 -6.36908017E-16
 -1.96135210E-15  0.00000000E+00  0.00000000E+00  0.00000000E+00 -1.96135210E-15
  1.85595739E-01  2.16639311E+00  5.08390209E-01  0.00000000E+00 -1.96135210E-15
 -4.41093781E-21 -1.60890929E-16  1.67646354E-16 -2.02192353E-16  2.50218811E-03
 -4.00777069E-15 -9.12292668E-17 -1.69706376E-15  4.88351307E-16 -1.29745983E-15
  4.99623705E-01 -9.95379507E-16 -4.00777069E-15 -1.07899751E-16 -2.03686402E-15
  2.17422801E-16 -1.86279870E-15  4.94748030E-01 -3.45053927E-16 -4.02769188E-15
 -4.00777069E-15  1.18651063E-16  1.35156568E-15 -6.83515690E-16  4.00811619E-16
 -3.89334399E-01  0.00000000E+00  0.00000000E+00  0.00000000E+00 -4.00777069E-15
  6.26359604E-03  4.22484513E-01 -1.47257769E-01  3.35336971E-01 -8.55192533E-16
  5.99702384E-02  7.00011283E-01  5.08390209E-01  0.00000000E+00 -4.00777069E-15
  0.00000000E+00  1.11039546E-17 -2.46642218E-17  8.10796250E-18 -1.52926826E-04
  1.88956090E-21  2.50319737E-16 -4.08306899E-16 -8.11429778E-17 -3.95448497E-03
  7.06587031E-15 -3.98991702E-18 -5.07679386E-17 -1.19031757E-17 -2.62218177E-17
  2.56542909E-02 -1.27032627E-16  7.28624052E-16 -1.76804799E-15 -1.13677448E-16
 -6.62721675E-02  1.75489644E-15  7.06587031E-15 -8.80242693E-18 -1.42700065E-16
  7.23871861E-17 -7.06939171E-17  5.89790697E-02 -2.06768849E-16 -2.36513541E-16
 -6.27291153E-16  4.02382793E-17  7.53486950E-02 -2.90484711E-16 -3.39072481E-15
  7.06587031E-15  2.90847722E-18  1.30237589E-17  1.84370838E-17 -8.16163625E-18
 -1.21320629E-02 -3.96961297E-17  1.91909765E-16 -4.60833833E-16  3.76695415E-16
 -1.52140797E-02  0.00000000E+00  0.00000000E+00  0.00000000E+00  7.06587031E-15
  2.37544025E-04  8.10201724E-03  1.25771377E-02  3.36772939E-03  4.11205982E-18
  1.60879175E-03 -1.80304291E-01  3.28968688E-01  3.65235725E-02  3.88237244E-16
 -1.25592084E-01 -1.46599177E+00  5.08390209E-01  0.00000000E+00  7.06587031E-15
  0.00000000E+00 -6.81838717E-19  1.79157192E-18  3.62163527E-19 -5.39981447E-05
  0.00000000E+00 -2.25984080E-18  3.95467251E-18  3.46211725E-18 -2.42946570E-04
  3.31531177E-21 -4.95587675E-17  2.33099567E-17  6.69304691E-17 -6.45758410E-03
 -1.96135210E-15 -6.81838717E-19 -1.90781802E-18  4.61208887E-18  1.13323369E-18
  3.21156853E-03 -5.68583498E-18  9.40884817E-17 -1.80353676E-16 -7.73248638E-17
 -2.84310182E-02  2.57923709E-16  1.27858723E-15 -1.02380236E-15 -1.42127350E-15
 -5.66056738E-01 -4.87126097E-16 -1.96135210E-15 -1.79157192E-18 -4.61208887E-18
  1.02083509E-17  2.76653175E-18  1.53030685E-02 -1.02720691E-17  2.38840340E-17
 -8.64682015E-17 -1.46377936E-17 -7.50845279E-03  1.24323166E-16  3.65168687E-17
  4.84372838E-16 -2.08850806E-16 -3.90422579E-02  5.45641570E-17  6.36908017E-16
 -1.96135210E-15 -3.62163527E-19 -1.13323369E-18  2.76653175E-18 -1.04395961E-18
  1.16410291E-03 -8.69439831E-18  8.35920097E-17 -1.71780125E-16 -4.00461674E-17
 -2.67356689E-02  4.00324619E-16  1.11872068E-15 -1.09132209E-15 -9.32067220E-16
 -5.65660109E-01  0.00000000E+00  0.00000000E+00  0.00000000E+00 -1.96135210E-15
  5.39981447E-05 -3.21156853E-03  1.53030685E-02  1.16410291E-03 -5.03403430E-18
  6.55681745E-05 -4.22959214E-02  6.92159336E-02  4.12222631E-02  5.45674333E-18
 -4.65961618E-03 -6.02918279E-01  3.49733203E-01  5.98351729E-01  6.70104903E-16
 -1.85595739E-01 -2.16639311E+00  5.08390209E-01  0.00000000E+00 -1.96135210E-15
  0.00000000E+00 -5.68583498E-18  1.02720691E-17  8.69439831E-18 -6.55681745E-05
  0.00000000E+00 -1.39473328E-18  1.27416846E-18  3.51599902E-18 -1.74664332E-05
  0.00000000E+00 -7.09221312E-18 -2.82930279E-18  1.60016014E-17 -8.96819930E-05
 -4.41093781E-21 -1.60890929E-16 -1.67646354E-16  2.02192353E-16 -2.50218811E-03
 -4.00777069E-15 -2.25984080E-18  9.40884817E-17 -2.38840340E-17 -8.35920097E-17
  4.22959214E-02 -1.39473328E-18 -3.90156576E-18 -2.30427206E-18  1.09993037E-17
  1.03861516E-03  1.14259014E-17 -2.39892441E-17 -3.07357776E-18  2.44392550E-18
 -5.40512001E-02 -9.12292668E-17 -1.69706376E-15 -4.88351307E-16  1.29745983E-15
 -4.99623705E-01 -9.95379507E-16 -4.00777069E-15 -3.95467251E-18  1.80353676E-16
 -8.64682015E-17 -1.71780125E-16  6.92159336E-02 -1.27416846E-18  2.30427206E-18
 -7.04050837E-18 -5.30403440E-19  1.01977262E-02 -5.62617922E-18  4.39971051E-17
  5.62974604E-18 -5.56545850E-17  3.83759713E-02  1.07899751E-16  2.03686402E-15
  2.17422801E-16 -1.86279870E-15  4.94748030E-01  3.45053927E-16  4.02769188E-15
 -4.00777069E-15 -3.46211725E-18  7.73248638E-17 -1.46377936E-17 -4.00461674E-17
  4.12222631E-02 -3.51599902E-18 -1.09993037E-17 -5.30403440E-19  2.57769794E-17
  1.78675087E-03  2.57954101E-17 -5.25169884E-17 -1.20590358E-17  2.33259538E-17
 -7.69812693E-02 -1.18651063E-16 -1.35156568E-15 -6.83515690E-16  4.00811619E-16
 -3.89334399E-01  0.00000000E+00  0.00000000E+00  0.00000000E+00 -4.00777069E-15
  2.42946570E-04  2.84310182E-02 -7.50845279E-03 -2.67356689E-02  5.45674333E-18
  1.74664332E-05 -1.03861516E-03  1.01977262E-02  1.78675087E-03 -1.02951827E-17
 -1.72033936E-04 -5.03494489E-02  8.11293077E-03  7.12651589E-02  4.36878592E-18
 -6.26359604E-03 -4.22484513E-01 -1.47257769E-01  3.35336971E-01 -8.55192533E-16
 -5.99702384E-02 -7.00011283E-01  5.08390209E-01  0.00000000E+00 -4.00777069E-15
  3.31531177E-21  2.57923709E-16 -1.24323166E-16 -4.00324619E-16  4.65961618E-03
  0.00000000E+00  1.14259014E-17  5.62617922E-18 -2.57954101E-17  1.72033936E-04
  0.00000000E+00  2.45551859E-18  4.41186165E-18 -4.88584636E-18  3.65280134E-05
  0.00000000E+00  1.11039546E-17  2.46642218E-17 -8.10796250E-18  1.52926826E-04
  1.88956090E-21  2.50319737E-16  4.08306899E-16  8.11429778E-17  3.95448497E-03
  7.06587031E-15 -4.95587675E-17  1.27858723E-15 -3.65168687E-17 -1.11872068E-15
  6.02918279E-01 -7.09221312E-18 -2.39892441E-17 -4.39971051E-17  5.25169884E-17
  5.03494489E-02  2.45551859E-18  6.87120754E-18  8.51642527E-18 -1.52892494E-17
 -2.17266447E-03 -3.98991702E-18 -5.07679386E-17  1.19031757E-17  2.62218177E-17
 -2.56542909E-02 -1.27032627E-16  7.28624052E-16  1.76804799E-15  1.13677448E-16
  6.62721675E-02  1.75489644E-15  7.06587031E-15 -2.33099567E-17  1.02380236E-15
  4.84372838E-16 -1.09132209E-15  3.49733203E-01  2.82930279E-18  3.07357776E-18
  5.62974604E-18 -1.20590358E-17  8.11293077E-03 -4.41186165E-18 -8.51642527E-18
 -7.00768858E-18  2.15588796E-17  1.22064766E-02  8.80242693E-18  1.42700065E-16
  7.23871861E-17 -7.06939171E-17  5.89790697E-02  2.06768849E-16  2.36513541E-16
 -6.27291153E-16  4.02382793E-17  7.53486950E-02  2.90484711E-16  3.39072481E-15
  7.06587031E-15 -6.69304691E-17  1.42127350E-15 -2.08850806E-16 -9.32067220E-16
  5.98351729E-01 -1.60016014E-17 -2.44392550E-18 -5.56545850E-17  2.33259538E-17
  7.12651589E-02  4.88584636E-18  1.52892494E-17  2.15588796E-17 -2.60017086E-17
 -2.95012330E-03 -2.90847722E-18 -1.30237589E-17  1.84370838E-17 -8.16163625E-18
 -1.21320629E-02  3.96961297E-17 -1.91909765E-16 -4.60833833E-16  3.76695415E-16
 -1.52140797E-02  0.00000000E+00  0.00000000E+00  0.00000000E+00  7.06587031E-15
  6.45758410E-03  5.66056738E-01 -3.90422579E-02 -5.65660109E-01  6.70104903E-16
  8.96819930E-05  5.40512001E-02  3.83759713E-02 -7.69812693E-02  4.36878592E-18
 -3.65280134E-05  2.17266447E-03  1.22064766E-02 -2.95012330E-03  1.81303914E-17
 -2.37544025E-04 -8.10201724E-03  1.25771377E-02  3.36772939E-03  4.11205982E-18
 -1.60879175E-03  1.80304291E-01  3.28968688E-01  3.65235725E-02  3.88237244E-16
  1.25592084E-01  1.46599177E+00  5.08390209E-01  0.00000000E+00  7.06587031E-15
 -1.39360659E-17 -8.60278172E-16  2.73871634E-17 -1.04968104E-15  1.48483384E-01
 -2.69397604E-16 -3.92712230E-15 -3.38890372E-15 -3.51801617E-15  3.84755042E-01
  3.63044789E-17  8.90953616E-17 -3.17194545E-16  6.41102083E-17 -3.32104950E-02
 -9.57373856E-20  1.52395355E-17  5.50180708E-19  1.77312074E-17 -4.32658095E-03
 -3.94925814E-20 -5.49781743E-19 -1.35051571E-18 -1.25746554E-18  1.62182690E-04
  5.73971143E-19 -1.48652129E-17 -3.98663202E-18 -2.24505337E-17  7.59159002E-03
 -1.28235143E-14 -2.15888194E-19 -5.20590042E-19 -1.56471163E-17  5.32540760E-20
  1.28298030E-03 -1.79463878E-17  6.15958065E-16 -1.16271127E-15  1.99188316E-16
 -4.89788753E-02  4.74905445E-16  6.92121593E-15 -6.19848822E-15  4.89300637E-15
 -8.05554510E-01 -6.55922861E-18  8.31363025E-16 -3.03541689E-16  1.05392086E-15
 -1.92397703E-01 -3.67768221E-19  6.30297865E-18 -3.94584862E-18  9.71649204E-18
 -8.11780284E-03  6.95168713E-20  9.66999866E-19 -2.32911823E-18  1.74594981E-18
 -3.38628755E-04  3.11960966E-16  2.25975832E-14 -9.57373856E-20  1.52395355E-17
 -5.50180708E-19 -1.77312074E-17  4.32658095E-03 -3.94925814E-20 -5.49781743E-19
  1.35051571E-18  1.25746554E-18 -1.62182690E-04  5.73971143E-19 -1.48652129E-17
  3.98663202E-18  2.24505337E-17 -7.59159002E-03 -1.39360659E-17 -8.60278172E-16
 -2.73871634E-17  1.04968104E-15 -1.48483384E-01 -2.69397604E-16 -3.92712230E-15
  3.38890372E-15  3.51801617E-15 -3.84755042E-01  3.63044789E-17  8.90953616E-17
  3.17194545E-16 -6.41102083E-17  3.32104950E-02 -1.12994097E-20 -1.08379185E-18
 -1.28235143E-14 -6.55922861E-18  8.31363025E-16  3.03541689E-16 -1.05392086E-15
  1.92397703E-01 -3.67768221E-19  6.30297865E-18  3.94584862E-18 -9.71649204E-18
  8.11780284E-03  6.95168713E-20  9.66999866E-19  2.32911823E-18 -1.74594981E-18
  3.38628755E-04 -2.15888194E-19 -5.20590042E-19  1.56471163E-17 -5.32540760E-20
 -1.28298030E-03 -1.79463878E-17  6.15958065E-16  1.16271127E-15 -1.99188316E-16
  4.89788753E-02  4.74905445E-16  6.92121593E-15  6.19848822E-15 -4.89300637E-15
  8.05554510E-01 -1.08379185E-18  1.98756049E-20  3.11960966E-16  2.25975832E-14
  0.00000000E+00 -7.96463545E-22  3.21551912E-21  6.54107621E-22 -3.15312514E-08
  0.00000000E+00 -1.55189023E-20  4.91334813E-20  2.81881381E-20 -6.92356220E-07
  0.00000000E+00 -8.06203215E-18  1.50795137E-17  1.25390637E-17 -3.30411723E-04
 -2.99486820E-22 -2.19318107E-16  3.59122097E-16  7.27827141E-17 -8.62204634E-03
  0.00000000E+00 -1.04286806E-17  2.42675659E-17 -7.30635157E-18 -3.27003538E-04
  0.00000000E+00 -2.04652596E-20  7.40420344E-20 -8.88410350E-21 -6.84440798E-07
 -1.29635773E-21 -7.01109081E-18 -9.93467473E-18 -1.89339564E-21 -8.68773356E-15
 -1.50140960E-22 -1.82523168E-19  4.70027970E-19  8.12606088E-20 -2.43669408E-04
 -5.60299197E-21  5.45862324E-18 -1.07488407E-17 -5.29852877E-18 -2.06665757E-03
  8.29544065E-18  1.93447369E-16 -2.79384129E-16 -1.96030646E-16 -1.03954374E-01
 -5.80005515E-17 -1.42343940E-15  1.72717073E-15  3.03522135E-16 -8.16477102E-01
 -5.57280476E-18 -4.59133947E-16  7.51946086E-16 -1.96720467E-16 -8.87884786E-02
  1.28662887E-20 -7.86520252E-18  1.77969918E-17 -1.82543132E-18 -1.63393675E-03
  1.06370795E-18  3.06007020E-16 -5.14400700E-16 -1.10675496E-18 -2.15770627E-15
 -8.68773356E-15 -6.09266953E-22 -3.41457041E-19  8.70406833E-19  1.58894498E-19
 -4.17695925E-04 -1.83301298E-20  7.66079522E-18 -1.39563104E-17 -7.48790808E-18
 -2.99271617E-03  1.51665640E-17  1.65750758E-16 -2.03662691E-16 -1.87501989E-16
 -1.01758513E-01 -9.60557183E-17 -1.40647490E-15  1.39274566E-15  3.92208040E-16
 -7.71522604E-01 -1.26034419E-17 -5.72265752E-16  8.58294804E-16 -2.70651942E-16
 -1.09265534E-01  4.70314975E-20 -1.30580702E-17  2.83700608E-17 -3.09913341E-18
 -2.64954468E-03  1.39407362E-18  1.48424519E-16 -4.64871217E-16 -1.78919382E-18
  1.14868175E-16  1.34081539E-15 -8.68773356E-15 -1.23488045E-22 -8.50960418E-20
  2.23705439E-19 -2.26417210E-20 -1.06368677E-04 -1.02039671E-20  5.22724220E-18
 -1.04284708E-17 -3.37317213E-18 -2.03530878E-03  1.28769059E-17  1.63076401E-16
 -2.58819583E-16 -1.06462417E-16 -9.93756440E-02 -1.98815910E-17 -3.41882655E-16
  5.04960143E-16 -6.98625893E-16 -1.81817569E-01  3.90047803E-18  2.01137037E-16
 -3.54925197E-16 -8.88701091E-17  3.82216245E-02 -5.59728690E-21  1.88284890E-18
 -4.33862355E-18 -2.13715150E-18  3.84208406E-04  1.36042775E-18  3.81367085E-16
  4.78498255E-16  6.28066670E-19  0.00000000E+00  0.00000000E+00  0.00000000E+00
 -8.68773356E-15  1.34867576E-08 -2.57088444E-04  6.61775457E-04  1.13854882E-04
 -7.26856426E-20  6.59201656E-08 -2.18980356E-03  4.34201700E-03  2.18718696E-03
  1.46993503E-18 -1.23209165E-04 -1.14150451E-01  1.48930812E-01  1.10210577E-01
  5.33482292E-17 -4.59360270E-03 -9.12979213E-01  1.10676809E+00  2.01560117E-01
 -8.19245114E-16 -6.86582138E-05 -1.01502930E-01  1.63627656E-01 -4.43206563E-02
 -1.68794926E-16  1.83076736E-07 -1.77486277E-03  4.08008876E-03 -4.25843828E-04
 -2.46624398E-18 -2.72046160E-04 -9.99534733E-02 -8.57527305E-02 -1.96747672E-04
 -3.90505053E-01 -4.55822672E+00  5.08390209E-01  0.00000000E+00 -8.68773356E-15
  0.00000000E+00  0.00000000E+00  0.00000000E+00  0.00000000E+00  0.00000000E+00
  0.00000000E+00  1.42001437E-21 -5.72199975E-21 -1.29171004E-21 -3.74966894E-08
  0.00000000E+00  3.11641275E-18 -8.54477313E-18 -2.01747307E-18 -7.92456394E-05
  0.00000000E+00  1.72891277E-17 -4.02272880E-17  1.05753333E-17 -4.82589514E-04
  0.00000000E+00  4.23030998E-20 -1.35447050E-19  6.78219408E-20 -1.37902919E-06
  0.00000000E+00  4.17884139E-24 -1.93986484E-23  5.77448271E-24 -3.95675883E-11
  6.00823237E-22  2.37260891E-17  6.48172514E-20  0.00000000E+00  4.78719955E-21
  6.02754409E-16 -6.77015362E-16  6.89579599E-16 -2.23598471E-02  1.50522868E-14
  0.00000000E+00  4.02283928E-20 -1.14337337E-19  1.69949879E-21 -1.66734001E-05
 -1.90842626E-22  2.99096758E-18 -6.97311731E-18 -1.44918230E-18 -5.14410088E-04
  1.62813849E-18  2.39872163E-16 -4.17893835E-16 -9.07150280E-17 -4.77709940E-02
 -2.20765963E-18  1.68122446E-16 -2.42449475E-16  5.94023729E-17 -1.50383355E-01
 -1.77884802E-20 -1.00085902E-17  1.91414485E-17 -8.78249782E-18 -4.51696229E-03
  1.88173993E-24 -8.33336010E-20  2.15038790E-19 -5.85075046E-20 -5.11569302E-05
  9.66967375E-19  9.12165888E-16 -1.30889769E-17 -1.09556077E-20 -3.46382399E-16
  6.79029246E-16 -1.69143920E-16  1.91754051E-16 -1.83998517E+00  3.73842194E-15
  1.50522868E-14  0.00000000E+00  9.40183234E-20 -2.58009145E-19  3.98653915E-21
 -3.87724588E-05 -7.98191698E-22  5.89005805E-18 -1.30285835E-17 -2.88766338E-18
 -1.00780729E-03  4.40179672E-18  3.56695432E-16 -5.78242809E-16 -1.44703386E-16
 -7.00455740E-02 -5.07815293E-18  2.57073083E-16 -3.37538747E-16  1.01784602E-16
 -1.97273207E-01 -5.57282821E-20 -1.53295125E-17  2.69590673E-17 -1.36904233E-17
 -7.20596412E-03  8.75262508E-24 -1.77333616E-19  4.35283770E-19 -1.24223927E-19
 -1.09934753E-04  1.75201868E-18  9.36740489E-16 -1.54068627E-17 -2.30091137E-20
 -3.79891495E-16  6.64017828E-16  5.24466573E-17  4.01184114E-16 -1.14787507E+00
 -1.50587840E-16 -1.75775834E-15  1.50522868E-14  0.00000000E+00 -1.70710646E-21
  4.86570840E-21  1.26234109E-20  7.04454144E-07 -1.74722508E-22  1.46005335E-18
 -3.43894131E-18  2.43712819E-19 -2.49917121E-04  1.05311592E-18  9.23926109E-17
 -1.70734113E-16  5.17656807E-17 -1.80955469E-02  1.35055083E-18 -7.46132606E-17
  1.18123092E-16  4.30566838E-17  5.68168344E-02  2.84238024E-20  8.42881222E-18
 -1.64236267E-17  4.27153564E-18  3.95508663E-03 -2.60033810E-24  5.82508000E-20
 -1.50249906E-19  1.47924478E-20  3.60841785E-05  8.47592935E-19  7.38284045E-16
  1.56470767E-17  1.05149567E-20  3.94391577E-16 -8.52497866E-16  5.09738137E-16
 -8.95231794E-17  1.34980590E+00  0.00000000E+00  0.00000000E+00  0.00000000E+00
  1.50522868E-14  0.00000000E+00 -1.68104770E-05  4.78627088E-05 -7.11899260E-07
  1.27580992E-20  2.13359221E-09 -5.26525584E-04  1.23463218E-03  2.57411712E-04
  9.47908448E-19 -2.35831669E-05 -5.15692087E-02  8.98746061E-02  1.97750227E-02
  8.65029810E-17 -1.97527568E-04 -1.64150762E-01  2.55361743E-01 -6.25768614E-02
  8.60860567E-17 -2.40179723E-07 -4.68809445E-03  8.92248305E-03 -4.14150585E-03
 -2.83283290E-18  8.99789104E-12 -5.16869820E-05  1.33977879E-04 -3.65643908E-05
 -2.49257393E-20 -1.36980866E-04 -1.59042605E-01 -3.82402153E-03 -3.88285971E-06
 -1.77533291E-02 -1.92680085E+00  1.53453376E+00 -1.40541164E+00  5.53083576E-16
 -5.16098347E-01 -6.02423261E+00  5.08390209E-01  0.00000000E+00  1.50522868E-14
 -8.88127730E-23 -1.81246360E-19  4.66806813E-19  1.52746663E-19 -6.04876582E-05
 -7.39229307E-22  1.31075186E-19 -2.56484885E-19 -1.64912089E-19 -2.66828458E-04
  4.87093787E-19 -3.24383930E-18  2.55914195E-18  3.98392096E-18 -1.32527894E-02
 -1.11415070E-17 -1.07923361E-15  1.27668990E-15  8.76634861E-16 -2.35986142E-01
 -5.62516900E-18 -5.29922342E-16  8.78332733E-16  9.41109660E-17 -6.77733827E-02
  2.82163418E-20 -7.43646187E-18  1.66582060E-17  2.01035490E-18 -1.03579202E-03
  4.98394060E-20  9.81101196E-18 -1.41835078E-15 -1.81944861E-18 -6.16473462E-16
 -1.00941929E-14  3.25863173E-15  9.25916705E-15 -1.96855883E+00  7.53729457E-17
 -9.86776143E-16 -3.20159491E-16  1.14591399E-15 -4.89883315E-01 -3.24879367E-14
  0.00000000E+00  1.30326953E-21 -3.85470742E-21 -7.56556967E-23 -8.15473672E-07
 -5.51924990E-24  1.39423365E-19 -3.47547574E-19 -7.10101633E-20 -2.79244543E-05
  4.56068744E-20  1.69536717E-17 -3.27630961E-17 -6.90776891E-18 -3.95805131E-03
 -1.07076406E-19  6.05396992E-18 -1.05173487E-17  1.20284597E-18 -1.77956807E-02
 -1.30284607E-21 -1.63757277E-18  3.45806638E-18 -1.05740624E-18 -5.35196140E-04
  0.00000000E+00 -9.12226126E-21  2.48976203E-20 -4.67232241E-21 -3.73035220E-06
  5.41532285E-20  1.10275589E-16 -3.73273126E-18 -1.32360624E-21 -4.79107286E-17
 -6.15375936E-17  9.97389631E-17 -2.60017046E-17 -5.06622245E-01  9.18869557E-16
  7.12579733E-15 -7.32441936E-15 -1.36019329E-15 -2.80199452E+00 -6.92914807E-16
  1.38112652E-14 -6.14861572E-23  2.11382658E-19 -5.49644036E-19  1.05336326E-19
 -4.64439861E-05 -2.02185226E-20  1.75603517E-17 -3.65829340E-17  8.67671247E-19
 -2.20435694E-03  1.05058976E-17  7.24263069E-16 -1.15307793E-15  1.51814661E-16
 -9.77200425E-02 -1.28385841E-18  2.97455406E-16 -3.84926510E-16  2.70920379E-16
 -8.62107666E-02 -1.61238281E-20 -3.31631522E-19  6.91209746E-19 -4.49175700E-19
 -1.98416054E-03  1.03864172E-22  2.27629296E-20 -5.20546693E-20  2.51878226E-20
 -5.00179788E-05  1.03460638E-17  4.20036814E-15 -1.34330783E-18 -2.29942997E-21
 -4.20930575E-17  1.26466359E-15 -6.08583233E-16  1.51659306E-15 -4.34988190E-01
  1.02347124E-15  1.39336431E-14  1.68280994E-15  1.28118119E-14 -2.44759008E+00
  2.51230679E-17  4.46848036E-15  4.02868244E-14 -2.99486820E-22 -2.19318107E-16
 -3.59122097E-16 -7.27827141E-17  8.62204634E-03  0.00000000E+00 -1.04286806E-17
 -2.42675659E-17  7.30635157E-18  3.27003538E-04  0.00000000E+00 -2.04652596E-20
 -7.40420344E-20  8.88410350E-21  6.84440798E-07  0.00000000E+00 -7.96463545E-22
 -3.21551912E-21 -6.54107621E-22  3.15312514E-08  0.00000000E+00 -1.55189023E-20
 -4.91334813E-20 -2.81881381E-20  6.92356220E-07  0.00000000E+00 -8.06203215E-18
 -1.50795137E-17 -1.25390637E-17  3.30411723E-04 -9.93467473E-18 -1.89339564E-21
 -1.29635773E-21 -7.01109081E-18  0.00000000E+00  0.00000000E+00  0.00000000E+00
  0.00000000E+00  0.00000000E+00  0.00000000E+00  0.00000000E+00  0.00000000E+00
  0.00000000E+00  0.00000000E+00  0.00000000E+00  0.00000000E+00  0.00000000E+00
 -8.68773356E-15 -5.80005515E-17 -1.42343940E-15 -1.72717073E-15 -3.03522135E-16
  8.16477102E-01 -5.57280476E-18 -4.59133947E-16 -7.51946086E-16  1.96720467E-16
  8.87884786E-02  1.28662887E-20 -7.86520252E-18 -1.77969918E-17  1.82543132E-18
  1.63393675E-03 -1.50140960E-22 -1.82523168E-19 -4.70027970E-19 -8.12606088E-20
  2.43669408E-04 -5.60299197E-21  5.45862324E-18  1.07488407E-17  5.29852877E-18
  2.06665757E-03  8.29544065E-18  1.93447369E-16  2.79384129E-16  1.96030646E-16
  1.03954374E-01 -5.14400700E-16 -1.10675496E-18  1.06370795E-18  3.06007020E-16
  0.00000000E+00  0.00000000E+00  0.00000000E+00  0.00000000E+00  0.00000000E+00
  0.00000000E+00  0.00000000E+00  0.00000000E+00  0.00000000E+00  0.00000000E+00
  1.90462396E-22  0.00000000E+00 -1.12939597E-22 -2.15770627E-15 -8.68773356E-15
  9.60557183E-17  1.40647490E-15  1.39274566E-15  3.92208040E-16 -7.71522604E-01
  1.26034419E-17  5.72265752E-16  8.58294804E-16 -2.70651942E-16 -1.09265534E-01
 -4.70314975E-20  1.30580702E-17  2.83700608E-17 -3.09913341E-18 -2.64954468E-03
  6.09266953E-22  3.41457041E-19  8.70406833E-19  1.58894498E-19 -4.17695925E-04
  1.83301298E-20 -7.66079522E-18 -1.39563104E-17 -7.48790808E-18 -2.99271617E-03
 -1.51665640E-17 -1.65750758E-16 -2.03662691E-16 -1.87501989E-16 -1.01758513E-01
  4.64871217E-16  1.78919382E-18 -1.39407362E-18 -1.48424519E-16  0.00000000E+00
  0.00000000E+00  0.00000000E+00  0.00000000E+00  1.98411955E-07  0.00000000E+00
  0.00000000E+00  0.00000000E+00  0.00000000E+00  0.00000000E+00 -2.54162766E-22
  0.00000000E+00 -8.80834161E-23 -1.14868175E-16 -1.34081539E-15 -8.68773356E-15
  1.98815910E-17  3.41882655E-16  5.04960143E-16 -6.98625893E-16 -1.81817569E-01
 -3.90047803E-18 -2.01137037E-16 -3.54925197E-16 -8.88701091E-17  3.82216245E-02
  5.59728690E-21 -1.88284890E-18 -4.33862355E-18 -2.13715150E-18  3.84208406E-04
  1.23488045E-22  8.50960418E-20  2.23705439E-19 -2.26417210E-20 -1.06368677E-04
  1.02039671E-20 -5.22724220E-18 -1.04284708E-17 -3.37317213E-18 -2.03530878E-03
 -1.28769059E-17 -1.63076401E-16 -2.58819583E-16 -1.06462417E-16 -9.93756440E-02
 -4.78498255E-16 -6.28066670E-19 -1.36042775E-18 -3.81367085E-16  0.00000000E+00
  0.00000000E+00  0.00000000E+00  0.00000000E+00  0.00000000E+00  0.00000000E+00
  0.00000000E+00  0.00000000E+00  0.00000000E+00  0.00000000E+00 -1.84019192E-22
  0.00000000E+00 -4.11664030E-23  0.00000000E+00  0.00000000E+00  0.00000000E+00
 -8.68773356E-15  4.59360270E-03  9.12979213E-01  1.10676809E+00  2.01560117E-01
 -8.19245114E-16  6.86582138E-05  1.01502930E-01  1.63627656E-01 -4.43206563E-02
 -1.68794926E-16 -1.83076736E-07  1.77486277E-03  4.08008876E-03 -4.25843828E-04
 -2.46624398E-18 -1.34867576E-08  2.57088444E-04  6.61775457E-04  1.13854882E-04
 -7.26856426E-20 -6.59201656E-08  2.18980356E-03  4.34201700E-03  2.18718696E-03
  1.46993503E-18  1.23209165E-04  1.14150451E-01  1.48930812E-01  1.10210577E-01
  5.33482292E-17  8.57527305E-02  1.96747672E-04  2.72046160E-04  9.99534733E-02
  0.00000000E+00  0.00000000E+00  1.98411955E-07  0.00000000E+00  0.00000000E+00
  0.00000000E+00  0.00000000E+00  0.00000000E+00  0.00000000E+00  0.00000000E+00
  8.75942138E-08  0.00000000E+00  2.17823814E-08  3.90505053E-01  4.55822672E+00
  5.08390209E-01  0.00000000E+00 -8.68773356E-15  0.00000000E+00  1.72891277E-17
  4.02272880E-17 -1.05753333E-17  4.82589514E-04  0.00000000E+00  4.23030998E-20
  1.35447050E-19 -6.78219408E-20  1.37902919E-06  0.00000000E+00  4.17884139E-24
  1.93986484E-23 -5.77448271E-24  3.95675883E-11  0.00000000E+00  0.00000000E+00
  0.00000000E+00  0.00000000E+00  0.00000000E+00  0.00000000E+00  1.42001437E-21
  5.72199975E-21  1.29171004E-21  3.74966894E-08  0.00000000E+00  3.11641275E-18
  8.54477313E-18  2.01747307E-18  7.92456394E-05  6.48172514E-20  0.00000000E+00
  6.00823237E-22  2.37260891E-17  0.00000000E+00  0.00000000E+00  0.00000000E+00
  0.00000000E+00  0.00000000E+00  0.00000000E+00  0.00000000E+00  0.00000000E+00
  0.00000000E+00  0.00000000E+00  0.00000000E+00  0.00000000E+00  0.00000000E+00
  4.78719955E-21  6.02754409E-16  6.77015362E-16 -6.89579599E-16  2.23598471E-02
  1.50522868E-14 -2.20765963E-18  1.68122446E-16  2.42449475E-16 -5.94023729E-17
  1.50383355E-01 -1.77884802E-20 -1.00085902E-17 -1.91414485E-17  8.78249782E-18
  4.51696229E-03  1.88173993E-24 -8.33336010E-20 -2.15038790E-19  5.85075046E-20
  5.11569302E-05  0.00000000E+00  4.02283928E-20  1.14337337E-19 -1.69949879E-21
  1.66734001E-05 -1.90842626E-22  2.99096758E-18  6.97311731E-18  1.44918230E-18
  5.14410088E-04  1.62813849E-18  2.39872163E-16  4.17893835E-16  9.07150280E-17
  4.77709940E-02 -1.30889769E-17 -1.09556077E-20  9.66967375E-19  9.12165888E-16
  0.00000000E+00  0.00000000E+00  0.00000000E+00  0.00000000E+00  0.00000000E+00
  0.00000000E+00  0.00000000E+00  0.00000000E+00  0.00000000E+00  0.00000000E+00
  0.00000000E+00  0.00000000E+00  0.00000000E+00 -3.46382399E-16  6.79029246E-16
  1.69143920E-16 -1.91754051E-16  1.83998517E+00  3.73842194E-15  1.50522868E-14
  5.07815293E-18 -2.57073083E-16 -3.37538747E-16  1.01784602E-16 -1.97273207E-01
  5.57282821E-20  1.53295125E-17  2.69590673E-17 -1.36904233E-17 -7.20596412E-03
 -8.75262508E-24  1.77333616E-19  4.35283770E-19 -1.24223927E-19 -1.09934753E-04
  0.00000000E+00 -9.40183234E-20 -2.58009145E-19  3.98653915E-21 -3.87724588E-05
  7.98191698E-22 -5.89005805E-18 -1.30285835E-17 -2.88766338E-18 -1.00780729E-03
 -4.40179672E-18 -3.56695432E-16 -5.78242809E-16 -1.44703386E-16 -7.00455740E-02
  1.54068627E-17  2.30091137E-20 -1.75201868E-18 -9.36740489E-16  0.00000000E+00
  0.00000000E+00  0.00000000E+00  0.00000000E+00  0.00000000E+00  0.00000000E+00
  0.00000000E+00  0.00000000E+00  0.00000000E+00  0.00000000E+00  0.00000000E+00
  0.00000000E+00  0.00000000E+00  3.79891495E-16 -6.64017828E-16  5.24466573E-17
  4.01184114E-16 -1.14787507E+00  1.50587840E-16  1.75775834E-15  1.50522868E-14
 -1.35055083E-18  7.46132606E-17  1.18123092E-16  4.30566838E-17  5.68168344E-02
 -2.84238024E-20 -8.42881222E-18 -1.64236267E-17  4.27153564E-18  3.95508663E-03
  2.60033810E-24 -5.82508000E-20 -1.50249906E-19  1.47924478E-20  3.60841785E-05
  0.00000000E+00  1.70710646E-21  4.86570840E-21  1.26234109E-20  7.04454144E-07
  1.74722508E-22 -1.46005335E-18 -3.43894131E-18  2.43712819E-19 -2.49917121E-04
 -1.05311592E-18 -9.23926109E-17 -1.70734113E-16  5.17656807E-17 -1.80955469E-02
 -1.56470767E-17 -1.05149567E-20 -8.47592935E-19 -7.38284045E-16  0.00000000E+00
  0.00000000E+00  0.00000000E+00  0.00000000E+00  0.00000000E+00  0.00000000E+00
  0.00000000E+00  0.00000000E+00  0.00000000E+00  0.00000000E+00  0.00000000E+00
  0.00000000E+00  0.00000000E+00 -3.94391577E-16  8.52497866E-16  5.09738137E-16
 -8.95231794E-17  1.34980590E+00  0.00000000E+00  0.00000000E+00  0.00000000E+00
  1.50522868E-14  1.97527568E-04  1.64150762E-01  2.55361743E-01 -6.25768614E-02
  8.60860567E-17  2.40179723E-07  4.68809445E-03  8.92248305E-03 -4.14150585E-03
 -2.83283290E-18 -8.99789104E-12  5.16869820E-05  1.33977879E-04 -3.65643908E-05
 -2.49257393E-20  0.00000000E+00  1.68104770E-05  4.78627088E-05 -7.11899260E-07
  1.27580992E-20 -2.13359221E-09  5.26525584E-04  1.23463218E-03  2.57411712E-04
  9.47908448E-19  2.35831669E-05  5.15692087E-02  8.98746061E-02  1.97750227E-02
  8.65029810E-17  3.82402153E-03  3.88285971E-06  1.36980866E-04  1.59042605E-01
  0.00000000E+00  0.00000000E+00  0.00000000E+00  0.00000000E+00  0.00000000E+00
  0.00000000E+00  0.00000000E+00  0.00000000E+00  0.00000000E+00  0.00000000E+00
  0.00000000E+00  0.00000000E+00  0.00000000E+00  1.77533291E-02  1.92680085E+00
  1.53453376E+00 -1.40541164E+00  5.53083576E-16  5.16098347E-01  6.02423261E+00
  5.08390209E-01  0.00000000E+00  1.50522868E-14 -1.11415070E-17 -1.07923361E-15
 -1.27668990E-15 -8.76634861E-16  2.35986142E-01 -5.62516900E-18 -5.29922342E-16
 -8.78332733E-16 -9.41109660E-17  6.77733827E-02  2.82163418E-20 -7.43646187E-18
 -1.66582060E-17 -2.01035490E-18  1.03579202E-03 -8.88127730E-23 -1.81246360E-19
 -4.66806813E-19 -1.52746663E-19  6.04876582E-05 -7.39229307E-22  1.31075186E-19
  2.56484885E-19  1.64912089E-19  2.66828458E-04  4.87093787E-19 -3.24383930E-18
 -2.55914195E-18 -3.98392096E-18  1.32527894E-02 -1.41835078E-15 -1.81944861E-18
  4.98394060E-20  9.81101196E-18  0.00000000E+00  1.90462396E-22  2.54162766E-22
  1.84019192E-22 -8.75942138E-08  0.00000000E+00  0.00000000E+00  0.00000000E+00
  0.00000000E+00  0.00000000E+00  0.00000000E+00  0.00000000E+00  6.60945058E-22
 -6.16473462E-16 -1.00941929E-14 -3.25863173E-15 -9.25916705E-15  1.96855883E+00
  7.53729457E-17 -9.86776143E-16  3.20159491E-16 -1.14591399E-15  4.89883315E-01
 -3.24879367E-14 -1.07076406E-19  6.05396992E-18  1.05173487E-17 -1.20284597E-18
  1.77956807E-02 -1.30284607E-21 -1.63757277E-18 -3.45806638E-18  1.05740624E-18
  5.35196140E-04  0.00000000E+00 -9.12226126E-21 -2.48976203E-20  4.67232241E-21
  3.73035220E-06  0.00000000E+00  1.30326953E-21  3.85470742E-21  7.56556967E-23
  8.15473672E-07 -5.51924990E-24  1.39423365E-19  3.47547574E-19  7.10101633E-20
  2.79244543E-05  4.56068744E-20  1.69536717E-17  3.27630961E-17  6.90776891E-18
  3.95805131E-03 -3.73273126E-18 -1.32360624E-21  5.41532285E-20  1.10275589E-16
  0.00000000E+00  0.00000000E+00  0.00000000E+00  0.00000000E+00  0.00000000E+00
  0.00000000E+00  0.00000000E+00  0.00000000E+00  0.00000000E+00  0.00000000E+00
  0.00000000E+00  0.00000000E+00  0.00000000E+00 -4.79107286E-17 -6.15375936E-17
 -9.97389631E-17  2.60017046E-17  5.06622245E-01  9.18869557E-16  7.12579733E-15
  7.32441936E-15  1.36019329E-15  2.80199452E+00 -6.92914807E-16  1.38112652E-14
 -1.28385841E-18  2.97455406E-16  3.84926510E-16 -2.70920379E-16  8.62107666E-02
 -1.61238281E-20 -3.31631522E-19 -6.91209746E-19  4.49175700E-19  1.98416054E-03
  1.03864172E-22  2.27629296E-20  5.20546693E-20 -2.51878226E-20  5.00179788E-05
 -6.14861572E-23  2.11382658E-19  5.49644036E-19 -1.05336326E-19  4.64439861E-05
 -2.02185226E-20  1.75603517E-17  3.65829340E-17 -8.67671247E-19  2.20435694E-03
  1.05058976E-17  7.24263069E-16  1.15307793E-15 -1.51814661E-16  9.77200425E-02
 -1.34330783E-18 -2.29942997E-21  1.03460638E-17  4.20036814E-15  0.00000000E+00
 -1.12939597E-22  8.80834161E-23  4.11664030E-23 -2.17823814E-08  0.00000000E+00
  0.00000000E+00  0.00000000E+00  0.00000000E+00  0.00000000E+00  6.60945058E-22
  0.00000000E+00  0.00000000E+00 -4.20930575E-17  1.26466359E-15  6.08583233E-16
 -1.51659306E-15  4.34988190E-01  1.02347124E-15  1.39336431E-14 -1.68280994E-15
 -1.28118119E-14  2.44759008E+00  2.51230679E-17  4.46848036E-15  4.02868244E-14
Multipole Matrix (0,1,1)                   R   N=        1830
 -4.00029000E-16 -9.93521585E-17 -4.00029000E-16  0.00000000E+00  0.00000000E+00
 -4.00029000E-16 -5.45641570E-17 -6.36908017E-16  0.00000000E+00 -4.00029000E-16
  3.78533143E-02  4.41848287E-01  0.00000000E+00  5.08390209E-01 -4.00029000E-16
 -3.90864242E-21 -4.18489571E-16  4.48796966E-16 -5.18065970E-16  6.00497311E-03
 -1.20061914E-14 -2.34068790E-17 -1.59801528E-15  1.01278684E-15 -1.80429784E-15
  3.64838639E-01 -2.98188640E-15 -1.20061914E-14 -2.90445533E-17 -1.28464120E-15
  1.07923193E-16 -1.68026363E-15  2.57326704E-01  0.00000000E+00  0.00000000E+00
 -1.20061914E-14  3.00007782E-17  6.10577678E-16 -6.35505192E-16  2.77667665E-16
 -1.40634207E-01 -3.45053927E-16 -4.02769188E-15  0.00000000E+00 -1.20061914E-14
  1.75924100E-03  4.51910382E-01 -3.11324132E-01  5.01236911E-01 -1.09173798E-15
  1.79654531E-01  2.09704350E+00  0.00000000E+00  5.08390209E-01 -1.20061914E-14
  0.00000000E+00 -1.36707800E-17  2.98662043E-17 -1.03676157E-17  1.91889058E-04
 -9.25740217E-21 -3.10222671E-16  5.07389688E-16  9.29649933E-17  5.17785728E-03
 -7.97775907E-15 -1.00051664E-18 -1.87479762E-16  2.49050467E-16 -1.73594935E-16
  4.76024572E-02 -4.47498069E-16 -3.63594756E-15  3.85242737E-15 -4.24914063E-16
  6.15570393E-01 -1.98137531E-15 -7.97775907E-15 -2.18172015E-18 -2.82217394E-16
  3.36325168E-16 -2.62652407E-16  6.50826061E-02 -7.22881074E-16 -3.71291632E-15
  3.03545465E-15 -1.89624205E-16  6.31845767E-01  0.00000000E+00  0.00000000E+00
 -7.97775907E-15  6.33486841E-19 -9.44064800E-18  4.18024259E-18 -4.04987270E-17
  9.19393283E-04 -1.59642253E-16 -1.93468554E-15  2.26665087E-15 -1.92195126E-15
  2.78823186E-01 -2.90484711E-16 -3.39072481E-15  0.00000000E+00 -7.97775907E-15
  6.14587762E-05  5.34655018E-02 -7.38469396E-02  4.73264933E-02 -8.69901354E-17
  6.31274761E-03  5.92308212E-01 -6.10536274E-01  2.53812978E-02 -2.13693789E-15
  1.41800422E-01  1.65518594E+00  0.00000000E+00  5.08390209E-01 -7.97775907E-15
  0.00000000E+00 -1.39064913E-19  3.62163527E-19  8.97404930E-20 -1.10132310E-05
  0.00000000E+00 -3.70727949E-19  6.43294802E-19  6.15740747E-19 -3.65231298E-05
 -1.10902408E-21 -8.24562864E-18  3.73974294E-18  1.21524030E-17 -8.34842095E-04
 -4.00029000E-16 -1.39064913E-19 -3.89110417E-19  1.13323369E-18 -7.13054511E-19
  6.55017803E-04 -1.98010856E-17 -1.34936015E-16  1.79957284E-16  6.63414982E-17
  4.60572764E-02 -2.66355942E-16 -5.16033325E-16  2.33083902E-16  1.48761567E-16
  2.50420899E-01 -9.93521585E-17 -4.00029000E-16 -3.62163527E-19 -1.13323369E-18
  2.76653175E-18 -1.04395961E-18  1.16410291E-03 -3.41458945E-17 -1.39828384E-16
  1.47799790E-16  8.47089258E-17  5.05450603E-02 -1.34742512E-16 -1.48258166E-16
 -2.60564866E-16  8.68926586E-17  8.12777921E-02  0.00000000E+00  0.00000000E+00
 -4.00029000E-16 -8.97404930E-20  7.13054511E-19 -1.04395961E-18 -8.97401637E-19
  9.83286847E-03 -3.07005262E-17 -1.94342927E-16  2.62122343E-16  7.88034116E-17
  6.74459011E-02 -4.12809068E-16 -7.81023376E-16  3.81634661E-16  2.58106717E-16
  3.93235531E-01  5.45641570E-17  6.36908017E-16  0.00000000E+00 -4.00029000E-16
  1.10132310E-05 -6.55017803E-04  1.16410291E-03  9.83286847E-03 -1.02672014E-18
  2.36741017E-04  3.37765636E-02 -3.60584661E-02 -9.26238990E-03 -8.65851899E-17
  4.54835762E-03  1.40055728E-01 -4.85861729E-02  4.41677016E-03 -5.37285585E-16
 -3.78533143E-02 -4.41848287E-01  0.00000000E+00  5.08390209E-01 -4.00029000E-16
  0.00000000E+00 -1.98010856E-17  3.41458945E-17  3.07005262E-17 -2.36741017E-04
  0.00000000E+00 -4.17824173E-18  3.51599902E-18  1.06334747E-17 -5.23246854E-05
  0.00000000E+00 -1.85931559E-17 -8.57190154E-18  4.24275537E-17 -2.28399074E-04
 -3.90864242E-21 -4.18489571E-16 -4.48796966E-16  5.18065970E-16 -6.00497311E-03
 -1.20061914E-14 -3.70727949E-19 -1.34936015E-16  1.39828384E-16  1.94342927E-16
 -3.37765636E-02 -4.17824173E-18 -1.16880303E-17  1.09993037E-17  2.69749887E-17
  3.11140867E-03 -1.18565305E-17 -3.57971136E-17 -1.57705248E-17  7.46787649E-17
 -1.58200304E-03 -2.34068790E-17 -1.59801528E-15 -1.01278684E-15  1.80429784E-15
 -3.64838639E-01 -2.98188640E-15 -1.20061914E-14 -6.43294802E-19 -1.79957284E-16
  1.47799790E-16  2.62122343E-16 -3.60584661E-02 -3.51599902E-18 -1.09993037E-17
 -5.30403440E-19  2.57769794E-17  1.78675087E-03  5.46791958E-18  1.94891132E-17
 -2.17680238E-17 -4.03330988E-17  2.28725616E-04  2.90445533E-17  1.28464120E-15
  1.07923193E-16 -1.68026363E-15  2.57326704E-01  0.00000000E+00  0.00000000E+00
 -1.20061914E-14 -6.15740747E-19 -6.63414982E-17  8.47089258E-17  7.88034116E-17
 -9.26238990E-03 -1.06334747E-17 -2.69749887E-17  2.57769794E-17  5.66597771E-17
  1.49539132E-02 -2.71454340E-17 -6.21930224E-17 -3.14334991E-17  1.17851179E-16
  2.15405728E-02 -3.00007782E-17 -6.10577678E-16 -6.35505192E-16  2.77667665E-16
 -1.40634207E-01  3.45053927E-16  4.02769188E-15  0.00000000E+00 -1.20061914E-14
  3.65231298E-05 -4.60572764E-02  5.05450603E-02  6.74459011E-02 -8.65851899E-17
  5.23246854E-05 -3.11140867E-03  1.78675087E-03  1.49539132E-02 -3.08415684E-17
  1.75009877E-04 -1.97153892E-02 -5.94483605E-03  5.17823611E-02 -8.56065032E-17
 -1.75924100E-03 -4.51910382E-01 -3.11324132E-01  5.01236911E-01 -1.09173798E-15
 -1.79654531E-01 -2.09704350E+00  0.00000000E+00  5.08390209E-01 -1.20061914E-14
 -1.10902408E-21 -2.66355942E-16  1.34742512E-16  4.12809068E-16 -4.54835762E-03
  0.00000000E+00 -1.18565305E-17 -5.46791958E-18  2.71454340E-17 -1.75009877E-04
  0.00000000E+00 -2.77241654E-18 -4.88584636E-18  5.60087769E-18 -4.12421510E-05
  0.00000000E+00 -1.36707800E-17 -2.98662043E-17  1.03676157E-17 -1.91889058E-04
 -9.25740217E-21 -3.10222671E-16 -5.07389688E-16 -9.29649933E-17 -5.17785728E-03
 -7.97775907E-15 -8.24562864E-18 -5.16033325E-16  1.48258166E-16  7.81023376E-16
 -1.40055728E-01 -1.85931559E-17 -3.57971136E-17 -1.94891132E-17  6.21930224E-17
  1.97153892E-02 -2.77241654E-18 -7.75797402E-18 -1.52892494E-17  1.22372060E-17
  2.45305857E-03 -1.00051664E-18 -1.87479762E-16 -2.49050467E-16  1.73594935E-16
 -4.76024572E-02 -4.47498069E-16 -3.63594756E-15 -3.85242737E-15  4.24914063E-16
 -6.15570393E-01 -1.98137531E-15 -7.97775907E-15 -3.73974294E-18 -2.33083902E-16
 -2.60564866E-16  3.81634661E-16 -4.85861729E-02  8.57190154E-18  1.57705248E-17
 -2.17680238E-17 -3.14334991E-17 -5.94483605E-03  4.88584636E-18  1.52892494E-17
  2.15588796E-17 -2.60017086E-17 -2.95012330E-03  2.18172015E-18  2.82217394E-16
  3.36325168E-16 -2.62652407E-16  6.50826061E-02  7.22881074E-16  3.71291632E-15
  3.03545465E-15 -1.89624205E-16  6.31845767E-01  0.00000000E+00  0.00000000E+00
 -7.97775907E-15 -1.21524030E-17 -1.48761567E-16  8.68926586E-17  2.58106717E-16
  4.41677016E-03 -4.24275537E-17 -7.46787649E-17 -4.03330988E-17  1.17851179E-16
  5.17823611E-02 -5.60087769E-18 -1.22372060E-17 -2.60017086E-17  1.57105587E-17
  1.29244165E-02 -6.33486841E-19  9.44064800E-18  4.18024259E-18 -4.04987270E-17
  9.19393283E-04  1.59642253E-16  1.93468554E-15  2.26665087E-15 -1.92195126E-15
  2.78823186E-01  2.90484711E-16  3.39072481E-15  0.00000000E+00 -7.97775907E-15
  8.34842095E-04 -2.50420899E-01  8.12777921E-02  3.93235531E-01 -5.37285585E-16
  2.28399074E-04  1.58200304E-03  2.28725616E-04  2.15405728E-02 -8.56065032E-17
  4.12421510E-05 -2.45305857E-03 -2.95012330E-03  1.29244165E-02 -2.04702164E-17
 -6.14587762E-05 -5.34655018E-02 -7.38469396E-02  4.73264933E-02 -8.69901354E-17
 -6.31274761E-03 -5.92308212E-01 -6.10536274E-01  2.53812978E-02 -2.13693789E-15
 -1.41800422E-01 -1.65518594E+00  0.00000000E+00  5.08390209E-01 -7.97775907E-15
 -3.70163163E-18 -1.10010554E-15  3.85209463E-16 -1.65702508E-15  1.42230942E-01
 -8.06993401E-16 -1.17602515E-14 -3.52105808E-15 -1.27482911E-14  1.15227879E+00
 -4.58783803E-17 -1.89733591E-15 -1.94007890E-15 -1.89545219E-15  2.02951727E-01
 -1.45302333E-20 -3.72806287E-17 -3.94307102E-17 -6.22577351E-17  6.88123224E-03
 -1.18313588E-19 -1.64491208E-18 -1.25669761E-18 -4.69403273E-18  4.84555312E-04
 -5.76672017E-19 -1.20039236E-17  9.59435461E-19 -2.91646020E-17  2.89903177E-03
 -3.83949477E-14 -5.82576782E-20 -4.29678877E-17  6.24850060E-17 -4.84031984E-17
  8.01795400E-03 -6.56073501E-17 -1.70550969E-15  2.12845578E-15 -9.48477345E-16
  1.99718129E-01 -5.36183894E-16 -7.81348361E-15  4.89440494E-15 -7.38681936E-15
  9.09426298E-01 -1.01821889E-18 -4.85010165E-16  8.81357625E-17 -8.20576078E-16
  7.27286668E-02 -9.18903160E-19 -4.30075670E-18  4.38730769E-18 -1.17966435E-17
 -3.05964372E-04 -7.84893969E-20 -1.09133932E-18  1.74559715E-18 -2.75320907E-18
  3.81991938E-04 -1.58403397E-15 -2.55093537E-14 -1.45302333E-20 -3.72806287E-17
  3.94307102E-17  6.22577351E-17 -6.88123224E-03 -1.18313588E-19 -1.64491208E-18
  1.25669761E-18  4.69403273E-18 -4.84555312E-04 -5.76672017E-19 -1.20039236E-17
 -9.59435461E-19  2.91646020E-17 -2.89903177E-03 -3.70163163E-18 -1.10010554E-15
 -3.85209463E-16  1.65702508E-15 -1.42230942E-01 -8.06993401E-16 -1.17602515E-14
  3.52105808E-15  1.27482911E-14 -1.15227879E+00 -4.58783803E-17 -1.89733591E-15
  1.94007890E-15  1.89545219E-15 -2.02951727E-01 -3.38316183E-20 -7.87675484E-19
 -3.83949477E-14 -1.01821889E-18 -4.85010165E-16 -8.81357625E-17  8.20576078E-16
 -7.27286668E-02 -9.18903160E-19 -4.30075670E-18 -4.38730769E-18  1.17966435E-17
  3.05964372E-04 -7.84893969E-20 -1.09133932E-18 -1.74559715E-18  2.75320907E-18
 -3.81991938E-04 -5.82576782E-20 -4.29678877E-17 -6.24850060E-17  4.84031984E-17
 -8.01795400E-03 -6.56073501E-17 -1.70550969E-15 -2.12845578E-15  9.48477345E-16
 -1.99718129E-01 -5.36183894E-16 -7.81348361E-15 -4.89440494E-15  7.38681936E-15
 -9.09426298E-01 -7.87675484E-19 -2.24366398E-20 -1.58403397E-15 -2.55093537E-14
  0.00000000E+00 -1.62509359E-22  6.54197689E-22  1.42738389E-22 -6.43360429E-09
  0.00000000E+00 -2.83489276E-21  8.95394176E-21  5.32361255E-21 -1.23524789E-07
  0.00000000E+00 -1.48536058E-18  2.76608751E-18  2.39390433E-18 -5.93133953E-05
 -6.10984733E-23 -4.47485044E-17  7.27557696E-17  1.73863227E-17 -1.75918854E-03
  0.00000000E+00 -2.34754852E-18  5.43392195E-18 -1.53158071E-18 -7.48172780E-05
  0.00000000E+00 -4.63871087E-21  1.67163717E-20 -1.77618618E-21 -1.57368177E-07
 -2.27454510E-22 -1.24680685E-18 -2.31084205E-18 -4.45014269E-22 -1.77261576E-15
 -3.06206413E-23 -3.72540784E-20  8.12977108E-20  8.82978579E-20 -4.97359996E-05
 -2.45178039E-20 -1.80167409E-18  3.39887520E-18  4.11708999E-19  6.79174712E-04
 -7.92836015E-18 -3.36653643E-17  5.56859435E-17  1.64682090E-18  1.73889030E-02
 -1.18300115E-17 -2.90397926E-16  3.03372101E-16  3.02039330E-16 -1.66565157E-01
 -1.29657894E-17 -2.71065582E-16  4.12485697E-16 -2.31967882E-17 -5.66968299E-02
 -1.77675819E-20 -6.64729400E-18  1.32436252E-17  1.03779308E-18 -1.43342752E-03
 -5.75282800E-19 -9.20279535E-17 -3.90500052E-16 -1.36439178E-18 -4.40251087E-16
 -1.77261576E-15 -1.23448992E-22 -8.51340771E-20  1.79850352E-19  1.92714606E-19
 -1.06422284E-04 -7.72649223E-20 -3.12810068E-18  5.59013956E-18  9.00457526E-19
  1.18521119E-03 -1.47404304E-17 -4.01600581E-17  5.66420939E-17  1.00802864E-17
  2.05053202E-02 -1.98675218E-17 -3.41723284E-16  2.89944837E-16  3.54080906E-16
 -1.81724293E-01 -3.00562861E-17 -3.80556619E-16  5.24391243E-16 -4.59860368E-17
 -8.15997718E-02 -6.41035166E-20 -1.30557389E-17  2.45435909E-17  1.98633251E-18
 -2.83393798E-03 -9.22872811E-19 -6.66430281E-17 -4.35742965E-16 -2.70694622E-18
  0.00000000E+00  0.00000000E+00 -1.77261576E-15 -2.91496261E-23  5.82905800E-20
 -1.24969643E-19 -6.82305254E-21  8.19809051E-05 -4.50854708E-20 -3.22004454E-18
  6.00839471E-18  1.26677756E-18  1.22504786E-03 -1.25592873E-17 -6.28828528E-17
  9.53843653E-17  1.75053298E-17  3.42494951E-02 -2.70456145E-18  1.98769187E-16
 -1.98327939E-16 -1.48338456E-16  8.21684721E-02  9.38309132E-18  2.07821133E-16
 -3.24602006E-16 -5.74999380E-17  4.17806166E-02  8.24737609E-21  4.15551795E-18
 -8.31092228E-18 -1.84299947E-18  8.83449454E-04 -1.03830126E-18 -1.75294686E-16
  4.67758147E-16  1.19782028E-18  1.14868175E-16  1.34081539E-15  0.00000000E+00
 -1.77261576E-15  2.75054484E-09 -5.24736248E-05  1.13908489E-04  1.26930709E-04
 -1.48342499E-20  3.13003539E-07  6.08281415E-04 -1.03333301E-03 -5.21347169E-05
 -7.99415267E-19  1.13916163E-04  8.86457755E-03 -9.67038689E-03  9.02140678E-03
 -3.48704477E-17 -9.36943396E-04 -1.86262191E-01  2.01466840E-01  1.60381568E-01
 -1.67138894E-16 -1.52959251E-04 -5.28510767E-02  7.55007400E-02 -5.73773494E-03
 -1.15669704E-16 -2.61792069E-07 -1.41646412E-03  2.79230256E-03  2.06213650E-04
 -2.23073166E-18  1.36249499E-04  1.58187361E-02 -5.37035735E-02 -2.31761447E-04
 -7.96773295E-02 -9.30045156E-01  0.00000000E+00  5.08390209E-01 -1.77261576E-15
  0.00000000E+00  0.00000000E+00  0.00000000E+00  0.00000000E+00  0.00000000E+00
  0.00000000E+00 -1.62926504E-22  6.54334579E-22  1.35512273E-22  4.39328866E-09
  0.00000000E+00 -3.36436866E-19  9.18824861E-19  1.92216355E-19  8.72291687E-06
  0.00000000E+00 -1.56443820E-18  3.62947969E-18 -1.09237365E-18  4.31555204E-05
  0.00000000E+00 -3.29244848E-21  1.05359405E-20 -5.63456653E-21  1.02690501E-07
  0.00000000E+00 -3.82322371E-25  1.77381272E-24 -5.39539513E-25  3.61294080E-12
 -7.29163691E-23 -2.65782261E-18 -4.68657191E-21  0.00000000E+00  1.54951459E-22
 -5.06092903E-17  5.40812929E-17 -6.12076467E-17  1.69429732E-03 -1.43858870E-15
  0.00000000E+00 -1.06007171E-20  2.74155952E-20 -1.08310027E-20  4.41498108E-06
 -1.05604536E-21 -1.50683508E-18  3.26323452E-18  1.70673116E-19  2.62648971E-04
 -1.55501580E-18 -7.22354231E-17  1.20440390E-16 -6.30021084E-18  1.52438012E-02
 -3.74300238E-19 -4.57640378E-18  7.25422021E-18 -1.91618681E-17  7.55329998E-04
 -3.66094489E-20 -2.45045001E-18  4.69904653E-18 -7.12279063E-19 -1.08422940E-03
 -2.26315813E-24 -2.01312089E-20  4.85868128E-20  4.13239988E-21 -1.22561293E-05
 -6.50270154E-19 -3.54098798E-16 -4.50694475E-18 -4.54702568E-21 -6.39638441E-17
 -2.76277964E-17  4.61030513E-17 -2.98115417E-17 -1.07640607E-01 -3.57291327E-16
 -1.43858870E-15  0.00000000E+00 -2.74440011E-20  6.78338139E-20 -2.80208497E-20
  1.14223647E-05 -4.24806542E-21 -3.23659325E-18  6.61883922E-18  3.83352551E-19
  5.66607387E-04 -4.25316600E-18 -1.14640015E-16  1.77608506E-16 -7.73107614E-18
  2.46555858E-02 -8.69591262E-19 -1.07743243E-17  1.61763489E-17 -2.92151618E-17
  8.19933461E-04 -1.16833692E-19 -4.30842163E-18  7.85969130E-18 -1.46290925E-18
 -1.91765714E-03 -1.04996002E-23 -4.78811267E-20  1.10458952E-19  9.42001436E-21
 -2.91204836E-05 -1.29788472E-18 -4.15375217E-16 -6.17895462E-18 -1.06814276E-20
 -6.89299568E-17 -3.70519224E-17  6.26441580E-18 -4.93078654E-17 -7.27053595E-02
  0.00000000E+00  0.00000000E+00 -1.43858870E-15  0.00000000E+00 -9.95289000E-21
  2.57559653E-20 -3.32311275E-21  4.13068613E-06 -9.86983407E-22 -1.29575609E-18
  2.82005101E-18 -1.24438806E-19  2.25038146E-04 -1.05249945E-18 -6.06087220E-17
  1.02191713E-16 -1.63168294E-17  1.22071328E-02  2.71313651E-19 -2.29521978E-17
  3.27258971E-17 -5.11340435E-18  1.79095347E-02  5.95433795E-20  3.62357544E-18
 -6.90746237E-18  1.12058723E-18  1.63526272E-03  3.14943784E-24  3.25007194E-20
 -7.79604386E-20  3.58089185E-21  1.98888627E-05 -7.57140429E-19 -4.07956877E-16
  7.45457006E-18  7.07319323E-21  7.48789116E-17 -1.27894516E-16  5.63775361E-17
 -1.08389369E-16  2.40939989E-01 -1.50587840E-16 -1.75775834E-15  0.00000000E+00
 -1.43858870E-15  0.00000000E+00  4.41722208E-06 -1.14298098E-05  4.50428447E-06
 -3.34213587E-21  1.33592317E-08  2.59907965E-04 -5.59112796E-04 -2.96444505E-05
 -4.88072328E-19  2.19043023E-05  1.43443490E-02 -2.29761100E-02  9.27509127E-04
 -2.78022350E-17 -3.20366391E-05  4.38682509E-03 -6.57996048E-03  1.98614403E-02
 -6.43808565E-18 -4.69019840E-07 -9.98319874E-04  1.73123792E-03 -1.96507939E-04
 -1.08168932E-18 -1.08521263E-11 -1.20982551E-05  2.86402713E-05  2.68501322E-06
 -6.79141670E-21  9.02985688E-05  5.12494176E-02 -1.15256071E-03 -1.59161212E-06
 -3.03725553E-03 -1.84684849E-02  1.70996199E-02  1.48697431E-01 -1.63523182E-16
  4.93249468E-02  5.75752577E-01  0.00000000E+00  5.08390209E-01 -1.43858870E-15
 -1.54855842E-23 -1.75715801E-19  3.43060937E-19  2.60261199E-19 -6.07195162E-05
 -2.88903161E-21 -2.28545653E-20  6.79442674E-20 -2.37302096E-21  1.59394445E-05
 -4.60798256E-19 -2.17685150E-18  4.05181780E-18  4.29266646E-18 -3.60804884E-04
 -2.56373407E-18 -4.68340695E-16  4.89879137E-16  5.43044848E-16 -9.38885625E-02
 -1.39956075E-17 -4.71774227E-16  6.79509595E-16  2.06243516E-16 -6.58756161E-02
 -3.87783825E-20 -1.19383568E-17  2.19065184E-17  6.68064614E-18 -1.77729049E-03
 -1.64467022E-20 -3.06887557E-18 -1.49358953E-15 -4.38478291E-18 -1.40781359E-16
 -3.97700154E-15  8.42817218E-16  4.74902199E-15 -6.74485973E-01 -5.87071343E-18
 -2.54236441E-16 -1.16443689E-16  4.11329638E-16 -5.89334820E-02 -1.72295379E-14
  0.00000000E+00 -2.16376483E-22  5.81822717E-22 -3.37737046E-22  1.35389742E-07
 -2.95371035E-23 -6.16756672E-20  1.43021731E-19  4.47023740E-21  1.24295052E-05
 -4.31520146E-20 -4.30155132E-18  7.91740065E-18 -6.36901142E-19  1.03569517E-03
 -1.89525713E-20  1.22215403E-19 -9.72829373E-20 -5.18163815E-19 -6.83356958E-04
 -2.72843968E-21 -4.92997728E-19  9.96081714E-19 -6.82637953E-20 -1.62263259E-04
  0.00000000E+00 -3.09041714E-21  7.79454665E-21  4.87901038E-22 -1.26580788E-06
 -3.32598213E-20 -3.55765187E-17 -1.50605863E-18 -7.07805698E-22 -9.13065584E-18
 -1.77730758E-17  2.98500960E-17  1.76359411E-17 -4.17597222E-02 -8.30306032E-17
 -4.10840605E-16  3.91835985E-16 -5.69111056E-16  1.81573861E-01 -1.77742433E-16
 -4.07729598E-16 -1.69298585E-23 -2.17646805E-19  4.65005490E-19 -2.09846423E-19
  4.90180802E-05 -9.08104926E-20 -1.88849438E-17  3.45288128E-17 -6.05369872E-18
  2.49063890E-03 -1.09193582E-17 -4.15417181E-16  5.89978457E-16 -2.14451980E-16
  5.97752679E-02 -1.99730923E-19 -6.95685323E-17  8.55864560E-17 -1.06006297E-16
  1.53092781E-02 -3.55933108E-20 -1.92922664E-19  5.16214606E-19 -2.73131744E-19
 -2.00583805E-04 -1.30447738E-22 -1.71493680E-21  5.85390043E-21 -9.76892986E-21
  6.56826327E-07 -1.43152846E-17 -2.68405900E-15 -3.91149169E-19 -5.25861994E-22
 -7.53281726E-18 -2.24761950E-16  1.04774931E-16 -4.12951133E-16  2.79694970E-02
 -1.17883242E-16 -3.65052497E-15 -7.73280919E-16 -4.62299556E-15  5.26636707E-01
 -2.04674747E-17 -9.25635904E-16 -1.62511233E-14 -6.10984733E-23 -4.47485044E-17
 -7.27557696E-17 -1.73863227E-17  1.75918854E-03  0.00000000E+00 -2.34754852E-18
 -5.43392195E-18  1.53158071E-18  7.48172780E-05  0.00000000E+00 -4.63871087E-21
 -1.67163717E-20  1.77618618E-21  1.57368177E-07  0.00000000E+00 -1.62509359E-22
 -6.54197689E-22 -1.42738389E-22  6.43360429E-09  0.00000000E+00 -2.83489276E-21
 -8.95394176E-21 -5.32361255E-21  1.23524789E-07  0.00000000E+00 -1.48536058E-18
 -2.76608751E-18 -2.39390433E-18  5.93133953E-05 -2.31084205E-18 -4.45014269E-22
 -2.27454510E-22 -1.24680685E-18  0.00000000E+00  0.00000000E+00  0.00000000E+00
  0.00000000E+00  0.00000000E+00  0.00000000E+00  0.00000000E+00  0.00000000E+00
  0.00000000E+00  0.00000000E+00  0.00000000E+00  0.00000000E+00  0.00000000E+00
 -1.77261576E-15 -1.18300115E-17 -2.90397926E-16 -3.03372101E-16 -3.02039330E-16
  1.66565157E-01 -1.29657894E-17 -2.71065582E-16 -4.12485697E-16  2.31967882E-17
  5.66968299E-02 -1.77675819E-20 -6.64729400E-18 -1.32436252E-17 -1.03779308E-18
  1.43342752E-03 -3.06206413E-23 -3.72540784E-20 -8.12977108E-20 -8.82978579E-20
  4.97359996E-05 -2.45178039E-20 -1.80167409E-18 -3.39887520E-18 -4.11708999E-19
 -6.79174712E-04 -7.92836015E-18 -3.36653643E-17 -5.56859435E-17 -1.64682090E-18
 -1.73889030E-02 -3.90500052E-16 -1.36439178E-18 -5.75282800E-19 -9.20279535E-17
  0.00000000E+00  0.00000000E+00  0.00000000E+00  0.00000000E+00  0.00000000E+00
  0.00000000E+00  0.00000000E+00  0.00000000E+00  0.00000000E+00  0.00000000E+00
 -2.54358279E-22  0.00000000E+00 -1.06857717E-21 -4.40251087E-16 -1.77261576E-15
  1.98675218E-17  3.41723284E-16  2.89944837E-16  3.54080906E-16 -1.81724293E-01
  3.00562861E-17  3.80556619E-16  5.24391243E-16 -4.59860368E-17 -8.15997718E-02
  6.41035166E-20  1.30557389E-17  2.45435909E-17  1.98633251E-18 -2.83393798E-03
  1.23448992E-22  8.51340771E-20  1.79850352E-19  1.92714606E-19 -1.06422284E-04
  7.72649223E-20  3.12810068E-18  5.59013956E-18  9.00457526E-19  1.18521119E-03
  1.47404304E-17  4.01600581E-17  5.66420939E-17  1.00802864E-17  2.05053202E-02
  4.35742965E-16  2.70694622E-18  9.22872811E-19  6.66430281E-17  0.00000000E+00
  0.00000000E+00  0.00000000E+00  0.00000000E+00  0.00000000E+00  0.00000000E+00
  0.00000000E+00  0.00000000E+00  0.00000000E+00  0.00000000E+00  6.57218522E-22
  0.00000000E+00  2.95843577E-21  0.00000000E+00  0.00000000E+00 -1.77261576E-15
  2.70456145E-18 -1.98769187E-16 -1.98327939E-16 -1.48338456E-16  8.21684721E-02
 -9.38309132E-18 -2.07821133E-16 -3.24602006E-16 -5.74999380E-17  4.17806166E-02
 -8.24737609E-21 -4.15551795E-18 -8.31092228E-18 -1.84299947E-18  8.83449454E-04
  2.91496261E-23 -5.82905800E-20 -1.24969643E-19 -6.82305254E-21  8.19809051E-05
  4.50854708E-20  3.22004454E-18  6.00839471E-18  1.26677756E-18  1.22504786E-03
  1.25592873E-17  6.28828528E-17  9.53843653E-17  1.75053298E-17  3.42494951E-02
 -4.67758147E-16 -1.19782028E-18  1.03830126E-18  1.75294686E-16  0.00000000E+00
  0.00000000E+00  0.00000000E+00  0.00000000E+00  1.98411955E-07  0.00000000E+00
  0.00000000E+00  0.00000000E+00  0.00000000E+00  0.00000000E+00  4.83713187E-22
  0.00000000E+00 -7.90260753E-22 -1.14868175E-16 -1.34081539E-15  0.00000000E+00
 -1.77261576E-15  9.36943396E-04  1.86262191E-01  2.01466840E-01  1.60381568E-01
 -1.67138894E-16  1.52959251E-04  5.28510767E-02  7.55007400E-02 -5.73773494E-03
 -1.15669704E-16  2.61792069E-07  1.41646412E-03  2.79230256E-03  2.06213650E-04
 -2.23073166E-18 -2.75054484E-09  5.24736248E-05  1.13908489E-04  1.26930709E-04
 -1.48342499E-20 -3.13003539E-07 -6.08281415E-04 -1.03333301E-03 -5.21347169E-05
 -7.99415267E-19 -1.13916163E-04 -8.86457755E-03 -9.67038689E-03  9.02140678E-03
 -3.48704477E-17  5.37035735E-02  2.31761447E-04 -1.36249499E-04 -1.58187361E-02
  0.00000000E+00  0.00000000E+00  0.00000000E+00  1.98411955E-07  0.00000000E+00
  0.00000000E+00  0.00000000E+00  0.00000000E+00  0.00000000E+00  0.00000000E+00
 -1.16980118E-07  0.00000000E+00  2.06093844E-07  7.96773295E-02  9.30045156E-01
  0.00000000E+00  5.08390209E-01 -1.77261576E-15  0.00000000E+00 -1.56443820E-18
 -3.62947969E-18  1.09237365E-18 -4.31555204E-05  0.00000000E+00 -3.29244848E-21
 -1.05359405E-20  5.63456653E-21 -1.02690501E-07  0.00000000E+00 -3.82322371E-25
 -1.77381272E-24  5.39539513E-25 -3.61294080E-12  0.00000000E+00  0.00000000E+00
  0.00000000E+00  0.00000000E+00  0.00000000E+00  0.00000000E+00 -1.62926504E-22
 -6.54334579E-22 -1.35512273E-22 -4.39328866E-09  0.00000000E+00 -3.36436866E-19
 -9.18824861E-19 -1.92216355E-19 -8.72291687E-06 -4.68657191E-21  0.00000000E+00
 -7.29163691E-23 -2.65782261E-18  0.00000000E+00  0.00000000E+00  0.00000000E+00
  0.00000000E+00  0.00000000E+00  0.00000000E+00  0.00000000E+00  0.00000000E+00
  0.00000000E+00  0.00000000E+00  0.00000000E+00  0.00000000E+00  0.00000000E+00
  1.54951459E-22 -5.06092903E-17 -5.40812929E-17  6.12076467E-17 -1.69429732E-03
 -1.43858870E-15 -3.74300238E-19 -4.57640378E-18 -7.25422021E-18  1.91618681E-17
 -7.55329998E-04 -3.66094489E-20 -2.45045001E-18 -4.69904653E-18  7.12279063E-19
  1.08422940E-03 -2.26315813E-24 -2.01312089E-20 -4.85868128E-20 -4.13239988E-21
  1.22561293E-05  0.00000000E+00 -1.06007171E-20 -2.74155952E-20  1.08310027E-20
 -4.41498108E-06 -1.05604536E-21 -1.50683508E-18 -3.26323452E-18 -1.70673116E-19
 -2.62648971E-04 -1.55501580E-18 -7.22354231E-17 -1.20440390E-16  6.30021084E-18
 -1.52438012E-02 -4.50694475E-18 -4.54702568E-21 -6.50270154E-19 -3.54098798E-16
  0.00000000E+00  0.00000000E+00  0.00000000E+00  0.00000000E+00  0.00000000E+00
  0.00000000E+00  0.00000000E+00  0.00000000E+00  0.00000000E+00  0.00000000E+00
  0.00000000E+00  0.00000000E+00  0.00000000E+00 -6.39638441E-17 -2.76277964E-17
 -4.61030513E-17  2.98115417E-17  1.07640607E-01 -3.57291327E-16 -1.43858870E-15
  8.69591262E-19  1.07743243E-17  1.61763489E-17 -2.92151618E-17  8.19933461E-04
  1.16833692E-19  4.30842163E-18  7.85969130E-18 -1.46290925E-18 -1.91765714E-03
  1.04996002E-23  4.78811267E-20  1.10458952E-19  9.42001436E-21 -2.91204836E-05
  0.00000000E+00  2.74440011E-20  6.78338139E-20 -2.80208497E-20  1.14223647E-05
  4.24806542E-21  3.23659325E-18  6.61883922E-18  3.83352551E-19  5.66607387E-04
  4.25316600E-18  1.14640015E-16  1.77608506E-16 -7.73107614E-18  2.46555858E-02
  6.17895462E-18  1.06814276E-20  1.29788472E-18  4.15375217E-16  0.00000000E+00
  0.00000000E+00  0.00000000E+00  0.00000000E+00  0.00000000E+00  0.00000000E+00
  0.00000000E+00  0.00000000E+00  0.00000000E+00  0.00000000E+00  0.00000000E+00
  0.00000000E+00  0.00000000E+00  6.89299568E-17  3.70519224E-17  6.26441580E-18
 -4.93078654E-17 -7.27053595E-02  0.00000000E+00  0.00000000E+00 -1.43858870E-15
 -2.71313651E-19  2.29521978E-17  3.27258971E-17 -5.11340435E-18  1.79095347E-02
 -5.95433795E-20 -3.62357544E-18 -6.90746237E-18  1.12058723E-18  1.63526272E-03
 -3.14943784E-24 -3.25007194E-20 -7.79604386E-20  3.58089185E-21  1.98888627E-05
  0.00000000E+00  9.95289000E-21  2.57559653E-20 -3.32311275E-21  4.13068613E-06
  9.86983407E-22  1.29575609E-18  2.82005101E-18 -1.24438806E-19  2.25038146E-04
  1.05249945E-18  6.06087220E-17  1.02191713E-16 -1.63168294E-17  1.22071328E-02
 -7.45457006E-18 -7.07319323E-21  7.57140429E-19  4.07956877E-16  0.00000000E+00
  0.00000000E+00  0.00000000E+00  0.00000000E+00  0.00000000E+00  0.00000000E+00
  0.00000000E+00  0.00000000E+00  0.00000000E+00  0.00000000E+00  0.00000000E+00
  0.00000000E+00  0.00000000E+00 -7.48789116E-17  1.27894516E-16  5.63775361E-17
 -1.08389369E-16  2.40939989E-01  1.50587840E-16  1.75775834E-15  0.00000000E+00
 -1.43858870E-15  3.20366391E-05 -4.38682509E-03 -6.57996048E-03  1.98614403E-02
 -6.43808565E-18  4.69019840E-07  9.98319874E-04  1.73123792E-03 -1.96507939E-04
 -1.08168932E-18  1.08521263E-11  1.20982551E-05  2.86402713E-05  2.68501322E-06
 -6.79141670E-21  0.00000000E+00 -4.41722208E-06 -1.14298098E-05  4.50428447E-06
 -3.34213587E-21 -1.33592317E-08 -2.59907965E-04 -5.59112796E-04 -2.96444505E-05
 -4.88072328E-19 -2.19043023E-05 -1.43443490E-02 -2.29761100E-02  9.27509127E-04
 -2.78022350E-17  1.15256071E-03  1.59161212E-06 -9.02985688E-05 -5.12494176E-02
  0.00000000E+00  0.00000000E+00  0.00000000E+00  0.00000000E+00  0.00000000E+00
  0.00000000E+00  0.00000000E+00  0.00000000E+00  0.00000000E+00  0.00000000E+00
  0.00000000E+00  0.00000000E+00  0.00000000E+00  3.03725553E-03  1.84684849E-02
  1.70996199E-02  1.48697431E-01 -1.63523182E-16 -4.93249468E-02 -5.75752577E-01
  0.00000000E+00  5.08390209E-01 -1.43858870E-15 -2.56373407E-18 -4.68340695E-16
 -4.89879137E-16 -5.43044848E-16  9.38885625E-02 -1.39956075E-17 -4.71774227E-16
 -6.79509595E-16 -2.06243516E-16  6.58756161E-02 -3.87783825E-20 -1.19383568E-17
 -2.19065184E-17 -6.68064614E-18  1.77729049E-03 -1.54855842E-23 -1.75715801E-19
 -3.43060937E-19 -2.60261199E-19  6.07195162E-05 -2.88903161E-21 -2.28545653E-20
 -6.79442674E-20  2.37302096E-21 -1.59394445E-05 -4.60798256E-19 -2.17685150E-18
 -4.05181780E-18 -4.29266646E-18  3.60804884E-04 -1.49358953E-15 -4.38478291E-18
 -1.64467022E-20 -3.06887557E-18  0.00000000E+00 -2.54358279E-22 -6.57218522E-22
 -4.83713187E-22  1.16980118E-07  0.00000000E+00  0.00000000E+00  0.00000000E+00
  0.00000000E+00  0.00000000E+00  0.00000000E+00  0.00000000E+00 -4.76061851E-21
 -1.40781359E-16 -3.97700154E-15 -8.42817218E-16 -4.74902199E-15  6.74485973E-01
 -5.87071343E-18 -2.54236441E-16  1.16443689E-16 -4.11329638E-16  5.89334820E-02
 -1.72295379E-14 -1.89525713E-20  1.22215403E-19  9.72829373E-20  5.18163815E-19
  6.83356958E-04 -2.72843968E-21 -4.92997728E-19 -9.96081714E-19  6.82637953E-20
  1.62263259E-04  0.00000000E+00 -3.09041714E-21 -7.79454665E-21 -4.87901038E-22
  1.26580788E-06  0.00000000E+00 -2.16376483E-22 -5.81822717E-22  3.37737046E-22
 -1.35389742E-07 -2.95371035E-23 -6.16756672E-20 -1.43021731E-19 -4.47023740E-21
 -1.24295052E-05 -4.31520146E-20 -4.30155132E-18 -7.91740065E-18  6.36901142E-19
 -1.03569517E-03 -1.50605863E-18 -7.07805698E-22 -3.32598213E-20 -3.55765187E-17
  0.00000000E+00  0.00000000E+00  0.00000000E+00  0.00000000E+00  0.00000000E+00
  0.00000000E+00  0.00000000E+00  0.00000000E+00  0.00000000E+00  0.00000000E+00
  0.00000000E+00  0.00000000E+00  0.00000000E+00 -9.13065584E-18 -1.77730758E-17
 -2.98500960E-17 -1.76359411E-17  4.17597222E-02 -8.30306032E-17 -4.10840605E-16
 -3.91835985E-16  5.69111056E-16 -1.81573861E-01 -1.77742433E-16 -4.07729598E-16
 -1.99730923E-19 -6.95685323E-17 -8.55864560E-17  1.06006297E-16 -1.53092781E-02
 -3.55933108E-20 -1.92922664E-19 -5.16214606E-19  2.73131744E-19  2.00583805E-04
 -1.30447738E-22 -1.71493680E-21 -5.85390043E-21  9.76892986E-21 -6.56826327E-07
 -1.69298585E-23 -2.17646805E-19 -4.65005490E-19  2.09846423E-19 -4.90180802E-05
 -9.08104926E-20 -1.88849438E-17 -3.45288128E-17  6.05369872E-18 -2.49063890E-03
 -1.09193582E-17 -4.15417181E-16 -5.89978457E-16  2.14451980E-16 -5.97752679E-02
 -3.91149169E-19 -5.25861994E-22 -1.43152846E-17 -2.68405900E-15  0.00000000E+00
 -1.06857717E-21 -2.95843577E-21  7.90260753E-22 -2.06093844E-07  0.00000000E+00
  0.00000000E+00  0.00000000E+00  0.00000000E+00  0.00000000E+00 -4.76061851E-21
  0.00000000E+00  0.00000000E+00 -7.53281726E-18 -2.24761950E-16 -1.04774931E-16
  4.12951133E-16 -2.79694970E-02 -1.17883242E-16 -3.65052497E-15  7.73280919E-16
  4.62299556E-15 -5.26636707E-01 -2.04674747E-17 -9.25635904E-16 -1.62511233E-14
Multipole Matrix (0,0,2)                   R   N=        1830
  3.10650896E-02  2.63532865E-02  8.41350389E-01  0.00000000E+00  0.00000000E+00
  5.08390209E-01  0.00000000E+00  0.00000000E+00  0.00000000E+00  5.08390209E-01
 -1.09128314E-16 -1.27381603E-15  0.00000000E+00  0.00000000E+00  1.52517063E+00
  6.56892907E-08  3.82669024E-03 -4.12288351E-03  4.65375179E-03 -3.24960854E-17
  3.10650896E-02  3.82669024E-03  3.34770192E-01 -1.97294320E-01  2.22698215E-01
 -1.77841925E-15  2.63532865E-02  8.41350389E-01  4.12288351E-03  1.97294320E-01
  9.52796011E-03  1.58363290E-01 -1.25855925E-15  0.00000000E+00  0.00000000E+00
  5.08390209E-01 -4.65375179E-03 -2.22698215E-01  1.58363290E-01 -2.89281251E-02
  1.42061312E-15  0.00000000E+00  0.00000000E+00  0.00000000E+00  5.08390209E-01
  3.96635252E-18 -1.22273851E-15  8.30957629E-16 -9.37952903E-16  4.49478737E-01
 -6.90107853E-16 -8.05538376E-15  0.00000000E+00  0.00000000E+00  1.52517063E+00
  0.00000000E+00  1.91607772E-04 -4.14654078E-04  1.38508286E-04 -1.09697684E-18
  6.62090275E-08  3.83073410E-03 -6.09815801E-03 -1.24400436E-03 -1.92883844E-17
  3.10650896E-02  1.91607772E-04  6.17353317E-02 -7.87564657E-02  2.63072852E-02
 -2.40515124E-16  3.83073410E-03  3.34960153E-01 -2.91612506E-01 -5.94880010E-02
 -2.33583748E-15  2.63532865E-02  8.41350389E-01  4.14654078E-04  7.87564657E-02
 -8.45455362E-02  3.58099404E-02 -3.28215932E-16  6.09815801E-03  2.91612506E-01
 -1.56428562E-01 -6.24958848E-02 -2.39690216E-15  0.00000000E+00  0.00000000E+00
  5.08390209E-01 -1.38508286E-04 -2.63072852E-02  3.58099404E-02  1.06974395E-02
  1.09635063E-16  1.24400436E-03  5.94880010E-02 -6.24958848E-02  1.37179751E-01
 -4.88960230E-16  0.00000000E+00  0.00000000E+00  0.00000000E+00  5.08390209E-01
  1.23800488E-19 -1.47713762E-16  2.05449368E-16 -6.86269384E-17  6.79774605E-02
 -2.61470542E-17 -2.44028133E-15  2.51564800E-15  5.13183995E-16  4.49786125E-01
 -5.80969421E-16 -6.78144962E-15  0.00000000E+00  0.00000000E+00  1.52517063E+00
  0.00000000E+00  4.45043950E-05 -1.14690104E-04 -2.33917038E-05  6.54686116E-20
  0.00000000E+00  1.91846304E-04 -3.27622250E-04 -2.90188448E-04  6.25047500E-19
  6.59921234E-08  3.82904972E-03 -1.97080071E-03 -5.90066913E-03  1.32438959E-17
  3.10650896E-02  4.45043950E-05  2.74072409E-02 -4.03539906E-02 -8.23042759E-03
  9.97548992E-18  1.91846304E-04  6.17784499E-02 -6.21941588E-02 -5.50879142E-02
 -8.48973544E-17  3.82904972E-03  3.34881044E-01 -9.42708966E-02 -2.82251455E-01
 -5.56103569E-16  2.63532865E-02  8.41350389E-01  1.14690104E-04  4.03539906E-02
 -5.26623519E-02 -1.26978340E-02  1.49474367E-17  3.27622250E-04  6.21941588E-02
 -4.41346133E-02 -5.91769596E-02 -9.53056748E-17  1.97080071E-03  9.42708966E-02
  1.17863369E-01 -9.58773541E-02 -1.73385404E-16  0.00000000E+00  0.00000000E+00
  5.08390209E-01  2.33917038E-05  8.23042759E-03 -1.26978340E-02  7.00564701E-03
  3.04861536E-18  2.90188448E-04  5.50879142E-02 -5.91769596E-02 -2.97393866E-02
 -8.44161403E-17  5.90066913E-03  2.82251455E-01 -9.58773541E-02 -1.37175229E-01
 -5.19123974E-16  0.00000000E+00  0.00000000E+00  0.00000000E+00  5.08390209E-01
 -6.54686116E-20 -9.97548992E-18  1.49474367E-17  3.04861536E-18  2.87863290E-02
 -1.44536836E-18 -2.42193123E-16  2.59521160E-16  2.29868523E-16  6.80282119E-02
 -3.01004426E-17 -1.21636446E-15  4.16098600E-16  1.24581859E-15  4.49658105E-01
  1.09128314E-16  1.27381603E-15  0.00000000E+00  0.00000000E+00  1.52517063E+00
  0.00000000E+00  1.91846304E-04 -3.27622250E-04 -2.90188448E-04  1.44536836E-18
  0.00000000E+00  4.45512879E-05 -3.70980651E-05 -1.11135718E-04  4.14448173E-19
  0.00000000E+00  1.91633907E-04  8.74522903E-05 -4.28393494E-04  1.72149495E-18
  6.56892907E-08  3.82669024E-03  4.12288351E-03 -4.65375179E-03  3.24960854E-17
  3.10650896E-02  1.91846304E-04  6.17784499E-02 -6.21941588E-02 -5.50879142E-02
  2.42193123E-16  4.45512879E-05  2.74231714E-02 -1.30471375E-02 -3.90856769E-02
  6.31181339E-17  1.91633907E-04  6.17400570E-02  1.66091307E-02 -8.13614315E-02
  1.55707819E-16  3.82669024E-03  3.34770192E-01  1.97294320E-01 -2.22698215E-01
  1.77841925E-15  2.63532865E-02  8.41350389E-01  3.27622250E-04  6.21941588E-02
 -4.41346133E-02 -5.91769596E-02  2.59521160E-16  3.70980651E-05  1.30471375E-02
  3.09695008E-03 -1.94852441E-02  3.05609280E-17 -8.74522903E-05 -1.66091307E-02
  1.78933740E-02  2.33547129E-02 -4.37723347E-17 -4.12288351E-03 -1.97294320E-01
  9.52796011E-03  1.58363290E-01 -1.25855925E-15  0.00000000E+00  0.00000000E+00
  5.08390209E-01  2.90188448E-04  5.50879142E-02 -5.91769596E-02 -2.97393866E-02
  2.29868523E-16  1.11135718E-04  3.90856769E-02 -1.94852441E-02 -4.87712008E-02
  9.15522320E-17  4.28393494E-04  8.13614315E-02  2.33547129E-02 -9.17443103E-02
  2.14423011E-16  4.65375179E-03  2.22698215E-01  1.58363290E-01 -2.89281251E-02
  1.42061312E-15  0.00000000E+00  0.00000000E+00  0.00000000E+00  5.08390209E-01
 -6.25047500E-19  8.48973544E-17 -9.53056748E-17 -8.44161403E-17  6.80282119E-02
 -4.14448173E-19 -6.31181339E-17  3.05609280E-17  9.15522320E-17  2.88038800E-02
 -1.56756679E-18 -9.43046043E-17 -2.59731353E-17  1.27231913E-16  6.79830221E-02
 -3.96635252E-18  1.22273851E-15  8.30957629E-16 -9.37952903E-16  4.49478737E-01
  6.90107853E-16  8.05538376E-15  0.00000000E+00  0.00000000E+00  1.52517063E+00
  6.59921234E-08  3.82904972E-03 -1.97080071E-03 -5.90066913E-03  3.01004426E-17
  0.00000000E+00  1.91633907E-04  8.74522903E-05 -4.28393494E-04  1.56756679E-18
  0.00000000E+00  4.44893366E-05  7.75841818E-05 -8.75968399E-05  3.48419072E-19
  0.00000000E+00  1.91607772E-04  4.14654078E-04 -1.38508286E-04  1.09697684E-18
  6.62090275E-08  3.83073410E-03  6.09815801E-03  1.24400436E-03  1.92883844E-17
  3.10650896E-02  3.82904972E-03  3.34881044E-01 -9.42708966E-02 -2.82251455E-01
  1.21636446E-15  1.91633907E-04  6.17400570E-02  1.66091307E-02 -8.13614315E-02
  9.43046043E-17  4.44893366E-05  2.74021237E-02  2.73021528E-02 -3.08256432E-02
  5.30973459E-17  1.91607772E-04  6.17353317E-02  7.87564657E-02 -2.63072852E-02
  2.40515124E-16  3.83073410E-03  3.34960153E-01  2.91612506E-01  5.94880010E-02
  2.33583748E-15  2.63532865E-02  8.41350389E-01  1.97080071E-03  9.42708966E-02
  1.17863369E-01 -9.58773541E-02  4.16098600E-16 -8.74522903E-05 -1.66091307E-02
  1.78933740E-02  2.33547129E-02 -2.59731353E-17 -7.75841818E-05 -2.73021528E-02
 -1.89096722E-02  3.21817327E-02 -5.38388376E-17 -4.14654078E-04 -7.87564657E-02
 -8.45455362E-02  3.58099404E-02 -3.28215932E-16 -6.09815801E-03 -2.91612506E-01
 -1.56428562E-01 -6.24958848E-02 -2.39690216E-15  0.00000000E+00  0.00000000E+00
  5.08390209E-01  5.90066913E-03  2.82251455E-01 -9.58773541E-02 -1.37175229E-01
  1.24581859E-15  4.28393494E-04  8.13614315E-02  2.33547129E-02 -9.17443103E-02
  1.27231913E-16  8.75968399E-05  3.08256432E-02  3.21817327E-02 -2.67413954E-02
  6.07870307E-17  1.38508286E-04  2.63072852E-02  3.58099404E-02  1.06974395E-02
  1.09635063E-16 -1.24400436E-03 -5.94880010E-02 -6.24958848E-02  1.37179751E-01
 -4.88960230E-16  0.00000000E+00  0.00000000E+00  0.00000000E+00  5.08390209E-01
 -1.32438959E-17  5.56103569E-16 -1.73385404E-16 -5.19123974E-16  4.49658105E-01
 -1.72149495E-18 -1.55707819E-16 -4.37723347E-17  2.14423011E-16  6.79830221E-02
 -3.48419072E-19 -5.30973459E-17 -5.38388376E-17  6.07870307E-17  2.87806914E-02
 -1.23800488E-19  1.47713762E-16  2.05449368E-16 -6.86269384E-17  6.79774605E-02
  2.61470542E-17  2.44028133E-15  2.51564800E-15  5.13183995E-16  4.49786125E-01
  5.80969421E-16  6.78144962E-15  0.00000000E+00  0.00000000E+00  1.52517063E+00
  5.47312554E-04  9.84558784E-02 -2.92754872E-02  1.05976002E-01 -7.35490123E-16
  6.04184372E-03  4.11417169E-01  9.31331195E-02  2.78658794E-01 -4.96142505E-15
  5.47427989E-04  9.84695999E-02  8.70965583E-02  6.71183981E-02 -9.22901681E-16
  9.79239944E-06  7.71156714E-03  7.59534538E-03  9.31277743E-03 -4.52382685E-17
  1.31391278E-06  2.27518852E-03  1.24843973E-03  3.73868611E-03 -9.04190511E-18
  9.78908218E-06  7.70996629E-03 -4.74193236E-04  1.20057480E-02 -3.32756232E-17
  6.49524236E-01  9.77830437E-06  7.70476370E-03 -1.06279630E-02  5.58864887E-03
 -4.31357746E-17  5.47366306E-04  9.84622679E-02 -1.06420879E-01  2.76375025E-02
 -8.56645033E-16  6.04150533E-03  4.11406964E-01 -1.94846909E-01  2.19903580E-01
 -4.17651106E-15  5.47499844E-04  9.84781405E-02 -1.45953058E-02  1.08992484E-01
 -5.39502851E-16  9.78462875E-06  7.70781683E-03 -4.26751141E-03  1.12284620E-02
 -2.29125637E-17  1.31180494E-06  2.27298436E-03 -2.61124122E-03  2.94789733E-03
 -7.60405440E-18  5.66832248E-02  6.49524236E-01  9.79239944E-06  7.71156714E-03
 -7.59534538E-03 -9.31277743E-03  4.52382685E-17  1.31391278E-06  2.27518852E-03
 -1.24843973E-03 -3.73868611E-03  9.04190511E-18  9.78908218E-06  7.70996629E-03
  4.74193236E-04 -1.20057480E-02  3.32756232E-17  5.47312554E-04  9.84558784E-02
  2.92754872E-02 -1.05976002E-01  7.35490123E-16  6.04184372E-03  4.11417169E-01
 -9.31331195E-02 -2.78658794E-01  4.96142505E-15  5.47427989E-04  9.84695999E-02
 -8.70965583E-02 -6.71183981E-02  9.22901681E-16  1.62869428E-04  1.08393643E-03
  6.49524236E-01  5.47499844E-04  9.84781405E-02  1.45953058E-02 -1.08992484E-01
  5.39502851E-16  9.78462875E-06  7.70781683E-03  4.26751141E-03 -1.12284620E-02
  2.29125637E-17  1.31180494E-06  2.27298436E-03  2.61124122E-03 -2.94789733E-03
  7.60405440E-18  9.77830437E-06  7.70476370E-03  1.06279630E-02 -5.58864887E-03
  4.31357746E-17  5.47366306E-04  9.84622679E-02  1.06420879E-01 -2.76375025E-02
  8.56645033E-16  6.04150533E-03  4.11406964E-01  1.94846909E-01 -2.19903580E-01
  4.17651106E-15  1.08393643E-03  1.62680996E-04  5.66832248E-02  6.49524236E-01
  0.00000000E+00  1.19862656E-08 -4.78749749E-08 -9.76700034E-09  3.26304269E-23
  0.00000000E+00  2.57964788E-07 -8.06012991E-07 -4.64009575E-07  1.16084117E-21
  0.00000000E+00  1.19542768E-04 -2.20023215E-04 -1.83948137E-04  4.99356322E-19
  4.48709354E-09  2.69470031E-03 -4.36451331E-03 -8.90840283E-04  6.35676210E-18
  0.00000000E+00  1.19457996E-04 -2.74330439E-04  8.29770067E-05  3.30015725E-20
  0.00000000E+00  2.57602975E-07 -9.22131530E-07  1.10997830E-07  1.58176907E-22
  2.26892047E-08  1.06491345E-04  1.06471835E-04  2.26600805E-08  3.10650896E-02
  1.19862656E-08  3.26437802E-04 -6.97228699E-04 -1.42242016E-04  3.48480812E-19
  2.57964788E-07  1.68034073E-03 -2.83892415E-03 -1.63432600E-03 -1.91486271E-19
  1.19542768E-04  4.74131521E-02 -5.08786295E-02 -4.25365528E-02 -1.19664484E-17
  2.69470031E-03  2.76317723E-01 -2.59318134E-01 -5.29293929E-02  5.56552497E-16
  1.19457996E-04  4.73943932E-02 -6.34556326E-02  1.91934897E-02  1.58945606E-16
  2.57602975E-07  1.67907786E-03 -3.25000803E-03  3.91206487E-04  4.15797466E-18
  1.99681202E-04  3.40766503E-02  3.40726827E-02  1.99528209E-04  2.63532865E-02
  8.41350389E-01  4.78749749E-08  6.97228699E-04 -1.39542253E-03 -3.05835228E-04
  7.47784596E-19  8.06012991E-07  2.83892415E-03 -4.32348581E-03 -2.80141288E-03
 -4.09017547E-19  2.20023215E-04  5.08786295E-02 -4.07533405E-02 -4.83728996E-02
 -1.66013634E-17  4.36451331E-03  2.59318134E-01 -1.66415383E-01 -5.83092076E-02
  6.08016240E-16  2.74330439E-04  6.34556326E-02 -7.29361951E-02  2.72330523E-02
  2.29957371E-16  9.22131530E-07  3.25000803E-03 -5.83998377E-03  7.68244525E-04
  8.24319456E-18  3.18852203E-04  2.00645749E-02  3.42504659E-02  3.93692332E-04
  0.00000000E+00  0.00000000E+00  5.08390209E-01  9.76700034E-09  1.42242016E-04
 -3.05835228E-04  4.12985592E-05  1.52555953E-19  4.64009575E-07  1.63432600E-03
 -2.80141288E-03 -1.06999175E-03 -2.35465260E-19  1.83948137E-04  4.25365528E-02
 -4.83728996E-02 -2.33354292E-02 -1.38793984E-17  8.90840283E-04  5.29293929E-02
 -5.83092076E-02  1.07358710E-01  1.24102121E-16 -8.29770067E-05 -1.91934897E-02
  2.72330523E-02  8.86184164E-03 -6.95554399E-17 -1.10997830E-07 -3.91206487E-04
  7.68244525E-04  4.49851397E-04 -9.92240992E-19  2.56814402E-04  4.03068125E-02
 -2.92185274E-02 -1.11290067E-04  0.00000000E+00  0.00000000E+00  0.00000000E+00
  5.08390209E-01 -2.20095775E-23 -5.37386176E-20  1.12416099E-19  2.29340710E-20
  3.11076524E-04 -2.03334626E-21 -5.73694646E-18  9.80685682E-18  5.64566020E-18
  1.62821874E-03 -8.08070799E-19 -1.36466128E-16  1.54006794E-16  1.28755790E-16
  5.13187016E-02  1.41673263E-18  4.60720247E-16 -4.96801450E-16 -1.01402084E-16
  3.57780586E-01  7.74916588E-19  2.29618324E-16 -3.27274566E-16  9.89910709E-17
  5.12971520E-02  1.37613355E-21  6.27387949E-18 -1.23513150E-17  1.48673927E-18
  1.62697711E-03 -1.05877884E-18 -1.59559259E-16  2.52798988E-16  1.12415947E-18
  2.29736350E-16  2.68163078E-15  0.00000000E+00  0.00000000E+00  1.52517063E+00
  0.00000000E+00  0.00000000E+00  0.00000000E+00  0.00000000E+00  0.00000000E+00
  0.00000000E+00  1.05527185E-08 -4.21461143E-08 -9.53512426E-09 -1.08209173E-23
  0.00000000E+00  2.18108381E-05 -5.91199160E-05 -1.40001399E-05 -2.95602393E-20
  0.00000000E+00  1.31805939E-04 -3.02700821E-04  7.98448501E-05 -4.57911371E-19
  0.00000000E+00  3.82586451E-07 -1.21046533E-06  6.07662001E-07 -2.00622853E-21
  0.00000000E+00  1.06552594E-11 -4.93992155E-11  1.47133927E-11 -5.63856079E-26
  4.18554347E-09  1.54590110E-04  5.90452952E-07  0.00000000E+00  2.15582755E-07
  4.49713417E-03 -5.08173190E-03  5.21966549E-03 -2.20576781E-17  3.10650896E-02
  0.00000000E+00  1.37376978E-05 -3.54764738E-05  5.79986463E-07 -2.56203948E-20
  1.05527185E-08  3.05030644E-04 -6.51268921E-04 -1.47342885E-04 -9.15348364E-19
  2.18108381E-05  1.85156139E-02 -2.83280625E-02 -6.70834576E-03 -5.94948226E-17
  1.31805939E-04  5.00693714E-02 -6.71901333E-02  1.77230643E-02 -7.62035261E-17
  3.82586451E-07  2.07558443E-03 -3.55869194E-03  1.78648806E-03 -5.73625952E-19
  1.06552594E-11  3.56265726E-05 -8.42329203E-05  2.50884962E-05 -2.06907263E-20
  7.28961130E-05  4.32265457E-02  1.40509271E-03  2.66185643E-06  4.49713417E-03
  3.64763319E-01 -2.17501762E-01  2.23405418E-01 -4.24629464E-16  2.63532865E-02
  8.41350389E-01  0.00000000E+00  3.54764738E-05 -8.74229612E-05  1.49981596E-06
 -6.62687550E-20  4.21461143E-08  6.51268921E-04 -1.30263593E-03 -3.16619064E-04
 -1.97545071E-18  5.91199160E-05  2.83280625E-02 -3.87458884E-02 -1.06834935E-02
 -9.63015135E-17  3.02700821E-04  6.71901333E-02 -7.75527765E-02  2.52376012E-02
 -1.07776605E-16  1.21046533E-06  3.55869194E-03 -5.52695081E-03  3.11221029E-03
 -8.88522067E-19  4.93992155E-11  8.42329203E-05 -1.88380348E-04  5.94489389E-05
 -4.87055457E-20  1.45178534E-04  4.52728399E-02  1.87183414E-03  6.26386975E-06
  5.08173190E-03  2.17501762E-01  7.53003992E-03  1.63039590E-01 -3.26758724E-16
  0.00000000E+00  0.00000000E+00  5.08390209E-01  0.00000000E+00 -5.79986463E-07
  1.49981596E-06  4.29290473E-06  1.08339349E-21  9.53512426E-09  1.47342885E-04
 -3.16619064E-04  2.52172588E-05 -4.46925377E-19  1.40001399E-05  6.70834576E-03
 -1.06834935E-02  3.83851378E-03 -2.28050842E-17 -7.98448501E-05 -1.77230643E-02
  2.52376012E-02  1.14687691E-02  2.84287531E-17 -6.07662001E-07 -1.78648806E-03
  3.11221029E-03 -8.89765658E-04  4.46044248E-19 -1.47133927E-11 -2.50884962E-05
  5.94489389E-05 -6.49124633E-06  1.45067854E-20  6.33318143E-05  3.17224253E-02
 -1.69692939E-03 -2.56136313E-06 -5.21966549E-03 -2.23405418E-01  1.63039590E-01
 -1.20379218E-03  3.35627945E-16  0.00000000E+00  0.00000000E+00  0.00000000E+00
  5.08390209E-01  0.00000000E+00 -1.59483194E-20  4.12848751E-20 -6.74945002E-22
  1.29522733E-05 -6.60321756E-23 -1.34687221E-18  2.89794620E-18  6.55630480E-19
  2.90547183E-04 -1.11800646E-19 -7.70702077E-17  1.23544064E-16  2.92563707E-17
  1.91053899E-02  2.71769438E-19 -9.88163520E-18  1.61055126E-17 -4.24822845E-18
  5.43774374E-02  3.09943593E-21  6.78841153E-18 -1.17776283E-17  5.91245120E-18
  2.01775655E-03  7.82884833E-26  9.43773373E-20 -2.23466452E-19  6.65587421E-20
  3.36462694E-05 -4.90548073E-19 -2.91101944E-16  7.22088055E-18  1.10769566E-20
  1.88968048E-17  1.27810956E-16 -1.15387921E-16  1.18519898E-16  4.98783559E-01
 -3.01175679E-16 -3.51551669E-15  0.00000000E+00  0.00000000E+00  1.52517063E+00
  8.25214546E-09  1.09238624E-04 -2.13101577E-04 -9.18459994E-05  3.82077252E-19
  3.14821684E-08  2.42795407E-04 -3.77445190E-04 -3.15438212E-04  4.58995271E-19
  7.41002873E-06  6.50216703E-03 -6.50042933E-03 -7.98459356E-03  1.35649217E-17
  4.60395986E-04  8.78402638E-02 -7.88551206E-02 -6.18407905E-02  4.30400656E-16
  1.20212954E-04  3.68087579E-02 -4.77668494E-02 -5.94148121E-03  2.50055428E-16
  5.09615505E-07  1.28604216E-03 -2.30159364E-03 -3.48130333E-04  7.17374696E-18
  2.20313620E-05  3.83150114E-03  6.22402168E-02  3.00341250E-04  6.06070781E-03
  4.11985261E-01 -6.63726328E-02 -2.86370337E-01  2.77831400E-15  5.97677370E-04
  1.04357239E-01  3.66144440E-02 -1.09252329E-01  3.45256550E-16  6.49524236E-01
  0.00000000E+00  6.15266383E-07 -1.65441250E-06 -3.57166386E-08 -8.04250010E-22
  2.96421194E-10  1.50701083E-05 -3.46367336E-05 -7.67865899E-06 -4.30884689E-20
  6.19543339E-07  1.44633585E-03 -2.53021757E-03 -5.76408236E-04 -4.01921841E-18
  5.98725785E-06  5.70859658E-03 -9.08216261E-03  1.09381498E-03 -4.15136823E-18
  2.75296310E-08  2.24108825E-04 -4.33200778E-04  1.43287118E-04  1.96755710E-19
  0.00000000E+00  2.36811496E-06 -5.92652307E-06  1.21379072E-06  1.17325343E-21
  4.11735687E-06  5.61493222E-03  2.88944704E-04  2.24615702E-07  5.97703511E-04
  1.04360259E-01 -1.08235984E-01  3.95256623E-02 -3.15766196E-17  6.06066137E-03
  4.11983864E-01 -2.88042333E-01 -5.86915045E-02 -1.21333046E-15  5.49449801E-02
  6.49524236E-01  3.23413217E-09  6.25166181E-05 -1.33356121E-04  3.12918524E-05
 -2.76648639E-19  8.08515685E-07  1.69771121E-03 -3.00807833E-03  8.29081144E-05
 -1.06816512E-17  1.38762862E-04  4.03390652E-02 -5.15311602E-02  7.62546063E-03
 -2.74613754E-16  9.51977999E-05  3.17361178E-02 -3.33227933E-02  2.60960833E-02
 -1.32491676E-16  3.79958617E-07  1.07806936E-03 -1.47963856E-03  1.31082687E-03
 -2.35033063E-18  2.21959425E-09  4.99618113E-05 -9.69409297E-05  5.36354377E-05
 -1.28119390E-19  7.82503782E-04  1.32323994E-01  3.84070600E-04  3.08985494E-06
  5.97677355E-04  1.04357237E-01 -3.66144434E-02  1.09252328E-01 -4.18135382E-16
  6.06070768E-03  4.11985257E-01  6.63726320E-02  2.86370336E-01 -3.12630156E-15
  1.77870150E-02  1.51838584E-01  6.49524236E-01  4.48709354E-09  2.69470031E-03
  4.36451331E-03  8.90840283E-04 -6.35676210E-18  0.00000000E+00  1.19457996E-04
  2.74330439E-04 -8.29770067E-05 -3.30015725E-20  0.00000000E+00  2.57602975E-07
  9.22131530E-07 -1.10997830E-07 -1.58176907E-22  0.00000000E+00  1.19862656E-08
  4.78749749E-08  9.76700034E-09 -3.26304269E-23  0.00000000E+00  2.57964788E-07
  8.06012991E-07  4.64009575E-07 -1.16084117E-21  0.00000000E+00  1.19542768E-04
  2.20023215E-04  1.83948137E-04 -4.99356322E-19  1.06471835E-04  2.26600805E-08
  2.26892047E-08  1.06491345E-04  0.00000000E+00  0.00000000E+00  0.00000000E+00
  0.00000000E+00  0.00000000E+00  0.00000000E+00  0.00000000E+00  0.00000000E+00
  0.00000000E+00  0.00000000E+00  0.00000000E+00  0.00000000E+00  0.00000000E+00
  3.10650896E-02  2.69470031E-03  2.76317723E-01  2.59318134E-01  5.29293929E-02
 -5.56552497E-16  1.19457996E-04  4.73943932E-02  6.34556326E-02 -1.91934897E-02
 -1.58945606E-16  2.57602975E-07  1.67907786E-03  3.25000803E-03 -3.91206487E-04
 -4.15797466E-18  1.19862656E-08  3.26437802E-04  6.97228699E-04  1.42242016E-04
 -3.48480812E-19  2.57964788E-07  1.68034073E-03  2.83892415E-03  1.63432600E-03
  1.91486271E-19  1.19542768E-04  4.74131521E-02  5.08786295E-02  4.25365528E-02
  1.19664484E-17  3.40726827E-02  1.99528209E-04  1.99681202E-04  3.40766503E-02
  0.00000000E+00  6.33037532E-07  1.81616467E-06  3.70564095E-07 -5.34230018E-22
  0.00000000E+00  0.00000000E+00  0.00000000E+00  0.00000000E+00  0.00000000E+00
  3.07198814E-07  0.00000000E+00  2.16969689E-07  2.63532865E-02  8.41350389E-01
 -4.36451331E-03 -2.59318134E-01 -1.66415383E-01 -5.83092076E-02  6.08016240E-16
 -2.74330439E-04 -6.34556326E-02 -7.29361951E-02  2.72330523E-02  2.29957371E-16
 -9.22131530E-07 -3.25000803E-03 -5.83998377E-03  7.68244525E-04  8.24319456E-18
 -4.78749749E-08 -6.97228699E-04 -1.39542253E-03 -3.05835228E-04  7.47784596E-19
 -8.06012991E-07 -2.83892415E-03 -4.32348581E-03 -2.80141288E-03 -4.09017547E-19
 -2.20023215E-04 -5.08786295E-02 -4.07533405E-02 -4.83728996E-02 -1.66013634E-17
 -3.42504659E-02 -3.93692332E-04 -3.18852203E-04 -2.00645749E-02  0.00000000E+00
 -1.81616467E-06 -5.01210710E-06 -1.06313668E-06  1.53268904E-21  0.00000000E+00
  0.00000000E+00  0.00000000E+00  0.00000000E+00  0.00000000E+00 -7.93749476E-07
  0.00000000E+00 -6.00696800E-07  0.00000000E+00  0.00000000E+00  5.08390209E-01
 -8.90840283E-04 -5.29293929E-02 -5.83092076E-02  1.07358710E-01  1.24102121E-16
  8.29770067E-05  1.91934897E-02  2.72330523E-02  8.86184164E-03 -6.95554399E-17
  1.10997830E-07  3.91206487E-04  7.68244525E-04  4.49851397E-04 -9.92240992E-19
 -9.76700034E-09 -1.42242016E-04 -3.05835228E-04  4.12985592E-05  1.52555953E-19
 -4.64009575E-07 -1.63432600E-03 -2.80141288E-03 -1.06999175E-03 -2.35465260E-19
 -1.83948137E-04 -4.25365528E-02 -4.83728996E-02 -2.33354292E-02 -1.38793984E-17
  2.92185274E-02  1.11290067E-04 -2.56814402E-04 -4.03068125E-02  0.00000000E+00
 -3.70564095E-07 -1.06313668E-06 -1.85068549E-08  3.12724685E-22  0.00000000E+00
  0.00000000E+00  0.00000000E+00  0.00000000E+00  0.00000000E+00 -2.96806502E-07
  0.00000000E+00  7.90852981E-08  0.00000000E+00  0.00000000E+00  0.00000000E+00
  5.08390209E-01 -1.41673263E-18 -4.60720247E-16 -4.96801450E-16 -1.01402084E-16
  3.57780586E-01 -7.74916588E-19 -2.29618324E-16 -3.27274566E-16  9.89910709E-17
  5.12971520E-02 -1.37613355E-21 -6.27387949E-18 -1.23513150E-17  1.48673927E-18
  1.62697711E-03  2.20095775E-23  5.37386176E-20  1.12416099E-19  2.29340710E-20
  3.11076524E-04  2.03334626E-21  5.73694646E-18  9.80685682E-18  5.64566020E-18
  1.62821874E-03  8.08070799E-19  1.36466128E-16  1.54006794E-16  1.28755790E-16
  5.13187016E-02 -2.52798988E-16 -1.12415947E-18  1.05877884E-18  1.59559259E-16
  0.00000000E+00  5.34230018E-22  1.53268904E-21  3.12724685E-22  5.95235866E-07
  0.00000000E+00  0.00000000E+00  0.00000000E+00  0.00000000E+00  0.00000000E+00
  9.73128750E-22  0.00000000E+00 -1.01919136E-21 -2.29736350E-16 -2.68163078E-15
  0.00000000E+00  0.00000000E+00  1.52517063E+00  0.00000000E+00  1.31805939E-04
  3.02700821E-04 -7.98448501E-05  4.57911371E-19  0.00000000E+00  3.82586451E-07
  1.21046533E-06 -6.07662001E-07  2.00622853E-21  0.00000000E+00  1.06552594E-11
  4.93992155E-11 -1.47133927E-11  5.63856079E-26  0.00000000E+00  0.00000000E+00
  0.00000000E+00  0.00000000E+00  0.00000000E+00  0.00000000E+00  1.05527185E-08
  4.21461143E-08  9.53512426E-09  1.08209173E-23  0.00000000E+00  2.18108381E-05
  5.91199160E-05  1.40001399E-05  2.95602393E-20  5.90452952E-07  0.00000000E+00
  4.18554347E-09  1.54590110E-04  0.00000000E+00  0.00000000E+00  0.00000000E+00
  0.00000000E+00  0.00000000E+00  0.00000000E+00  0.00000000E+00  0.00000000E+00
  0.00000000E+00  0.00000000E+00  0.00000000E+00  0.00000000E+00  0.00000000E+00
  2.15582755E-07  4.49713417E-03  5.08173190E-03 -5.21966549E-03  2.20576781E-17
  3.10650896E-02  1.31805939E-04  5.00693714E-02  6.71901333E-02 -1.77230643E-02
  7.62035261E-17  3.82586451E-07  2.07558443E-03  3.55869194E-03 -1.78648806E-03
  5.73625952E-19  1.06552594E-11  3.56265726E-05  8.42329203E-05 -2.50884962E-05
  2.06907263E-20  0.00000000E+00  1.37376978E-05  3.54764738E-05 -5.79986463E-07
  2.56203948E-20  1.05527185E-08  3.05030644E-04  6.51268921E-04  1.47342885E-04
  9.15348364E-19  2.18108381E-05  1.85156139E-02  2.83280625E-02  6.70834576E-03
  5.94948226E-17  1.40509271E-03  2.66185643E-06  7.28961130E-05  4.32265457E-02
  0.00000000E+00  0.00000000E+00  0.00000000E+00  0.00000000E+00  0.00000000E+00
  0.00000000E+00  0.00000000E+00  0.00000000E+00  0.00000000E+00  0.00000000E+00
  0.00000000E+00  0.00000000E+00  0.00000000E+00  4.49713417E-03  3.64763319E-01
  2.17501762E-01 -2.23405418E-01  4.24629464E-16  2.63532865E-02  8.41350389E-01
 -3.02700821E-04 -6.71901333E-02 -7.75527765E-02  2.52376012E-02 -1.07776605E-16
 -1.21046533E-06 -3.55869194E-03 -5.52695081E-03  3.11221029E-03 -8.88522067E-19
 -4.93992155E-11 -8.42329203E-05 -1.88380348E-04  5.94489389E-05 -4.87055457E-20
  0.00000000E+00 -3.54764738E-05 -8.74229612E-05  1.49981596E-06 -6.62687550E-20
 -4.21461143E-08 -6.51268921E-04 -1.30263593E-03 -3.16619064E-04 -1.97545071E-18
 -5.91199160E-05 -2.83280625E-02 -3.87458884E-02 -1.06834935E-02 -9.63015135E-17
 -1.87183414E-03 -6.26386975E-06 -1.45178534E-04 -4.52728399E-02  0.00000000E+00
  0.00000000E+00  0.00000000E+00  0.00000000E+00  0.00000000E+00  0.00000000E+00
  0.00000000E+00  0.00000000E+00  0.00000000E+00  0.00000000E+00  0.00000000E+00
  0.00000000E+00  0.00000000E+00 -5.08173190E-03 -2.17501762E-01  7.53003992E-03
  1.63039590E-01 -3.26758724E-16  0.00000000E+00  0.00000000E+00  5.08390209E-01
  7.98448501E-05  1.77230643E-02  2.52376012E-02  1.14687691E-02  2.84287531E-17
  6.07662001E-07  1.78648806E-03  3.11221029E-03 -8.89765658E-04  4.46044248E-19
  1.47133927E-11  2.50884962E-05  5.94489389E-05 -6.49124633E-06  1.45067854E-20
  0.00000000E+00  5.79986463E-07  1.49981596E-06  4.29290473E-06  1.08339349E-21
 -9.53512426E-09 -1.47342885E-04 -3.16619064E-04  2.52172588E-05 -4.46925377E-19
 -1.40001399E-05 -6.70834576E-03 -1.06834935E-02  3.83851378E-03 -2.28050842E-17
  1.69692939E-03  2.56136313E-06 -6.33318143E-05 -3.17224253E-02  0.00000000E+00
  0.00000000E+00  0.00000000E+00  0.00000000E+00  0.00000000E+00  0.00000000E+00
  0.00000000E+00  0.00000000E+00  0.00000000E+00  0.00000000E+00  0.00000000E+00
  0.00000000E+00  0.00000000E+00  5.21966549E-03  2.23405418E-01  1.63039590E-01
 -1.20379218E-03  3.35627945E-16  0.00000000E+00  0.00000000E+00  0.00000000E+00
  5.08390209E-01 -2.71769438E-19  9.88163520E-18  1.61055126E-17 -4.24822845E-18
  5.43774374E-02 -3.09943593E-21 -6.78841153E-18 -1.17776283E-17  5.91245120E-18
  2.01775655E-03 -7.82884833E-26 -9.43773373E-20 -2.23466452E-19  6.65587421E-20
  3.36462694E-05  0.00000000E+00  1.59483194E-20  4.12848751E-20 -6.74945002E-22
  1.29522733E-05  6.60321756E-23  1.34687221E-18  2.89794620E-18  6.55630480E-19
  2.90547183E-04  1.11800646E-19  7.70702077E-17  1.23544064E-16  2.92563707E-17
  1.91053899E-02 -7.22088055E-18 -1.10769566E-20  4.90548073E-19  2.91101944E-16
  0.00000000E+00  0.00000000E+00  0.00000000E+00  0.00000000E+00  0.00000000E+00
  0.00000000E+00  0.00000000E+00  0.00000000E+00  0.00000000E+00  0.00000000E+00
  0.00000000E+00  0.00000000E+00  0.00000000E+00 -1.88968048E-17 -1.27810956E-16
 -1.15387921E-16  1.18519898E-16  4.98783559E-01  3.01175679E-16  3.51551669E-15
  0.00000000E+00  0.00000000E+00  1.52517063E+00  4.60395986E-04  8.78402638E-02
  7.88551206E-02  6.18407905E-02 -4.30400656E-16  1.20212954E-04  3.68087579E-02
  4.77668494E-02  5.94148121E-03 -2.50055428E-16  5.09615505E-07  1.28604216E-03
  2.30159364E-03  3.48130333E-04 -7.17374696E-18  8.25214546E-09  1.09238624E-04
  2.13101577E-04  9.18459994E-05 -3.82077252E-19  3.14821684E-08  2.42795407E-04
  3.77445190E-04  3.15438212E-04 -4.58995271E-19  7.41002873E-06  6.50216703E-03
  6.50042933E-03  7.98459356E-03 -1.35649217E-17  6.22402168E-02  3.00341250E-04
  2.20313620E-05  3.83150114E-03  0.00000000E+00  3.07198814E-07  7.93749476E-07
  2.96806502E-07 -9.73128750E-22  0.00000000E+00  0.00000000E+00  0.00000000E+00
  0.00000000E+00  0.00000000E+00  8.27889881E-08  0.00000000E+00  4.19724818E-07
  6.06070781E-03  4.11985261E-01  6.63726328E-02  2.86370337E-01 -2.77831400E-15
  5.97677370E-04  1.04357239E-01 -3.66144440E-02  1.09252329E-01 -3.45256550E-16
  6.49524236E-01  5.98725785E-06  5.70859658E-03  9.08216261E-03 -1.09381498E-03
  4.15136823E-18  2.75296310E-08  2.24108825E-04  4.33200778E-04 -1.43287118E-04
 -1.96755710E-19  0.00000000E+00  2.36811496E-06  5.92652307E-06 -1.21379072E-06
 -1.17325343E-21  0.00000000E+00  6.15266383E-07  1.65441250E-06  3.57166386E-08
  8.04250010E-22  2.96421194E-10  1.50701083E-05  3.46367336E-05  7.67865899E-06
  4.30884689E-20  6.19543339E-07  1.44633585E-03  2.53021757E-03  5.76408236E-04
  4.01921841E-18  2.88944704E-04  2.24615702E-07  4.11735687E-06  5.61493222E-03
  0.00000000E+00  0.00000000E+00  0.00000000E+00  0.00000000E+00  0.00000000E+00
  0.00000000E+00  0.00000000E+00  0.00000000E+00  0.00000000E+00  0.00000000E+00
  0.00000000E+00  0.00000000E+00  0.00000000E+00  5.97703511E-04  1.04360259E-01
  1.08235984E-01 -3.95256623E-02  3.15766196E-17  6.06066137E-03  4.11983864E-01
  2.88042333E-01  5.86915045E-02  1.21333046E-15  5.49449801E-02  6.49524236E-01
  9.51977999E-05  3.17361178E-02  3.33227933E-02 -2.60960833E-02  1.32491676E-16
  3.79958617E-07  1.07806936E-03  1.47963856E-03 -1.31082687E-03  2.35033063E-18
  2.21959425E-09  4.99618113E-05  9.69409297E-05 -5.36354377E-05  1.28119390E-19
  3.23413217E-09  6.25166181E-05  1.33356121E-04 -3.12918524E-05  2.76648639E-19
  8.08515685E-07  1.69771121E-03  3.00807833E-03 -8.29081144E-05  1.06816512E-17
  1.38762862E-04  4.03390652E-02  5.15311602E-02 -7.62546063E-03  2.74613754E-16
  3.84070600E-04  3.08985494E-06  7.82503782E-04  1.32323994E-01  0.00000000E+00
  2.16969689E-07  6.00696800E-07 -7.90852981E-08  1.01919136E-21  0.00000000E+00
  0.00000000E+00  0.00000000E+00  0.00000000E+00  0.00000000E+00  4.19724818E-07
  0.00000000E+00  0.00000000E+00  5.97677355E-04  1.04357237E-01  3.66144434E-02
 -1.09252328E-01  4.18135382E-16  6.06070768E-03  4.11985257E-01 -6.63726320E-02
 -2.86370336E-01  3.12630156E-15  1.77870150E-02  1.51838584E-01  6.49524236E-01
Number of independent functions            I               60
Alpha MO coefficients                      R   N=        3600
 -6.98965714E-01 -3.18977337E-02  1.38345235E-03  2.79228821E-04  1.71216061E-16
  1.97916040E-02  8.16034630E-03  2.67803843E-03 -3.56138809E-03  3.23368694E-17
 -1.83463416E-02 -8.11471602E-03  1.06028972E-03  4.31960064E-03 -2.27628177E-16
  6.98965714E-01  3.18977337E-02  1.38345235E-03  2.79228821E-04 -9.41375951E-18
 -1.97916040E-02 -8.16034630E-03  2.67803843E-03 -3.56138809E-03  6.74067659E-17
  1.83463416E-02  8.11471602E-03  1.06028972E-03  4.31960064E-03  1.44943257E-16
 -3.50379933E-04  3.52638273E-04  3.50379933E-04 -3.52638273E-04 -3.38555949E-02
 -6.59106913E-03 -3.79195631E-03 -8.85376431E-04  1.66817783E-16 -3.59675302E-05
  5.52376778E-04  3.08315300E-04 -5.96471502E-05  8.47966214E-17  3.78053781E-04
 -3.08594893E-05 -1.49017519E-04  3.38555949E-02  6.59106913E-03 -3.79195631E-03
 -8.85376431E-04 -8.83013239E-17  3.59675297E-05 -5.52376778E-04  3.08315299E-04
 -5.96471502E-05  2.34015073E-16 -3.78053781E-04  3.08594893E-05  1.49017519E-04
  6.98909146E-01  3.16729911E-02 -1.03540425E-03 -2.06644776E-04 -1.16818358E-16
 -2.10638556E-02 -7.29124167E-03 -3.07554338E-03  3.40396080E-03  3.08030751E-17
 -1.94440277E-02 -7.20975774E-03  1.50570730E-03  4.33314739E-03  9.35148348E-17
  6.98909146E-01  3.16729911E-02  1.03540425E-03  2.06644776E-04  4.65745220E-17
 -2.10638556E-02 -7.29124167E-03  3.07554338E-03 -3.40396080E-03 -1.04219701E-17
 -1.94440277E-02 -7.20975774E-03 -1.50570730E-03 -4.33314739E-03 -2.23407910E-16
  2.16050920E-04  2.14921280E-04  2.16050920E-04  2.14921280E-04 -3.45070533E-02
 -6.68802140E-03 -3.84138490E-03 -8.96216770E-04 -1.05531577E-16 -2.14401262E-05
  5.58942559E-04  3.18173386E-04 -6.28737971E-05 -8.84721491E-17  3.92359260E-04
 -2.97202748E-05 -1.36359354E-04 -3.45070533E-02 -6.68802140E-03  3.84138490E-03
  8.96216770E-04  1.70801926E-16 -2.14401257E-05  5.58942559E-04 -3.18173386E-04
  6.28737971E-05 -1.78319900E-16  3.92359260E-04 -2.97202748E-05 -1.36359354E-04
 -3.42586700E-02  3.37688475E-03  4.08257091E-03  6.65166443E-04  2.95219251E-16
  1.39437910E-02  8.67231492E-04 -2.31917721E-05 -2.09048649E-04 -1.19058607E-16
 -9.26418616E-03 -6.57309705E-04 -1.06840091E-04  1.62398987E-04 -2.94792071E-16
  3.42586698E-02 -3.37688473E-03  4.08257089E-03  6.65166438E-04  2.12489371E-16
 -1.39437908E-02 -8.67231485E-04 -2.31917724E-05 -2.09048647E-04 -5.38017853E-18
  9.26418622E-03  6.57309707E-04 -1.06840090E-04  1.62398989E-04 -1.16228663E-16
 -1.05792287E-04 -3.52971198E-05  1.05792286E-04  3.52971203E-05  6.99501525E-01
  3.06123464E-02 -1.34780605E-03  1.04756758E-03  3.96772116E-16 -5.56851364E-03
 -7.78971987E-03 -3.22535653E-03  3.35576813E-03 -2.01174980E-16 -6.36593346E-03
  2.02758123E-04  1.70784136E-04 -6.99501530E-01 -3.06123466E-02 -1.34780606E-03
  1.04756759E-03 -1.07394553E-16  5.56851368E-03  7.78971992E-03 -3.22535655E-03
  3.35576815E-03 -3.16860930E-16  6.36593351E-03 -2.02758125E-04 -1.70784137E-04
  3.46803118E-02 -3.31442063E-03 -4.04691014E-03 -6.23190475E-04 -1.15771804E-16
 -2.00299422E-02 -1.02537922E-03 -4.95383735E-05  2.80071769E-04  9.39914337E-17
 -9.54608286E-03 -3.78603491E-04  5.51078757E-05  2.66941519E-04  2.55656840E-16
  3.46803121E-02 -3.31442065E-03  4.04691017E-03  6.23190480E-04 -2.01701159E-16
 -2.00299423E-02 -1.02537923E-03  4.95383734E-05 -2.80071771E-04  2.10232724E-16
 -9.54608279E-03 -3.78603486E-04 -5.51078765E-05 -2.66941518E-04  1.17161719E-16
  1.35849592E-04 -6.45703854E-05  1.35849593E-04 -6.45703852E-05  6.99330873E-01
  3.05864566E-02 -1.36053666E-03  1.04557544E-03  5.26974337E-17 -5.55864571E-03
 -7.78687521E-03 -3.22219946E-03  3.35540360E-03 -1.12659662E-16 -6.36249442E-03
  2.03105805E-04  1.72928010E-04  6.99330868E-01  3.05864564E-02  1.36053665E-03
 -1.04557543E-03  2.49534697E-16 -5.55864567E-03 -7.78687515E-03  3.22219944E-03
 -3.35540357E-03 -1.65284211E-16 -6.36249438E-03  2.03105804E-04  1.72928009E-04
 -2.64256801E-02  7.77562826E-03 -3.28861052E-03  1.82345262E-03 -9.42317156E-17
 -6.66493019E-01 -3.19438278E-02  1.81430167E-03  1.44390165E-03 -1.62393221E-17
  2.12406966E-01  1.60148770E-02  4.51843415E-03  5.10656329E-04  2.04487266E-17
  2.64256801E-02 -7.77562826E-03 -3.28861052E-03  1.82345262E-03 -4.79164471E-17
  6.66493020E-01  3.19438279E-02  1.81430167E-03  1.44390165E-03  3.05274811E-16
 -2.12406966E-01 -1.60148771E-02  4.51843415E-03  5.10656329E-04 -1.34051175E-16
  6.03991073E-03 -2.09584427E-03 -6.03991073E-03  2.09584428E-03  1.49140751E-02
  8.04072741E-04 -4.59522721E-05  5.11264361E-05 -1.12732279E-16 -7.57484413E-04
 -2.85530418E-04 -1.39040894E-04  6.34520187E-05 -2.33355465E-16 -1.92521056E-04
 -2.57366909E-06  1.01319597E-04 -1.49140750E-02 -8.04072740E-04 -4.59522720E-05
  5.11264361E-05 -3.01126667E-16  7.57484413E-04  2.85530418E-04 -1.39040894E-04
  6.34520186E-05  2.01025098E-16  1.92521056E-04  2.57366909E-06 -1.01319598E-04
 -1.43610923E-02  3.32174680E-03 -2.20598061E-03  4.65090753E-03  7.28878594E-17
 -6.56361456E-01 -3.15434968E-02  1.86596255E-03  1.16392197E-03 -1.59134592E-16
  2.42820079E-01  1.71116890E-02  4.33860040E-03  4.53715406E-04 -5.93785812E-17
 -1.43610923E-02  3.32174679E-03  2.20598061E-03 -4.65090753E-03  7.97203539E-17
 -6.56361456E-01 -3.15434968E-02 -1.86596255E-03 -1.16392197E-03 -2.58612399E-17
  2.42820078E-01  1.71116890E-02 -4.33860039E-03 -4.53715406E-04 -8.78411052E-17
  6.00721795E-03 -2.27745421E-03  6.00721795E-03 -2.27745420E-03 -1.48363812E-02
 -6.44080731E-04  8.96911406E-05  3.84890905E-05 -1.00796756E-16  2.18551045E-04
  1.81794828E-04  1.02033655E-04 -1.00375492E-04 -3.72081828E-16  1.61609830E-04
 -2.33884030E-06  1.11347699E-04 -1.48363813E-02 -6.44080732E-04 -8.96911406E-05
 -3.84890904E-05 -3.09951018E-16  2.18551046E-04  1.81794828E-04 -1.02033655E-04
  1.00375492E-04  5.15945110E-17  1.61609830E-04 -2.33884030E-06  1.11347699E-04
 -1.22906236E-02  4.04838410E-03 -5.13646630E-04 -4.95646079E-03 -1.19838978E-16
  2.13948344E-01  3.08304906E-03  4.05422066E-03  5.76159725E-04 -5.36499888E-19
  6.67105246E-01  2.78493398E-02 -4.78529668E-04 -1.12582950E-03 -4.27694528E-17
  1.22906236E-02 -4.04838410E-03 -5.13646631E-04 -4.95646079E-03  2.55115943E-17
 -2.13948344E-01 -3.08304906E-03  4.05422065E-03  5.76159725E-04  3.56823284E-17
 -6.67105246E-01 -2.78493398E-02 -4.78529668E-04 -1.12582950E-03  7.58548368E-17
 -1.74539403E-03 -5.96323746E-03  1.74539403E-03  5.96323746E-03  4.02103376E-03
  2.63034664E-04  9.96377303E-06 -7.35898261E-06 -2.41715583E-16 -1.24827915E-03
 -1.74045794E-04 -1.09611987E-04 -5.91024295E-05  3.82541090E-17 -6.75131927E-05
 -2.23061110E-05  2.34761909E-04 -4.02103376E-03 -2.63034664E-04  9.96377306E-06
 -7.35898262E-06 -2.33798246E-17  1.24827915E-03  1.74045794E-04 -1.09611987E-04
 -5.91024295E-05  7.70528533E-17  6.75131927E-05  2.23061110E-05 -2.34761908E-04
  2.75911293E-02 -7.26715599E-03  2.26128885E-03  2.81522155E-03 -1.22105628E-16
  2.42868212E-01  4.53622543E-03  3.90765263E-03  6.76515049E-04  7.74335992E-17
  6.56662100E-01  2.69426241E-02 -8.62477925E-04 -8.54301040E-04  2.04098522E-16
  2.75911293E-02 -7.26715599E-03 -2.26128885E-03 -2.81522155E-03 -3.27390324E-17
  2.42868212E-01  4.53622543E-03 -3.90765263E-03 -6.76515049E-04  1.02794164E-16
  6.56662101E-01  2.69426241E-02  8.62477925E-04  8.54301040E-04 -4.56783667E-17
 -2.16742559E-03 -6.00375503E-03 -2.16742559E-03 -6.00375503E-03  1.46441264E-02
  6.64811386E-04 -1.69914771E-04  4.49276037E-05  2.94580367E-17 -1.66798856E-03
 -3.66043492E-04 -2.03206960E-04  1.28312296E-05 -7.13480334E-17 -2.28500713E-04
 -2.03956156E-05  2.35189293E-04  1.46441264E-02  6.64811386E-04  1.69914771E-04
 -4.49276037E-05 -3.06205617E-17 -1.66798856E-03 -3.66043492E-04  2.03206960E-04
 -1.28312296E-05  1.08827322E-16 -2.28500713E-04 -2.03956156E-05  2.35189293E-04
  3.67176700E-04  1.97482187E-04  4.61859878E-05  4.55846478E-05 -4.63196575E-17
  2.36254233E-04 -1.56376772E-06 -1.03945543E-04  1.08236022E-05 -5.57196121E-17
 -1.38190315E-03  1.42648241E-05 -1.66271345E-04 -1.60997699E-06  9.50034908E-17
 -3.67176639E-04 -1.97482155E-04  4.61859804E-05  4.55846406E-05 -3.94250925E-16
 -2.36254127E-04  1.56375128E-06 -1.03945540E-04  1.08235966E-05 -1.77216556E-16
  1.38190338E-03 -1.42648295E-05 -1.66271370E-04 -1.60997638E-06 -1.01897940E-16
 -1.13932966E-05 -1.63453589E-04  1.13932935E-05  1.63453616E-04 -6.41816012E-03
  7.25554949E-03 -3.20264368E-03  3.31773458E-03  3.56387287E-16 -7.00486809E-01
 -3.10941868E-02 -1.00836058E-03  1.02109279E-03  1.40330318E-16 -8.63366223E-05
  6.34172491E-03  6.36327336E-03  6.41816117E-03 -7.25555068E-03 -3.20264420E-03
  3.31773512E-03 -3.04866647E-16  7.00486924E-01  3.10941919E-02 -1.00836075E-03
  1.02109295E-03  1.75234242E-16  8.63366364E-05 -6.34172595E-03 -6.36327440E-03
 -3.75441425E-04 -1.96412744E-04 -4.45255102E-05 -4.38325505E-05  1.11751779E-16
 -6.44425976E-04  1.00297132E-04  2.02826571E-05 -3.42941712E-05 -6.29424220E-17
 -1.45150860E-03  3.35180930E-05 -1.50631343E-04  3.69813846E-06  2.89141625E-17
 -3.75441486E-04 -1.96412777E-04  4.45255177E-05  4.38325579E-05 -1.58417302E-16
 -6.44426015E-04  1.00297133E-04 -2.02826742E-05  3.42941730E-05 -1.33595726E-16
 -1.45150837E-03  3.35180907E-05  1.50631316E-04 -3.69813873E-06 -1.24875747E-17
  1.86745648E-05 -1.63348888E-04  1.86745667E-05 -1.63348861E-04 -6.42392921E-03
  7.25536365E-03 -3.20201942E-03  3.31716461E-03  7.97955097E-17 -7.00486533E-01
 -3.10937615E-02 -1.00803831E-03  1.02095025E-03  2.97790231E-16 -8.58927488E-05
  6.34174758E-03  6.36338607E-03 -6.42392815E-03  7.25536246E-03  3.20201889E-03
 -3.31716407E-03 -3.06489041E-16 -7.00486418E-01 -3.10937564E-02  1.00803814E-03
 -1.02095008E-03 -1.88594530E-16 -8.58927346E-05  6.34174654E-03  6.36338503E-03
 -1.08167388E-01  2.71073953E-01 -4.91942006E-02 -1.06752015E-02  4.85677684E-17
 -9.90817604E-02  2.46945469E-01 -1.38220295E-02 -5.89845790E-02  3.08751400E-17
 -9.96184523E-02  2.48119900E-01  3.48708397E-02 -4.89356426E-02 -3.58729297E-17
 -1.08167388E-01  2.71073953E-01  4.91942006E-02  1.06752015E-02  5.24325484E-17
 -9.90817604E-02  2.46945469E-01  1.38220295E-02  5.89845790E-02 -1.75217813E-16
 -9.96184523E-02  2.48119900E-01 -3.48708397E-02  4.89356426E-02 -1.09118548E-16
  4.32525479E-02  4.43978050E-02  4.32525479E-02  4.43978050E-02 -4.36228718E-02
  1.11971301E-01  2.45908010E-02  1.39294544E-02  3.22313340E-16 -2.29792802E-02
  5.74246336E-02  1.89155822E-02 -1.17059224E-02  4.27873978E-17  2.18881353E-02
  9.33513338E-03  1.36291078E-02 -4.36228718E-02  1.11971301E-01 -2.45908010E-02
 -1.39294544E-02  1.87899954E-16 -2.29792802E-02  5.74246336E-02 -1.89155822E-02
  1.17059224E-02  3.26411572E-16  2.18881353E-02  9.33513338E-03  1.36291078E-02
  1.01897816E-01 -2.67302423E-01 -2.61294894E-02  3.97956108E-03  5.87685112E-17
  3.61432040E-02 -9.40434130E-02 -6.23425612E-02  2.74704130E-02  6.68941050E-18
 -4.87811458E-02  1.26880412E-01 -4.57865986E-02 -4.85815102E-02  1.66947888E-16
 -1.01897816E-01  2.67302423E-01 -2.61294894E-02  3.97956108E-03 -1.04166672E-16
 -3.61432040E-02  9.40434130E-02 -6.23425612E-02  2.74704130E-02 -2.32481067E-16
  4.87811458E-02 -1.26880412E-01 -4.57865986E-02 -4.85815102E-02  1.23676139E-16
 -2.42076119E-02  3.52717259E-02  2.42076119E-02 -3.52717259E-02 -1.11273129E-01
  2.89951862E-01  1.81343605E-03  4.17418801E-02 -7.37725101E-18 -8.43663185E-02
  2.16687084E-01  5.06731414E-02 -4.04951241E-02  4.32065122E-16  6.45232985E-02
  4.45169179E-02  5.15551860E-02  1.11273129E-01 -2.89951862E-01  1.81343605E-03
  4.17418801E-02 -2.14041475E-17  8.43663185E-02 -2.16687084E-01  5.06731414E-02
 -4.04951241E-02 -1.93722335E-16 -6.45232985E-02 -4.45169179E-02 -5.15551860E-02
  3.59999620E-03 -1.30309405E-02 -9.08997603E-02 -6.81493462E-03  1.80013821E-16
 -4.32813227E-02  1.11931788E-01 -3.21620139E-02 -1.83497078E-02  6.83743038E-17
 -3.50758696E-02  9.04948971E-02  4.87462723E-02 -1.66167471E-03 -6.91015836E-17
  3.59999620E-03 -1.30309405E-02  9.08997603E-02  6.81493462E-03  3.39526042E-17
 -4.32813227E-02  1.11931788E-01  3.21620139E-02  1.83497078E-02  1.04376626E-17
 -3.50758696E-02  9.04948971E-02 -4.87462723E-02  1.66167471E-03  4.58979336E-17
  2.11681374E-02  9.56907592E-03  2.11681374E-02  9.56907592E-03  1.20320562E-01
 -3.16248541E-01  5.89156857E-02 -5.48178504E-02  1.46101449E-16  1.20802431E-01
 -3.15923814E-01 -5.37043743E-02  5.40694176E-02 -6.30824810E-16 -7.53961113E-02
 -7.46198265E-02 -7.57784603E-02  1.20320562E-01 -3.16248541E-01 -5.89156857E-02
  5.48178504E-02  3.71740408E-16  1.20802431E-01 -3.15923814E-01  5.37043743E-02
 -5.40694176E-02  2.42418247E-16 -7.53961113E-02 -7.46198265E-02 -7.57784603E-02
  1.91017967E-02 -5.12564582E-02  3.03739776E-02 -1.30125263E-01  4.42447056E-16
  1.35697618E-01 -3.62759779E-01  5.05987838E-02  5.82146517E-03 -1.60129276E-16
  1.16832715E-01 -3.11922974E-01 -6.80794564E-02 -3.66037129E-02 -1.26396423E-16
 -1.91017967E-02  5.12564582E-02  3.03739776E-02 -1.30125263E-01  5.62857081E-16
 -1.35697618E-01  3.62759779E-01  5.05987838E-02  5.82146517E-03  6.82528521E-16
 -1.16832715E-01  3.11922974E-01 -6.80794564E-02 -3.66037129E-02  7.08588980E-16
 -9.77675313E-02 -8.56303736E-02  9.77675313E-02  8.56303736E-02 -2.98614377E-03
  9.53478678E-03  1.79203598E-02 -2.16205694E-02 -1.05999879E-15  1.25690419E-02
 -3.25154572E-02 -5.83021307E-03 -3.04684647E-03 -7.24968664E-16  1.13549743E-02
 -7.39703310E-03 -1.48038974E-02  2.98614377E-03 -9.53478678E-03  1.79203598E-02
 -2.16205694E-02 -1.24429536E-16 -1.25690419E-02  3.25154572E-02 -5.83021307E-03
 -3.04684647E-03 -8.83362846E-16 -1.13549743E-02  7.39703310E-03  1.48038974E-02
 -1.02143067E-01  2.78173815E-01 -5.97618481E-02 -2.47520501E-02  1.29075501E-16
 -3.98982715E-02  1.09286766E-01  9.66896680E-02 -3.85931298E-02  8.88386115E-17
  7.77114582E-02 -2.12445077E-01  4.32699557E-02  6.10979197E-02 -2.54924360E-16
  1.02143067E-01 -2.78173815E-01 -5.97618481E-02 -2.47520501E-02  8.04832667E-17
  3.98982715E-02 -1.09286766E-01  9.66896680E-02 -3.85931298E-02  2.47344036E-16
 -7.77114582E-02  2.12445077E-01  4.32699557E-02  6.10979197E-02  8.45277219E-17
  3.03085800E-02 -5.36816428E-02 -3.03085800E-02  5.36816428E-02 -5.57428414E-02
  1.46693734E-01 -1.20758576E-01  4.38763903E-02 -2.41592474E-16 -1.07718722E-01
  2.90631412E-01  1.63690759E-02 -3.88124057E-02 -3.59784383E-16  3.91154507E-02
  8.56409613E-02  7.23360212E-02  5.57428414E-02 -1.46693734E-01 -1.20758576E-01
  4.38763903E-02 -8.03897425E-16  1.07718722E-01 -2.90631412E-01  1.63690759E-02
 -3.88124057E-02 -1.50273069E-16 -3.91154507E-02 -8.56409613E-02 -7.23360212E-02
  6.22010837E-02 -1.81644575E-01 -4.76407978E-02 -1.51966402E-01  3.38883848E-16
  2.19773214E-02 -6.37450164E-02 -1.70063713E-01  2.13727618E-02 -1.37227142E-16
 -9.04950710E-02  2.57852049E-01 -6.68693960E-03  5.74649667E-02 -2.23295080E-16
  6.22010837E-02 -1.81644575E-01  4.76407978E-02  1.51966402E-01 -1.19449125E-16
  2.19773214E-02 -6.37450164E-02  1.70063713E-01 -2.13727618E-02  5.10998702E-16
 -9.04950710E-02  2.57852049E-01  6.68693960E-03 -5.74649667E-02  5.06229790E-16
 -4.17118835E-02  1.23788866E-01 -4.17118835E-02  1.23788866E-01  5.46796063E-02
 -1.65879211E-01 -9.93034899E-02  8.95333497E-02 -6.10740307E-16 -7.00509700E-02
  2.01967290E-01 -3.01731046E-02  4.71979543E-02 -8.99759563E-16 -9.16388264E-02
  8.09785404E-02  9.96067863E-02  5.46796063E-02 -1.65879211E-01  9.93034899E-02
 -8.95333497E-02  7.72716558E-17 -7.00509700E-02  2.01967290E-01  3.01731046E-02
 -4.71979543E-02 -1.79969057E-16 -9.16388264E-02  8.09785404E-02  9.96067863E-02
  6.45502847E-02 -1.89951227E-01 -7.59167857E-02  1.67799108E-01 -4.48769390E-16
 -1.08737299E-01  3.18123604E-01  3.99567626E-03  8.58285180E-02 -3.24411592E-16
  4.30938104E-02 -1.26328371E-01  1.68307764E-01  1.13958587E-01 -2.21631361E-16
  6.45502847E-02 -1.89951227E-01  7.59167857E-02 -1.67799108E-01  3.88103980E-16
 -1.08737299E-01  3.18123604E-01 -3.99567626E-03 -8.58285180E-02  1.46662616E-16
  4.30938104E-02 -1.26328371E-01 -1.68307764E-01 -1.13958587E-01  6.81079313E-17
  1.61934794E-01 -5.81293570E-02  1.61934794E-01 -5.81293570E-02  1.47686696E-02
 -4.71069816E-02 -9.38736444E-02 -2.37110469E-02 -2.99483422E-16 -5.14760279E-02
  1.53307668E-01 -5.87727710E-02 -4.07909799E-03 -2.29812383E-16  1.29051213E-02
  8.53794641E-02  3.89077755E-02  1.47686696E-02 -4.71069816E-02  9.38736444E-02
  2.37110469E-02 -5.68890519E-16 -5.14760279E-02  1.53307668E-01  5.87727710E-02
  4.07909799E-03 -6.85159857E-16  1.29051213E-02  8.53794641E-02  3.89077755E-02
  1.02736491E-02 -2.60809641E-02  1.18841646E-01  4.98139400E-02 -3.43507748E-16
  4.60594661E-02 -1.39523367E-01  2.64646574E-03  6.63218022E-03 -2.50979154E-16
 -2.47094084E-02  7.44407130E-02 -7.44323503E-02 -3.20780896E-02 -3.28807137E-17
 -1.02736491E-02  2.60809641E-02  1.18841646E-01  4.98139400E-02  2.78920599E-16
 -4.60594661E-02  1.39523367E-01  2.64646574E-03  6.63218022E-03  6.48271357E-16
  2.47094084E-02 -7.44407130E-02 -7.44323503E-02 -3.20780896E-02  5.74804734E-16
 -4.29040511E-02  5.57861955E-02  4.29040511E-02 -5.57861955E-02  1.00043421E-01
 -3.06802977E-01 -3.19584035E-02  1.23269416E-01 -1.94053741E-17 -8.04877615E-02
  2.47878335E-01 -8.38676362E-02  1.35319220E-01 -4.04926947E-16 -1.79575595E-01
  1.25192402E-01  1.65509878E-01 -1.00043421E-01  3.06802977E-01 -3.19584035E-02
  1.23269416E-01 -8.67356849E-16  8.04877615E-02 -2.47878335E-01 -8.38676362E-02
  1.35319220E-01 -4.34791924E-16  1.79575595E-01 -1.25192402E-01 -1.65509878E-01
  5.13088568E-02 -1.48252424E-01  1.43627215E-01 -1.73388882E-02 -6.75878496E-17
 -9.34010898E-03  3.49398166E-02 -9.02524735E-02  1.83680447E-01 -6.19736153E-16
 -5.28464449E-02  1.68315210E-01 -4.59334285E-02  1.95679590E-01 -5.77090259E-16
  5.13088568E-02 -1.48252424E-01 -1.43627215E-01  1.73388882E-02 -1.25568849E-16
 -9.34010898E-03  3.49398166E-02  9.02524735E-02 -1.83680447E-01  3.27639407E-16
 -5.28464449E-02  1.68315210E-01  4.59334285E-02 -1.95679590E-01  2.17250820E-16
  1.02938167E-01  1.65113410E-01  1.02938167E-01  1.65113410E-01 -5.92132778E-02
  1.81022556E-01  8.05428033E-03 -6.83214272E-02 -9.82888076E-16  5.50272284E-02
 -1.73152114E-01  8.19963304E-02 -7.73853991E-02 -5.19934148E-16  1.14258292E-01
 -1.05769054E-01 -8.92982464E-02 -5.92132778E-02  1.81022556E-01 -8.05428033E-03
  6.83214272E-02 -2.77856408E-16  5.50272284E-02 -1.73152114E-01 -8.19963304E-02
  7.73853991E-02 -1.11279132E-15  1.14258292E-01 -1.05769054E-01 -8.92982464E-02
 -3.66658271E-02  1.20846094E-01  1.25751346E-01  6.36123370E-02 -4.50644502E-16
 -1.33822435E-02  5.25087494E-02  1.56021577E-01  1.30812114E-01 -6.70392817E-16
  2.26015934E-02 -6.30066104E-02 -1.50199071E-01  6.99158256E-02 -4.52408032E-16
 -3.66658271E-02  1.20846094E-01 -1.25751346E-01 -6.36123370E-02  3.83677335E-16
 -1.33822435E-02  5.25087494E-02 -1.56021577E-01 -1.30812114E-01  1.79762362E-15
  2.26015934E-02 -6.30066104E-02  1.50199071E-01 -6.99158256E-02  1.65462433E-15
  1.31978873E-01  9.11791869E-02  1.31978873E-01  9.11791869E-02  4.25043597E-02
 -1.32479355E-01  1.82802934E-01  1.05046831E-01 -2.14974484E-15 -1.43373193E-02
  5.46247559E-02  2.29814079E-02  2.06691026E-01 -2.19140235E-15 -1.48349091E-01
 -2.01652382E-02  1.74027596E-01  4.25043597E-02 -1.32479355E-01 -1.82802934E-01
 -1.05046831E-01 -1.36400863E-15 -1.43373193E-02  5.46247559E-02 -2.29814079E-02
 -2.06691026E-01 -1.35316888E-15 -1.48349091E-01 -2.01652382E-02  1.74027596E-01
 -1.11731621E-02  4.06964069E-02  1.30837000E-01 -1.45278219E-01  1.77408659E-15
  1.38385401E-02 -4.56755687E-02 -2.01325255E-01  7.92186041E-03  8.82278691E-16
 -3.53006978E-02  1.15081042E-01  1.29999376E-01  9.95898933E-02  8.21548937E-16
  1.11731621E-02 -4.06964069E-02  1.30837000E-01 -1.45278219E-01  1.81525202E-15
 -1.38385401E-02  4.56755687E-02 -2.01325255E-01  7.92186041E-03  1.77121104E-15
  3.53006978E-02 -1.15081042E-01  1.29999376E-01  9.95898933E-02  1.15606879E-15
 -6.79171663E-02  3.19228563E-02  6.79171663E-02 -3.19228563E-02  1.90226361E-02
 -5.59063004E-02 -7.51719457E-02 -2.17528375E-01  1.58232311E-15 -1.22608564E-02
  4.86706965E-02 -2.36402159E-01 -4.16139974E-02  1.00114866E-15  1.44478546E-01
  1.92700851E-01 -4.65934070E-02 -1.90226361E-02  5.59063004E-02 -7.51719457E-02
 -2.17528375E-01  2.25340266E-15  1.22608564E-02 -4.86706965E-02 -2.36402159E-01
 -4.16139974E-02  2.03326843E-15 -1.44478546E-01 -1.92700851E-01  4.65934070E-02
 -7.48112364E-02  2.51855510E-01 -6.85695001E-02  4.17187606E-05  2.45566103E-15
  4.42394726E-02 -1.54331641E-01 -2.03858383E-03 -2.22137580E-01  2.64774827E-15
 -4.09248070E-02  1.43869261E-01 -1.38811972E-01  1.96828579E-01  1.97608764E-15
  7.48112364E-02 -2.51855510E-01 -6.85695001E-02  4.17187606E-05  2.18233383E-15
 -4.42394726E-02  1.54331641E-01 -2.03858383E-03 -2.22137580E-01  3.07573184E-15
  4.09248070E-02 -1.43869261E-01 -1.38811972E-01  1.96828579E-01  3.04142289E-15
 -2.42247939E-01  2.65314821E-01  2.42247939E-01 -2.65314821E-01 -1.12104578E-02
  3.17706548E-02 -4.70479072E-02 -1.64592981E-02 -1.36629141E-15  1.31247506E-02
 -4.73503261E-02  9.95186250E-02  1.08265010E-02 -1.87961966E-15  5.25391365E-02
 -9.94967083E-02  3.77871177E-02  1.12104578E-02 -3.17706548E-02 -4.70479072E-02
 -1.64592981E-02 -2.19097150E-16 -1.31247506E-02  4.73503261E-02  9.95186250E-02
  1.08265010E-02 -1.37921471E-15 -5.25391365E-02  9.94967083E-02 -3.77871177E-02
  6.39382405E-03 -2.55359596E-02 -1.03386543E-01 -2.47201849E-01 -1.84217659E-16
 -1.47773598E-02  5.21534305E-02 -9.25407058E-02  1.48789235E-01 -1.18825026E-15
  3.56152037E-02 -1.16254558E-01  5.34218598E-02  2.17484346E-01 -9.74502892E-16
 -6.39382405E-03  2.55359596E-02 -1.03386543E-01 -2.47201849E-01  1.35518653E-15
  1.47773598E-02 -5.21534305E-02 -9.25407058E-02  1.48789235E-01  3.11796223E-15
 -3.56152037E-02  1.16254558E-01  5.34218598E-02  2.17484346E-01  2.22954716E-15
  1.16565649E-01  7.45782071E-02 -1.16565649E-01 -7.45782071E-02 -2.46564120E-03
  1.84965587E-02  1.94928784E-01 -3.48809253E-02 -2.19660263E-15  7.44878968E-04
  9.31936998E-03  4.52820730E-02  2.39398975E-01 -3.85568654E-15 -2.60136823E-03
 -7.26202419E-02  2.03565413E-01  2.46564120E-03 -1.84965587E-02  1.94928784E-01
 -3.48809253E-02 -2.51130554E-15 -7.44878968E-04 -9.31936998E-03  4.52820730E-02
  2.39398975E-01 -3.23066343E-15  2.60136823E-03  7.26202419E-02 -2.03565413E-01
  1.89284763E-02 -6.21629450E-02 -1.17819815E-02 -1.10922101E-02  1.27313235E-15
 -2.53709609E-02  8.47416147E-02 -6.47154640E-02 -6.83252551E-04  6.79574074E-16
  1.99762191E-02 -7.30917879E-02  1.21133438E-01 -2.81225511E-02  4.30470699E-16
  1.89284763E-02 -6.21629450E-02  1.17819815E-02  1.10922101E-02  5.61669843E-17
 -2.53709609E-02  8.47416147E-02  6.47154640E-02  6.83252551E-04 -2.09882127E-16
  1.99762191E-02 -7.30917879E-02 -1.21133438E-01  2.81225511E-02  6.34933763E-16
  1.64523487E-02 -1.06330113E-01  1.64523487E-02 -1.06330113E-01 -2.33293925E-02
  6.11722220E-02 -7.70912574E-02  2.82003349E-01 -1.16713395E-15 -7.31357316E-03
  5.93718468E-03  3.27513818E-01 -6.74789976E-02 -6.11390058E-16 -1.75873783E-01
 -2.44366737E-01 -5.48495922E-03 -2.33293925E-02  6.11722220E-02  7.70912574E-02
 -2.82003349E-01  2.78363218E-15 -7.31357316E-03  5.93718468E-03 -3.27513818E-01
  6.74789976E-02  1.37826904E-15 -1.75873783E-01 -2.44366737E-01 -5.48495922E-03
  1.73996519E-03 -8.98177214E-03 -1.25432960E-01  4.08628419E-02 -4.76559506E-15
 -3.38414750E-02  1.07565861E-01 -1.39171870E-01 -2.87001404E-01 -3.50240889E-15
 -7.67587581E-03  1.99530085E-02  2.36988515E-01 -1.47529572E-01 -3.64643815E-15
 -1.73996519E-03  8.98177214E-03 -1.25432960E-01  4.08628419E-02 -4.65339167E-15
  3.38414750E-02 -1.07565861E-01 -1.39171870E-01 -2.87001404E-01 -3.25310933E-15
  7.67587581E-03 -1.99530085E-02  2.36988515E-01 -1.47529572E-01 -3.42029000E-15
 -2.21263887E-01 -2.11141498E-01  2.21263887E-01  2.11141498E-01  1.85999861E-03
  6.99845979E-04  1.35670911E-01 -4.03833593E-03 -3.96068471E-15 -4.76239514E-03
  2.44711043E-02 -1.87559037E-03  1.47106366E-01 -2.87524131E-15 -1.16035754E-02
 -1.28752779E-02  1.03560742E-01 -1.85999861E-03 -6.99845979E-04  1.35670911E-01
 -4.03833593E-03 -2.77181189E-15  4.76239514E-03 -2.44711043E-02 -1.87559037E-03
  1.47106366E-01 -2.91015928E-15  1.16035754E-02  1.28752779E-02 -1.03560742E-01
 -4.61932625E-03  1.78099745E-02  1.31338073E-01 -1.65962389E-01 -1.21066432E-14
  1.39773549E-02 -5.02100480E-02 -2.38257000E-01  4.32868882E-02 -1.15564648E-14
 -9.02811455E-03  2.86990900E-02  2.00414738E-01  9.21346427E-02 -1.18432648E-14
  4.61932625E-03 -1.78099745E-02  1.31338073E-01 -1.65962389E-01 -1.17386770E-14
 -1.39773549E-02  5.02100480E-02 -2.38257000E-01  4.32868882E-02 -1.05687339E-14
  9.02811455E-03 -2.86990900E-02  2.00414738E-01  9.21346427E-02 -1.04448823E-14
 -4.68100494E-02 -4.50344972E-02  4.68100494E-02  4.50344972E-02 -1.02612110E-03
 -1.62979202E-02 -1.50579105E-01  2.40204368E-01 -6.39372551E-15 -2.15191138E-02
  5.71005165E-02  2.08300074E-01 -1.62136118E-01 -2.08898501E-15 -1.84205829E-01
 -1.25127349E-01 -8.41004562E-02  1.02612110E-03  1.62979202E-02 -1.50579105E-01
  2.40204368E-01 -7.73235056E-15  2.15191138E-02 -5.71005165E-02  2.08300074E-01
 -1.62136118E-01 -4.44291508E-15  1.84205829E-01  1.25127349E-01  8.41004562E-02
  2.69622654E-02 -9.52318674E-02 -1.91087662E-02  9.18742079E-02  9.18103253E-16
  7.99529216E-04 -1.22560982E-02 -1.23348843E-01 -1.39603957E-01  1.32983973E-15
 -5.65459911E-04  6.71023718E-05  1.45259661E-01  6.52060105E-02  1.65206454E-15
  2.69622654E-02 -9.52318674E-02  1.91087662E-02 -9.18742079E-02  3.55088657E-15
  7.99529216E-04 -1.22560982E-02  1.23348843E-01  1.39603957E-01  5.76219903E-15
 -5.65459911E-04  6.71023718E-05 -1.45259661E-01 -6.52060105E-02  5.30715085E-15
 -1.53144415E-01  3.24626287E-03 -1.53144415E-01  3.24626287E-03 -1.87367635E-02
  7.61646630E-02  6.88626771E-02 -1.75758931E-01 -2.65823824E-15  8.22997251E-03
 -1.93245608E-02  1.13926103E-01  2.87076889E-01 -5.66060318E-15  1.81858517E-01
 -1.74041304E-01  2.74774252E-01 -1.87367635E-02  7.61646630E-02 -6.88626771E-02
  1.75758931E-01 -4.08922703E-15  8.22997251E-03 -1.93245608E-02 -1.13926103E-01
 -2.87076889E-01 -3.85178905E-15  1.81858517E-01 -1.74041304E-01  2.74774252E-01
 -3.03927689E-16  1.24084041E-15 -5.40834764E-15  7.66077663E-15 -3.36066076E-01
  2.05799602E-16 -3.78571071E-16  1.07596965E-14 -2.63946967E-15 -3.01390993E-01
  1.41952952E-16 -1.12438741E-16 -1.16124075E-14  1.91101190E-15 -3.01335646E-01
  7.51233695E-16 -3.39372236E-15 -1.05365958E-15  4.65820437E-16 -3.36066076E-01
 -3.69870022E-16  8.03164073E-16  8.11902575E-15  3.07047319E-15 -3.01390993E-01
 -2.98252435E-17  3.66508044E-16 -1.16589672E-14 -2.60286741E-15 -3.01335646E-01
 -1.35234067E-15  1.00942195E-14 -6.28151401E-15 -4.40454730E-15 -3.87016441E-16
  3.10455356E-15  4.16855138E-15 -1.06982024E-14 -1.56775787E-01  1.08470713E-15
 -3.58494457E-15 -6.66629517E-15  3.75299505E-15 -8.64994513E-02  5.45227128E-15
  5.69910358E-15  2.47544446E-15 -4.08071785E-17 -6.66664163E-16  4.81559931E-15
 -9.60090720E-15 -1.56775787E-01 -1.03909014E-15  3.20487545E-15 -1.02452087E-14
  2.90817483E-15 -8.64994513E-02 -7.45554301E-15 -8.19874297E-15  6.56904933E-17
 -1.19880067E-02  5.56883538E-02  2.77511925E-01  7.87872370E-02 -3.28801787E-15
  1.09954835E-02 -3.62779079E-02 -5.19572471E-04  6.82530499E-02 -2.77154124E-15
 -1.52132618E-02  5.05226093E-02  4.06115604E-02 -1.38286986E-01 -9.29710649E-16
  1.19880067E-02 -5.56883538E-02  2.77511925E-01  7.87872370E-02  1.33354342E-15
 -1.09954835E-02  3.62779079E-02 -5.19572471E-04  6.82530499E-02  5.35055321E-15
  1.52132618E-02 -5.05226093E-02  4.06115604E-02 -1.38286986E-01  4.02469671E-15
  3.07268873E-02 -6.20829596E-02 -3.07268873E-02  6.20829596E-02  3.86551598E-03
 -1.78147941E-02 -2.10739431E-01 -1.70330434E-01 -4.30479980E-15 -2.73766402E-03
  6.68842468E-03  1.84365468E-01  1.61428106E-01 -5.69614147E-15  2.26164269E-01
 -2.31765965E-01  2.21372490E-01 -3.86551598E-03  1.78147941E-02 -2.10739431E-01
 -1.70330434E-01 -8.74859241E-15  2.73766402E-03 -6.68842468E-03  1.84365468E-01
  1.61428106E-01 -8.98902007E-15 -2.26164269E-01  2.31765965E-01 -2.21372490E-01
 -3.34840171E-03  8.09654068E-03 -1.36555328E-01  2.86714180E-01  1.09961584E-15
 -7.69887232E-03  1.88902447E-02  1.73626444E-01 -2.42647504E-01  3.00928680E-15
  8.87677173E-03 -1.95761482E-02 -1.24433826E-01  2.46449569E-01  3.40343210E-15
 -3.34840171E-03  8.09654068E-03  1.36555328E-01 -2.86714180E-01  6.21398453E-15
 -7.69887232E-03  1.88902447E-02 -1.73626444E-01  2.42647504E-01  2.47821958E-15
  8.87677173E-03 -1.95761482E-02  1.24433826E-01 -2.46449569E-01  3.15198089E-15
 -1.91791234E-01  2.84355995E-01 -1.91791234E-01  2.84355995E-01  7.06746536E-03
 -3.61181805E-02 -1.08941810E-01  5.89089027E-02  4.78906141E-15 -6.35209491E-03
  1.55092848E-02  5.57398779E-02 -1.17346294E-01  2.61683566E-15 -6.91297839E-02
 -2.50617451E-02 -5.20293040E-02  7.06746536E-03 -3.61181805E-02  1.08941810E-01
 -5.89089027E-02 -5.67640816E-16 -6.35209491E-03  1.55092848E-02 -5.57398779E-02
  1.17346294E-01 -1.24627828E-15 -6.91297839E-02 -2.50617451E-02 -5.20293040E-02
  9.09660090E-03 -5.27200078E-02 -2.57507405E-01 -1.35707925E-01 -3.68869188E-15
  5.32010836E-03 -1.42475459E-02  2.23132735E-01  7.87161216E-02 -2.74567163E-15
  1.91778502E-03 -7.56842508E-03 -2.18132778E-01 -1.64238793E-01  5.52017432E-16
  9.09660090E-03 -5.27200078E-02  2.57507405E-01  1.35707925E-01  3.91891914E-15
  5.32010836E-03 -1.42475459E-02 -2.23132735E-01 -7.87161216E-02  6.58368501E-15
  1.91778502E-03 -7.56842508E-03  2.18132778E-01  1.64238793E-01  3.14278051E-15
  1.81009297E-01  5.43302450E-02  1.81009297E-01  5.43302450E-02  2.23149585E-02
 -9.26332892E-02 -2.70003498E-01 -1.14757674E-01 -1.10486422E-15 -3.66102429E-03
  6.35244738E-03  1.28798280E-01  3.66121872E-02 -2.34831694E-15  1.69028942E-01
 -1.55819381E-01  1.15085798E-01  2.23149585E-02 -9.26332892E-02  2.70003498E-01
  1.14757674E-01 -9.13844464E-15 -3.66102429E-03  6.35244738E-03 -1.28798280E-01
 -3.66121872E-02 -8.94453519E-15  1.69028942E-01 -1.55819381E-01  1.15085798E-01
  1.73098059E-16 -6.90889117E-16 -1.85299234E-15  3.17820125E-16  3.43549732E-01
  4.46451731E-17  5.11096818E-16  3.59533404E-15  5.18177327E-16  1.31362864E-01
  3.14758520E-17  9.80207379E-17 -3.39786880E-15 -1.11363802E-15 -1.41153425E-01
  1.84114120E-16 -1.38632964E-15  6.18358295E-15 -1.22744624E-15 -3.43549732E-01
 -2.38101589E-17  1.25030657E-16 -3.78173768E-15  1.85419598E-15 -1.31362864E-01
  2.36498756E-16 -1.14165546E-15  3.72493954E-15 -6.31273952E-16  1.41153425E-01
  8.04008775E-16  1.54863590E-15  1.29848080E-16  3.16697916E-15  2.70713415E-16
 -9.56409042E-16 -4.11506124E-15 -1.93666077E-15 -3.71843323E-01 -1.76439676E-16
  3.21656526E-17  1.94472386E-15  4.81054175E-16 -2.80668351E-01  3.50988988E-15
 -3.23054452E-15  3.30601450E-15  2.93645432E-16 -8.43510251E-16  1.83708660E-15
  1.91843295E-15  3.71843323E-01  1.01857744E-16 -6.92573053E-16  4.39441824E-16
  8.45707760E-16  2.80668351E-01  1.84420964E-15  1.00782894E-15  1.87378666E-17
  1.20218823E-16 -8.95259664E-16  5.39647545E-17 -3.31000157E-15 -2.08184142E-02
  2.32839375E-16 -5.60982709E-16  2.48562859E-15  1.65156802E-16 -1.64249533E-01
 -3.16368225E-16  2.36563909E-15 -9.55068695E-16 -2.01622943E-15 -1.57504740E-01
  1.40175059E-15 -6.24203254E-15  6.49067192E-15 -1.69055005E-15 -2.08184142E-02
 -5.58986856E-16  1.95424526E-15 -2.83095228E-15 -6.54802419E-16 -1.64249533E-01
  1.72640776E-16 -1.59992883E-15  2.08919143E-15 -1.49206890E-16 -1.57504740E-01
  5.32284501E-16  3.83934847E-16  9.51696614E-16  2.85167959E-15  2.80187153E-16
 -1.18042673E-15 -2.66264846E-15 -1.86922707E-15  4.18418025E-01 -2.70728217E-17
 -4.17828320E-16  6.34645974E-15  8.96482496E-15  4.23845811E-01  8.99526198E-15
 -8.91346221E-15  1.14600031E-14  1.40386039E-16  6.19540232E-17 -5.37809851E-16
  1.11910492E-15  4.18418025E-01  3.10605276E-16 -1.30470253E-15  2.32491114E-15
  3.91581551E-16  4.23845811E-01  1.72830731E-15  1.50024867E-15  9.85100285E-17
  6.25391584E-17 -4.55671327E-16  3.11726411E-16 -2.72469398E-15  1.75092985E-02
  1.32470771E-16  1.89703514E-17  1.13055243E-15  1.77611401E-15  4.69337553E-01
 -8.10352061E-17  8.77055733E-16 -8.98266239E-16 -3.46021199E-16  4.50799853E-01
  6.92275781E-16 -3.66926318E-15  4.05768213E-15 -7.44809248E-16 -1.75092985E-02
 -3.06901403E-16  1.13213668E-15 -2.27965834E-15  1.18127425E-16 -4.69337553E-01
  1.01196105E-16 -1.04990293E-15  1.16327374E-15 -2.78813804E-16 -4.50799853E-01
  8.46300666E-16  5.17921002E-16  5.88125149E-16  1.53229323E-15  2.04135066E-16
 -4.28721821E-16 -8.46531676E-16 -8.25104745E-16  4.43934060E-04  2.38399616E-18
 -5.24881944E-16  2.41526764E-15  3.98138890E-15  1.33574824E-02  4.64548288E-15
 -3.24680122E-15  5.49802022E-15  1.91759338E-18  3.11068912E-16  9.20793314E-17
 -4.23530242E-16 -4.43934060E-04  1.30080786E-16 -6.06571165E-16  1.23957110E-15
 -2.94254235E-16 -1.33574824E-02  7.06815541E-16 -3.37793410E-16  6.55393917E-18
 -2.19549549E-16  7.16887077E-17 -1.38349434E-17  9.88690652E-16  3.90288287E-01
 -8.24879045E-17 -3.08572482E-16 -2.35937748E-16  5.94817724E-16  2.06941006E-01
 -5.49985067E-17  1.85687164E-16  7.37129638E-16 -5.49938913E-16 -2.41821278E-01
  1.36653585E-16 -3.93159054E-16 -3.92702518E-16 -5.83582258E-16 -3.90288287E-01
  2.01540721E-17  7.01987021E-17  2.52676631E-16 -5.04169248E-16 -2.06941006E-01
 -1.11166763E-16  5.29585044E-16 -4.58500698E-16  1.00147937E-15  2.41821278E-01
  1.26349088E-16 -5.42767192E-18 -9.75515687E-17 -1.92985983E-16 -6.39541659E-17
  1.76906483E-16  4.03792051E-16 -1.25573259E-16  2.31189788E-01  6.21270424E-17
 -2.35008190E-16  2.78896336E-16  1.59604280E-15  3.82039639E-01 -1.09355786E-17
  3.78191867E-17  8.01925629E-16 -4.97514565E-17  1.15879139E-16  4.16929845E-16
 -1.01777984E-15 -2.31189788E-01 -1.04060702E-16  4.59533441E-16 -2.77769769E-16
 -7.19398240E-16 -3.82039639E-01 -5.06262731E-16 -1.50613649E-15  7.51230416E-18
  8.31057659E-17 -2.99490745E-16 -9.26670502E-17 -8.69628352E-16 -4.49196866E-01
 -1.34227545E-17  1.32474276E-17  1.84662178E-16  8.56763154E-17  2.28494902E-01
  2.52719220E-19  6.51848778E-17  2.02835731E-16  1.05385192E-15  2.87233260E-01
 -5.58538303E-17  7.49952412E-16 -3.35747933E-16 -1.30601371E-15 -4.49196866E-01
  5.93284181E-17 -1.43595721E-16  5.01073706E-16  2.78230220E-16  2.28494902E-01
 -1.10489890E-17 -1.93879360E-16  1.84557999E-16  4.57360719E-16  2.87233260E-01
 -1.15511931E-16 -1.53926367E-16 -1.22994811E-16  5.14737741E-16  1.86864798E-16
 -8.47006560E-16 -2.99231831E-16 -5.64384511E-16 -2.73383931E-01  2.24072093E-17
  6.07768361E-17  2.44805527E-16  1.21771511E-15  4.41928334E-01  5.62473379E-16
 -8.16269815E-16  5.86348480E-16  6.75434218E-17 -1.70552696E-16  6.51001559E-17
 -8.99699394E-16 -2.73383931E-01  8.93151913E-17 -5.52553728E-16 -2.55018460E-16
  8.93944065E-16  4.41928334E-01  6.55988873E-16  7.65588373E-16  9.21210018E-17
 -2.04584181E-17  4.80032974E-17 -7.47211616E-17 -4.44759614E-17 -3.63067462E-02
 -6.03031036E-17 -2.80767759E-16  3.85926518E-16  8.14603860E-16  5.86450030E-01
  4.86369808E-17  2.16641075E-18  3.02092809E-16 -9.79582402E-16 -5.51642213E-01
 -7.51691086E-17  5.43895894E-16  1.32852975E-16 -4.55335403E-16 -3.63067462E-02
  6.80085829E-17 -3.02775942E-16  3.15118344E-16  7.85022465E-16  5.86450030E-01
  2.88437673E-17 -2.04131242E-16  4.93512783E-17 -1.21357963E-15 -5.51642213E-01
  4.37577743E-17  4.87926821E-16 -4.77387920E-17  9.51917602E-17 -1.85548612E-17
 -2.91888728E-16 -4.90352234E-17 -5.47145470E-17  1.33381045E-03 -7.81361521E-17
  5.38264162E-16  2.58051246E-16  7.99520095E-17  1.86342978E-02 -1.13349023E-16
 -3.25047990E-16 -4.18272753E-16  2.80170345E-17 -1.53845989E-16  3.11504218E-17
 -2.03378661E-17  1.33381045E-03 -3.44314199E-17  1.91327823E-16  1.44480063E-16
  1.47709538E-16  1.86342978E-02  7.87174032E-17 -2.03656681E-16  1.22687741E-17
  7.11334132E-17 -5.16031421E-16 -9.68601279E-17 -5.88380951E-16 -2.54375072E-02
  1.22295260E-16 -3.95590584E-16 -5.97489306E-17  1.77531611E-17  2.16788830E-01
 -4.29962087E-17  9.10827347E-16 -3.75493235E-16 -1.14434038E-15 -2.09078593E-01
  1.56175502E-16 -1.19824699E-15  1.96046145E-17 -5.12206477E-16  2.54375072E-02
 -1.62997555E-16  3.17974948E-16 -5.34690715E-16 -7.83617237E-16 -2.16788830E-01
  2.24649369E-17 -1.25606262E-17 -2.79503502E-16  4.24119951E-16  2.09078593E-01
  8.43746936E-16 -4.88424209E-16  3.10920123E-16  5.82519754E-16 -1.30103619E-16
  1.03236854E-15  1.73293821E-16  1.37597032E-16  5.35544849E-01 -9.91984813E-17
  3.41459769E-16  4.27683247E-16 -5.80530213E-16 -5.35113532E-01 -1.00418649E-15
  2.31135166E-16 -5.74804431E-16  2.06519971E-18 -4.78391460E-17 -4.00147454E-16
 -1.07214993E-15 -5.35544849E-01  1.01339323E-16 -4.84871318E-16 -6.71486649E-16
  1.10314305E-15  5.35113532E-01  3.77442455E-16  8.74036234E-16  7.48605356E-17
  1.15597212E-16 -8.34708305E-17 -1.04330245E-16  7.43082407E-16  4.93667445E-01
 -2.33799741E-17 -2.18538398E-16  9.19656151E-17 -8.52568632E-16 -1.76392688E-01
  7.75325697E-17 -2.89088644E-16  3.31026307E-16 -2.29223529E-16 -2.06623372E-01
 -6.82433224E-17  8.26593772E-16  9.20285396E-18  5.33663491E-16  4.93667445E-01
  1.80163100E-16 -6.71001800E-16  5.26548357E-16 -3.33392837E-16 -1.76392688E-01
 -1.86200839E-17 -3.63107024E-18  4.41764196E-16 -6.31188639E-16 -2.06623372E-01
  2.70290284E-16  3.52102488E-16  3.00357016E-16 -5.80700997E-17  8.38992530E-17
 -1.57867756E-16 -2.05090501E-16 -9.63436486E-16 -5.21612271E-01  7.96646402E-17
 -3.34277081E-16 -3.37620616E-16  6.44432868E-16  3.85913410E-01  1.08425437E-16
 -7.32294647E-16  8.47827793E-16 -4.91614384E-17  3.58111057E-16  4.29600174E-16
 -1.19764944E-15 -5.21612271E-01  3.48431492E-17 -3.39669788E-16  1.07447832E-16
  6.82345023E-16  3.85913410E-01 -9.11950009E-17  9.38764225E-17  8.90462879E-17
  1.90077708E-15 -1.09205675E-14 -8.85399907E-15 -2.96368587E-15 -5.47425092E-01
  1.09994151E-15 -5.79945605E-15 -5.42084819E-16 -5.18041337E-15  4.77709308E-01
  1.00521117E-15 -6.24851720E-15  2.92070926E-15 -4.13956519E-15 -4.79864644E-01
  3.60113987E-15 -2.08129123E-14  1.48396421E-14  8.01129916E-15  5.47425092E-01
  5.23456196E-16 -3.14894331E-15  1.61865513E-15  1.34641633E-14 -4.77709308E-01
  2.17572634E-15 -1.31477491E-14 -3.59581896E-15  9.59714295E-15  4.79864644E-01
  1.03258737E-14  9.81014649E-15  1.63617897E-14  1.75456821E-14 -2.03044392E-15
  1.14570883E-14  1.94852307E-14  1.30228385E-14 -2.60954682E-01  1.37979482E-15
 -7.91582808E-15  8.21317572E-15  7.95957372E-15  1.43002989E-01  1.05231202E-14
  1.71973206E-14 -9.41116081E-15 -1.86367167E-15  1.03607923E-14 -1.00340465E-14
 -4.68681256E-15  2.60954682E-01  1.57494534E-15 -9.11991099E-15 -3.06580396E-15
 -8.93518238E-16 -1.43002989E-01  7.38993988E-16  9.84032781E-15  1.30128320E-16
 -6.92819781E-02  3.97765411E-01  3.31526813E-01  8.78867175E-02 -2.02408849E-14
 -3.30531340E-02  2.01835259E-01  3.98714774E-02  2.71856652E-01  1.74853884E-14
 -4.29287557E-02  2.58664438E-01 -1.22967739E-01  1.82397697E-01 -1.78081048E-14
 -6.92819781E-02  3.97765411E-01 -3.31526813E-01 -8.78867175E-02  2.00596096E-14
 -3.30531340E-02  2.01835259E-01 -3.98714774E-02 -2.71856652E-01 -1.80434985E-14
 -4.29287557E-02  2.58664438E-01  1.22967739E-01 -1.82397697E-01  1.71629533E-14
 -4.09857716E-01 -4.06704972E-01 -4.09857716E-01 -4.06704972E-01  5.97078790E-02
 -3.28603673E-01 -3.83872078E-01 -1.90910226E-01 -8.68276385E-15 -3.83097916E-02
  2.18379398E-01 -1.46276853E-01 -9.13228411E-02  5.23219855E-15 -7.07426574E-02
 -3.37851984E-01  9.93110527E-02  5.97078790E-02 -3.28603673E-01  3.83872078E-01
  1.90910226E-01  9.51039180E-15 -3.83097916E-02  2.18379398E-01  1.46276853E-01
  9.13228411E-02 -4.08177118E-15 -7.07426574E-02 -3.37851984E-01  9.93110527E-02
  5.46350776E-02 -3.09930390E-01 -2.69002861E-01 -2.24112313E-01 -6.80121637E-15
 -1.40105206E-02  7.51534879E-02 -7.64212578E-02 -2.95815011E-01  6.92801855E-15
  3.06155117E-02 -1.79869928E-01 -3.22843765E-02 -2.23588676E-01 -5.54560375E-15
 -5.46350776E-02  3.09930390E-01 -2.69002861E-01 -2.24112313E-01  7.31471307E-15
  1.40105206E-02 -7.51534879E-02 -7.64212578E-02 -2.95815011E-01 -6.10056287E-15
 -3.06155117E-02  1.79869928E-01 -3.22843765E-02 -2.23588676E-01  6.56923199E-15
  2.71367561E-01  2.13850238E-01 -2.71367561E-01 -2.13850238E-01  1.84407119E-02
 -9.69739915E-02 -3.42308617E-01 -2.82383071E-01 -2.58598971E-15  6.24778293E-03
 -3.72822819E-02 -2.08288213E-01 -3.14223062E-01  2.62420454E-15 -3.23571751E-01
 -2.90335768E-01  3.83265493E-01 -1.84407119E-02  9.69739915E-02 -3.42308617E-01
 -2.82383071E-01  4.95243354E-15 -6.24778293E-03  3.72822819E-02 -2.08288213E-01
 -3.14223062E-01 -1.60383758E-15  3.23571751E-01  2.90335768E-01 -3.83265493E-01
  4.12113844E-02 -2.28382840E-01 -4.39134118E-01  7.94569024E-02  3.94903091E-17
 -1.57031623E-02  9.48236022E-02 -2.19919701E-01  1.47784529E-01 -1.38345069E-15
 -1.04230316E-02  6.86892015E-02 -3.45191893E-01  2.62932229E-01 -6.24158098E-16
 -4.12113844E-02  2.28382840E-01 -4.39134118E-01  7.94569024E-02 -1.20060856E-15
  1.57031623E-02 -9.48236022E-02 -2.19919701E-01  1.47784529E-01 -3.79058252E-16
  1.04230316E-02 -6.86892015E-02 -3.45191893E-01  2.62932229E-01 -2.11580069E-15
 -1.04487287E-01 -4.61926329E-01  1.04487287E-01  4.61926329E-01  9.94347281E-02
 -5.73036190E-01 -2.80498052E-01  4.11781493E-02 -3.60125266E-17 -5.67580504E-02
  3.29778712E-01 -5.10499424E-02  4.50178669E-02 -8.72807388E-16  2.98507728E-01
 -2.45619505E-01 -1.41981749E-01 -9.94347281E-02  5.73036190E-01 -2.80498052E-01
  4.11781493E-02 -1.17481269E-15  5.67580504E-02 -3.29778712E-01 -5.10499424E-02
  4.50178669E-02 -8.46138255E-16 -2.98507728E-01  2.45619505E-01  1.41981749E-01
 -3.42424525E-02  2.05928334E-01  9.35759196E-03  2.91981784E-02 -2.43826974E-15
  3.75450365E-02 -2.31132531E-01 -1.43499250E-01  9.71913024E-03  2.22687239E-15
  4.29953528E-02 -2.65767023E-01  2.03172601E-01 -1.55286094E-01 -1.28501417E-15
 -3.42424525E-02  2.05928334E-01 -9.35759197E-03 -2.91981784E-02  1.93571184E-15
  3.75450365E-02 -2.31132531E-01  1.43499250E-01 -9.71913024E-03 -2.09273208E-15
  4.29953528E-02 -2.65767023E-01 -2.03172601E-01  1.55286094E-01  1.68235823E-15
  1.91543065E-01  3.22783347E-01  1.91543065E-01  3.22783347E-01 -5.52099751E-02
  3.33808302E-01 -1.48849535E-01 -2.86156598E-01  3.14069915E-16  4.35731890E-02
 -2.55526274E-01 -2.68657566E-01 -3.34445654E-01  1.46430903E-15 -5.21569723E-01
 -2.02135055E-01  5.03407011E-01 -5.52099751E-02  3.33808302E-01  1.48849535E-01
  2.86156598E-01  1.87942543E-15  4.35731890E-02 -2.55526274E-01  2.68657566E-01
  3.34445654E-01 -7.23192811E-16 -5.21569723E-01 -2.02135055E-01  5.03407011E-01
  6.88641490E-02 -3.99778251E-01 -6.48234924E-02  1.01407317E-01 -8.64528694E-16
 -6.50413354E-02  3.87234525E-01 -6.62288323E-02  1.11871758E-01  3.90945121E-16
  9.16661689E-02 -5.57625364E-01  9.90474967E-02 -2.22327198E-02 -8.94848004E-17
 -6.88641490E-02  3.99778251E-01 -6.48234924E-02  1.01407317E-01 -3.25472404E-16
  6.50413354E-02 -3.87234525E-01 -6.62288323E-02  1.11871758E-01 -3.81078023E-16
 -9.16661689E-02  5.57625364E-01  9.90474967E-02 -2.22327198E-02  4.76242531E-16
 -2.79853617E-01  3.02442076E-01  2.79853617E-01 -3.02442076E-01  6.00585364E-02
 -3.78071829E-01 -1.36865891E-01  2.61305581E-01  2.83597447E-16  8.12280787E-02
 -5.16091892E-01  2.18309104E-01 -1.98454214E-01  5.35251476E-17  3.81110523E-01
  4.15629148E-01  3.38327473E-01 -6.00585364E-02  3.78071829E-01 -1.36865891E-01
  2.61305581E-01 -1.27728886E-16 -8.12280787E-02  5.16091892E-01  2.18309104E-01
 -1.98454214E-01  1.69234368E-15 -3.81110523E-01 -4.15629148E-01 -3.38327473E-01
  4.07941111E-02 -2.42033469E-01 -1.95973991E-01  2.06839928E-01 -1.54472623E-15
  7.37092713E-02 -4.55681998E-01  1.29707507E-01 -4.74799584E-02  9.82523186E-16
 -8.56215552E-02  5.26453606E-01  1.79767719E-02 -1.56022311E-03 -6.82344243E-16
  4.07941111E-02 -2.42033469E-01  1.95973991E-01 -2.06839928E-01  1.47705582E-15
  7.37092713E-02 -4.55681998E-01 -1.29707507E-01  4.74799584E-02 -1.07505044E-15
 -8.56215552E-02  5.26453606E-01 -1.79767719E-02  1.56022311E-03  9.42391055E-16
  2.52995018E-01 -1.81332218E-01  2.52995018E-01 -1.81332218E-01 -4.62793245E-02
  2.92222417E-01  1.88950926E-01 -2.41072432E-01 -3.92271708E-16 -9.79879798E-02
  6.19954252E-01 -1.88723667E-01  1.79323818E-01  3.67795110E-16 -3.41643013E-01
 -4.40537034E-01 -3.95018811E-01 -4.62793245E-02  2.92222417E-01 -1.88950926E-01
  2.41072432E-01  9.79028646E-16 -9.79879798E-02  6.19954252E-01  1.88723667E-01
 -1.79323818E-01  3.26696576E-16 -3.41643013E-01 -4.40537034E-01 -3.95018811E-01
  3.95373439E-02 -2.44029716E-01  1.42875365E-01  1.60948913E-01 -8.32640359E-16
 -7.21010707E-02  4.44277089E-01  2.37757617E-01  3.78963665E-01 -1.06373465E-16
  2.30301834E-02 -1.31969409E-01  6.07712873E-02  2.46238070E-01 -9.09187383E-16
 -3.95373439E-02  2.44029716E-01  1.42875365E-01  1.60948913E-01 -8.82358077E-18
  7.21010707E-02 -4.44277089E-01  2.37757617E-01  3.78963665E-01 -1.61353061E-15
 -2.30301834E-02  1.31969409E-01  6.07712873E-02  2.46238070E-01 -4.78253155E-16
 -6.68143920E-01 -6.67319397E-02  6.68143920E-01  6.67319397E-02 -5.21145610E-02
  3.30674418E-01 -3.15466105E-02 -1.85392866E-01  8.43910567E-16 -3.09317647E-03
  2.58459446E-02 -2.88626772E-01 -9.57753165E-02  5.78353140E-16 -3.69050850E-01
 -2.96703253E-01  1.68846532E-01  5.21145610E-02 -3.30674418E-01 -3.15466105E-02
 -1.85392866E-01  7.20598338E-16  3.09317647E-03 -2.58459446E-02 -2.88626772E-01
 -9.57753165E-02 -2.82190451E-16  3.69050850E-01  2.96703253E-01 -1.68846532E-01
 -1.16115968E-01  7.08475533E-01  4.41873650E-02  4.08907028E-02 -8.72409586E-16
  9.17983421E-02 -5.77210103E-01 -2.55098411E-01 -1.00181743E-01  2.83755243E-16
  4.96376237E-02 -3.13801906E-01  2.56344246E-01  1.92801284E-01 -9.64780492E-16
 -1.16115968E-01  7.08475533E-01 -4.41873650E-02 -4.08907028E-02 -4.63901941E-16
  9.17983421E-02 -5.77210103E-01  2.55098411E-01  1.00181743E-01 -1.44809631E-15
  4.96376237E-02 -3.13801906E-01 -2.56344246E-01 -1.92801284E-01  4.72504006E-16
  4.13074813E-01  1.94848275E-01  4.13074813E-01  1.94848275E-01  9.86407735E-02
 -5.99506519E-01 -8.31186716E-02  1.42053312E-01  7.56382920E-16 -6.22998119E-02
  3.76962418E-01 -4.21187604E-02 -3.92358798E-02 -7.50552426E-16  3.98954984E-01
 -2.39103079E-01 -1.65039108E-01  9.86407735E-02 -5.99506519E-01  8.31186716E-02
 -1.42053312E-01  5.37153005E-17 -6.22998119E-02  3.76962418E-01  4.21187604E-02
  3.92358798E-02 -3.44178998E-17  3.98954984E-01 -2.39103079E-01 -1.65039108E-01
  5.78809854E-02 -3.52927580E-01  1.34772756E-01 -1.36090961E-01 -2.67301360E-16
 -5.31114932E-02  3.26407493E-01  1.80882729E-01 -1.37036218E-01  3.33564437E-16
  6.18816987E-02 -3.81244109E-01  1.98311640E-01 -1.60856037E-01  2.72332827E-16
 -5.78809854E-02  3.52927580E-01  1.34772756E-01 -1.36090961E-01  2.45467948E-16
  5.31114932E-02 -3.26407493E-01  1.80882729E-01 -1.37036218E-01 -6.64649903E-16
 -6.18816987E-02  3.81244109E-01  1.98311640E-01 -1.60856037E-01  8.54087519E-16
 -8.50362051E-02  5.02701356E-01  8.50362051E-02 -5.02701356E-01  6.43106428E-02
 -3.93251319E-01  1.51877096E-01  5.19400406E-02  8.56627168E-16 -1.14600249E-01
  7.24093927E-01 -8.31686219E-02  9.64334456E-02 -4.55257414E-16  2.75083236E-01
 -3.91361782E-01 -4.87765443E-01 -6.43106428E-02  3.93251319E-01  1.51877096E-01
  5.19400406E-02  5.75266415E-16  1.14600249E-01 -7.24093927E-01 -8.31686219E-02
  9.64334456E-02  2.77191108E-16 -2.75083236E-01  3.91361782E-01  4.87765443E-01
 -1.57232907E-02  9.76178153E-02  9.96684600E-03  3.62481947E-01 -1.03400891E-15
  1.09916216E-01 -7.05001835E-01  1.73720283E-01  1.60635083E-02  6.40859624E-16
 -1.14164316E-01  7.34528437E-01  1.69785954E-01  1.04094210E-01 -3.91907220E-16
 -1.57232907E-02  9.76178153E-02 -9.96684600E-03 -3.62481947E-01  1.63476135E-15
  1.09916216E-01 -7.05001835E-01 -1.73720283E-01 -1.60635083E-02 -6.48528543E-16
 -1.14164316E-01  7.34528437E-01 -1.69785954E-01 -1.04094210E-01  5.80834045E-16
  2.67396430E-01 -3.71184715E-01  2.67396430E-01 -3.71184715E-01  1.57403125E-02
 -1.19892732E-01 -1.07779216E-01 -6.81375573E-03 -3.32619045E-16  6.59793851E-02
 -4.26005798E-01  3.35940003E-01 -1.32206451E-01  1.23506296E-15 -9.51693769E-03
  4.46464055E-01  3.03693704E-01  1.57403125E-02 -1.19892732E-01  1.07779216E-01
  6.81375573E-03  1.21481629E-15  6.59793851E-02 -4.26005798E-01 -3.35940003E-01
  1.32206451E-01 -7.92530510E-16 -9.51693769E-03  4.46464055E-01  3.03693704E-01
 -9.77635396E-02  6.60152001E-01 -5.64444853E-01 -1.33420496E-01  3.61563234E-16
  3.00053421E-02 -2.00327498E-01 -2.12964226E-01  4.33569489E-01 -5.86361133E-16
  5.37220792E-02 -3.54575514E-01 -2.02140753E-02  4.14154283E-01 -7.18917731E-16
 -9.77635396E-02  6.60152001E-01  5.64444853E-01  1.33420496E-01 -1.87496182E-16
  3.00053421E-02 -2.00327498E-01  2.12964226E-01 -4.33569489E-01  1.00000407E-16
  5.37220792E-02 -3.54575514E-01  2.02140753E-02 -4.14154283E-01  5.60616035E-16
 -1.77981199E-01 -8.55136250E-02 -1.77981199E-01 -8.55136250E-02 -5.67272182E-02
  3.73611474E-01 -8.36300147E-02 -1.44525511E-01  9.81810078E-16  2.16006902E-02
 -1.39498495E-01  1.62575835E-01  2.96837017E-01  1.45676927E-16 -2.67849568E-01
  2.47281671E-01 -1.83518539E-01 -5.67272182E-02  3.73611474E-01  8.36300147E-02
  1.44525511E-01  2.59357906E-16  2.16006902E-02 -1.39498495E-01 -1.62575835E-01
 -2.96837017E-01  7.83446964E-16 -2.67849568E-01  2.47281671E-01 -1.83518539E-01
 -2.25769423E-03 -2.59049425E-04 -8.65500646E-02  5.35413293E-01 -1.09387145E-15
  1.01167876E-01 -6.89732501E-01 -1.36850035E-02 -2.47194660E-03 -2.15710156E-16
  1.42209787E-02 -1.12696727E-01  4.79639055E-01  2.93522611E-01 -6.39732895E-16
  2.25769423E-03  2.59049425E-04 -8.65500646E-02  5.35413293E-01 -1.11658142E-15
 -1.01167876E-01  6.89732501E-01 -1.36850035E-02 -2.47194660E-03 -8.37949378E-16
 -1.42209787E-02  1.12696727E-01  4.79639055E-01  2.93522611E-01 -8.29263171E-16
  2.82303803E-01  8.83496189E-02 -2.82303803E-01 -8.83496189E-02 -8.66108902E-03
  7.18903408E-02  3.33183807E-02  3.32360081E-01 -1.60970603E-16  1.27515788E-02
 -1.00014747E-01 -4.61903064E-01 -1.08573566E-01 -3.23048986E-17  2.55055347E-01
 -3.39948438E-01  2.08166534E-01  8.66108902E-03 -7.18903408E-02  3.33183807E-02
  3.32360081E-01 -5.30740225E-16 -1.27515788E-02  1.00014747E-01 -4.61903064E-01
 -1.08573566E-01  8.48897922E-16 -2.55055347E-01  3.39948438E-01 -2.08166534E-01
 -2.60640946E-03  1.63332849E-02 -6.55377284E-02  2.03484221E-01 -1.03623483E-16
  2.32909156E-02 -1.66194031E-01  2.67407769E-01  6.02162245E-01 -3.96040764E-16
 -1.77724450E-02  1.30736261E-01  4.95276732E-01 -4.27319445E-01  1.01579202E-15
 -2.60640946E-03  1.63332849E-02  6.55377284E-02 -2.03484221E-01  1.61671089E-15
  2.32909156E-02 -1.66194031E-01 -2.67407769E-01 -6.02162245E-01  9.31751748E-16
 -1.77724450E-02  1.30736261E-01 -4.95276732E-01  4.27319445E-01 -2.38801293E-16
 -4.51675064E-01  4.65518442E-01 -4.51675064E-01  4.65518442E-01  4.00612000E-02
 -2.82217532E-01  1.84725116E-01 -8.07880360E-02 -3.11844064E-16 -4.13324356E-02
  2.83639258E-01  1.96076367E-01 -1.06495440E-01  4.67769175E-16  9.68908549E-02
  2.11411597E-02 -1.28176209E-01  4.00612000E-02 -2.82217532E-01 -1.84725116E-01
  8.07880360E-02  1.98643382E-16 -4.13324356E-02  2.83639258E-01 -1.96076367E-01
  1.06495440E-01  1.04841028E-16  9.68908549E-02  2.11411597E-02 -1.28176209E-01
 -7.44711547E-02  5.22255812E-01 -1.00119433E-03  3.12296413E-01 -4.25181589E-16
 -2.12485702E-02  1.43909981E-01 -7.68420912E-01  2.35341446E-01 -1.36825726E-16
  8.45007738E-02 -5.90938073E-01 -3.46236691E-01 -3.66236912E-01  8.60372886E-16
  7.44711547E-02 -5.22255812E-01 -1.00119433E-03  3.12296413E-01 -4.94075515E-16
  2.12485702E-02 -1.43909981E-01 -7.68420912E-01  2.35341446E-01 -2.55623648E-16
 -8.45007738E-02  5.90938073E-01 -3.46236691E-01 -3.66236912E-01  3.76489333E-16
 -4.85043730E-02  2.76673604E-01  4.85043730E-02 -2.76673604E-01 -4.73157391E-02
  3.24393679E-01  7.08278670E-02  4.07202659E-02 -3.29856676E-16 -2.33378787E-03
  1.85115966E-02 -2.00647428E-01  1.18271363E-01  9.99011194E-16 -9.93787778E-02
 -1.32190871E-01 -1.13151451E-01  4.73157391E-02 -3.24393679E-01  7.08278670E-02
  4.07202659E-02  2.68714970E-16  2.33378787E-03 -1.85115966E-02 -2.00647428E-01
  1.18271363E-01  4.49450308E-16  9.93787778E-02  1.32190871E-01  1.13151451E-01
  7.38011134E-02 -4.99097604E-01 -8.38061164E-02  3.16759519E-01 -1.04333238E-15
  1.05134345E-02 -8.86362986E-02 -4.27164345E-02 -1.62668481E-01  1.06602975E-15
  5.86564473E-02 -4.00915508E-01  1.93725472E-01  2.81331797E-01 -7.70823166E-16
 -7.38011134E-02  4.99097604E-01 -8.38061164E-02  3.16759519E-01 -1.42611514E-16
 -1.05134345E-02  8.86362986E-02 -4.27164345E-02 -1.62668481E-01 -1.36783526E-15
 -5.86564473E-02  4.00915508E-01  1.93725472E-01  2.81331797E-01 -8.53330201E-16
  1.20406827E-01  1.50215496E-01 -1.20406827E-01 -1.50215496E-01 -4.13015389E-02
  3.15545264E-01 -5.14934875E-01 -2.03981748E-01 -1.25811112E-16  2.21132890E-02
 -1.62781647E-01  1.45534519E-01  5.98228774E-01 -4.92458898E-16 -3.37448113E-01
  2.63973324E-01 -4.12907638E-01  4.13015389E-02 -3.15545264E-01 -5.14934875E-01
 -2.03981748E-01  1.02973554E-15 -2.21132890E-02  1.62781647E-01  1.45534519E-01
  5.98228774E-01 -7.15117426E-16  3.37448113E-01 -2.63973324E-01  4.12907638E-01
 -9.26875263E-03  3.95972505E-02  4.52179501E-01  1.31834285E-01 -6.34206829E-16
 -1.90530432E-02  1.34598616E-01 -1.95499830E-01 -2.13337387E-01  1.19967289E-15
  2.31820832E-02 -1.55564666E-01 -6.34539591E-02 -2.94916370E-01  4.54933772E-16
 -9.26875263E-03  3.95972505E-02 -4.52179501E-01 -1.31834285E-01  5.29835344E-16
 -1.90530432E-02  1.34598616E-01  1.95499830E-01  2.13337387E-01 -1.72715008E-15
  2.31820832E-02 -1.55564666E-01  6.34539591E-02  2.94916370E-01 -7.52376681E-16
  1.52226632E-01  2.36413702E-01  1.52226632E-01  2.36413702E-01  2.01060849E-02
 -1.24172191E-01 -3.67611933E-01 -4.61956816E-01  4.72918146E-16 -1.98747300E-02
  1.43409723E-01  4.48920810E-01  3.49730671E-01  1.20517282E-16 -3.42843735E-01
  3.24210300E-01 -4.20074368E-01  2.01060849E-02 -1.24172191E-01  3.67611933E-01
  4.61956816E-01  2.29478476E-16 -1.98747300E-02  1.43409723E-01 -4.48920810E-01
 -3.49730671E-01  1.07916210E-15 -3.42843735E-01  3.24210300E-01 -4.20074368E-01
  2.99090826E-03 -1.27626703E-02 -2.10817188E-01  2.04155854E-01 -3.48743496E-16
 -1.91455153E-02  1.38941954E-01 -4.77994422E-01  4.62601070E-02 -3.02550495E-16
  1.90802603E-02 -1.38123071E-01 -4.81796266E-01 -7.93478487E-02  9.94740809E-17
  2.99090826E-03 -1.27626703E-02  2.10817188E-01 -2.04155854E-01  3.38295204E-16
 -1.91455153E-02  1.38941954E-01  4.77994422E-01 -4.62601070E-02 -3.00998084E-16
  1.90802603E-02 -1.38123071E-01  4.81796266E-01  7.93478487E-02 -6.14592285E-16
  1.76067845E-02 -1.63440571E-01  1.76067845E-02 -1.63440571E-01  6.16723490E-02
 -4.79604006E-01  5.26326988E-01 -3.74154484E-01  5.94384536E-16 -5.91488041E-02
  4.54164332E-01  3.81742608E-01 -5.42549273E-01  1.62090265E-15  1.07381106E-03
  2.37932117E-02  1.61266888E-01  6.16723490E-02 -4.79604006E-01 -5.26326988E-01
  3.74154484E-01 -4.78683588E-16 -5.91488041E-02  4.54164332E-01 -3.81742608E-01
  5.42549273E-01 -2.15640873E-17  1.07381106E-03  2.37932117E-02  1.61266888E-01
 -4.67638232E-03  3.26715016E-02 -1.25367084E-01  4.60902835E-01 -8.79870872E-16
  4.09208308E-02 -3.06780829E-01 -1.34207687E-01  1.24534652E-01  1.59405210E-16
  2.56614146E-02 -1.94896223E-01  1.84437963E-01  1.37761094E-01 -4.26088667E-16
  4.67638232E-03 -3.26715016E-02 -1.25367084E-01  4.60902835E-01 -1.14461925E-15
 -4.09208308E-02  3.06780829E-01 -1.34207687E-01  1.24534652E-01 -7.68389377E-16
 -2.56614146E-02  1.94896223E-01  1.84437963E-01  1.37761094E-01 -9.55415099E-16
  5.05388074E-02  5.86299597E-02 -5.05388074E-02 -5.86299597E-02  6.51553341E-02
 -5.07534623E-01  4.15989497E-01 -6.62317738E-01  1.68212403E-15 -7.16790801E-02
  5.59718367E-01  5.41911820E-01 -4.37172842E-01  5.77715453E-16 -1.92677199E-01
  1.10113249E-01  9.59973436E-03 -6.51553341E-02  5.07534623E-01  4.15989497E-01
 -6.62317738E-01  1.31366076E-15  7.16790801E-02 -5.59718367E-01  5.41911820E-01
 -4.37172842E-01  1.11572257E-15  1.92677199E-01 -1.10113249E-01 -9.59973436E-03
 -1.51731732E-04  2.66831949E-03  1.27245273E-01 -7.26683967E-01  1.55259155E-15
 -1.22431604E-02  9.36211837E-02  5.35279041E-01 -2.60983646E-01  5.66589330E-16
  1.29777762E-02 -9.78284330E-02  3.86754631E-01  4.71631724E-01 -8.61608945E-16
 -1.51731732E-04  2.66831949E-03 -1.27245273E-01  7.26683967E-01 -1.23349199E-15
 -1.22431604E-02  9.36211837E-02 -5.35279041E-01  2.60983646E-01 -7.20847774E-16
  1.29777762E-02 -9.78284330E-02 -3.86754631E-01 -4.71631724E-01  8.28241880E-16
  1.85203145E-02 -3.85808650E-02  1.85203145E-02 -3.85808650E-02  3.17809231E-02
 -2.57169949E-01  2.52767820E-01 -4.51151689E-01  7.89801687E-16 -4.01748656E-02
  3.25379976E-01  3.12390928E-01 -2.63916403E-01  7.49560271E-16 -1.62830559E-01
  5.91184135E-02  2.86016255E-02  3.17809231E-02 -2.57169949E-01 -2.52767820E-01
  4.51151689E-01 -1.04429075E-15 -4.01748656E-02  3.25379976E-01 -3.12390928E-01
  2.63916403E-01 -2.20271024E-16 -1.62830559E-01  5.91184135E-02  2.86016255E-02
  6.17741969E-02 -4.73334852E-01  6.40775313E-01  1.42636091E-01 -7.99100867E-17
 -6.15540060E-02  4.57234889E-01 -2.05845364E-01 -6.19335979E-01  1.18270044E-15
  6.11628161E-02 -4.55461531E-01 -4.35959538E-01  5.07233647E-01 -1.20543141E-15
 -6.17741969E-02  4.73334852E-01  6.40775313E-01  1.42636091E-01 -1.97475671E-16
  6.15540060E-02 -4.57234889E-01 -2.05845364E-01 -6.19335979E-01  1.13789488E-15
 -6.11628161E-02  4.55461531E-01 -4.35959538E-01  5.07233647E-01 -1.19888972E-15
  2.59969288E-01 -2.84523303E-01 -2.59969288E-01  2.84523303E-01 -1.28828710E-02
  7.82280775E-02  2.51750626E-01  3.53225917E-02 -2.25665805E-16 -1.43248471E-03
  2.01980720E-02 -3.03562119E-02 -1.58830818E-01  5.63747765E-16  4.02918913E-02
 -4.52711637E-02  1.31436403E-01  1.28828710E-02 -7.82280775E-02  2.51750626E-01
  3.53225917E-02  1.41880662E-16  1.43248471E-03 -2.01980720E-02 -3.03562119E-02
 -1.58830818E-01  3.41139792E-16 -4.02918913E-02  4.52711637E-02 -1.31436403E-01
Alpha Orbital Energies                     R   N=          60
 -1.00179350E+01 -1.00178697E+01 -1.00075475E+01 -1.00075461E+01 -1.00066361E+01
 -1.00066026E+01 -1.00055833E+01 -1.00054740E+01 -9.99193084E+00 -9.99193077E+00
 -8.17960987E-01 -7.55038656E-01 -7.20677846E-01 -7.04125977E-01 -6.70195544E-01
 -5.85100051E-01 -5.60587404E-01 -5.31907529E-01 -5.12118469E-01 -4.61919272E-01
 -4.38528784E-01 -4.10390819E-01 -3.99577549E-01 -3.97103303E-01 -3.75502181E-01
 -3.57768182E-01 -3.48957748E-01 -3.30150180E-01 -3.05263054E-01 -2.95441498E-01
 -2.80877251E-01 -2.63143217E-01 -2.16030189E-01 -1.97510921E-01 -1.60051143E-01
  4.95883261E-02  9.07365227E-02  1.16453958E-01  1.81470055E-01  2.80326898E-01
  3.19228925E-01  3.29556620E-01  3.65409460E-01  3.70266941E-01  4.12874665E-01
  4.15965676E-01  4.21564819E-01  4.45734083E-01  4.68765779E-01  4.95874173E-01
  5.38773058E-01  5.70553716E-01  5.86759659E-01  6.10141453E-01  6.26520399E-01
  6.45744187E-01  6.92818534E-01  7.43022810E-01  8.06232555E-01  8.16036233E-01
Total SCF Density                          R   N=        1830
  2.06668595E+00 -2.05283818E-01  8.37298023E-01 -8.40418085E-04  3.01340504E-02
  6.04962992E-01 -2.15753022E-04  6.94815622E-03  3.05753410E-04  6.05359231E-01
 -4.98412193E-16 -5.01645622E-16  4.63998563E-17 -1.23499916E-16  7.68063508E-01
  2.58574577E-02 -6.76423104E-02  7.53914771E-02 -8.70674913E-02  1.39524274E-17
  2.06694239E+00 -6.82718638E-02  9.11484786E-02 -1.87788211E-01  2.16532328E-01
 -3.01103614E-16 -2.01989166E-01  8.17388544E-01 -7.79877919E-02  1.91618281E-01
 -1.85793248E-01  2.48210396E-01 -4.56554214E-16 -2.03753209E-03  1.12495096E-02
  6.06163663E-01  8.65792329E-02 -2.21454791E-01  2.38911593E-01 -2.53717878E-01
  1.17173696E-15 -4.61537010E-03  2.94908984E-02  8.36837072E-03  6.19703993E-01
 -1.71072280E-16  5.69713604E-17 -3.94707289E-16  4.27424390E-16  4.77641604E-01
  2.10042445E-16  2.41420387E-16  2.88241245E-16 -4.56403190E-17  7.96345922E-01
 -4.76928535E-03  1.42619639E-02 -2.06858936E-02  8.93173384E-03 -3.29686490E-16
  2.54093046E-02 -6.63449340E-02  1.13505208E-01  2.41478213E-02  3.88785337E-18
  2.06686974E+00  1.44931798E-02 -3.27140694E-02  7.96203430E-02 -2.43570033E-02
 -1.60804897E-17 -6.63100041E-02  8.60035967E-02 -2.84370650E-01 -6.73895910E-02
  1.37701332E-16 -2.01527248E-01  8.15503264E-01  2.37688085E-02 -8.34175689E-02
  8.28195427E-02 -4.56528699E-02  3.49761170E-16 -1.13739010E-01  2.87682201E-01
 -4.47487513E-01 -8.92655613E-02 -4.28089538E-17  3.66263115E-03 -2.17061926E-02
  6.13324350E-01 -6.21501472E-03  3.26816855E-02 -4.48071955E-03  2.45166918E-02
  5.61767409E-16 -2.21571614E-02  4.90893080E-02 -1.00707349E-01 -1.20159239E-03
  1.16647665E-15 -3.78097848E-03  2.42552272E-02 -1.27263562E-02  6.16915048E-01
  6.49431666E-16 -4.28992611E-16 -6.96913468E-18 -7.71648964E-16 -6.08647150E-02
  1.74843802E-16  3.59991478E-17  2.75520763E-16  1.23832907E-16  5.19364347E-01
  2.31401017E-16 -1.35750137E-16 -3.09480450E-16  7.08669439E-16  7.94466485E-01
 -4.48826376E-03  1.55106438E-02 -1.31778321E-02 -2.96557908E-03  2.97943767E-17
 -4.86753026E-03  1.48969812E-02 -1.98718467E-02 -1.47624050E-02  1.81993840E-16
  2.60620143E-02 -6.89803139E-02  3.86806494E-02  1.08648931E-01 -4.20940114E-16
  2.06668595E+00  1.55106438E-02 -5.26339628E-02  4.90903404E-02  1.14106597E-02
  5.21831023E-16  1.46345093E-02 -3.42020878E-02  6.57082401E-02  6.13350085E-02
 -5.46602919E-16 -6.82432512E-02  9.30453814E-02 -9.29110208E-02 -2.70892059E-01
  6.75687812E-16 -2.05283818E-01  8.37298023E-01  1.31778321E-02 -4.90903404E-02
  4.23756710E-02  1.90175835E-02 -5.91585251E-16  1.51628355E-02 -6.21923520E-02
  5.41307360E-02  1.73044176E-02 -1.14895158E-16 -3.45189021E-02  8.50610228E-02
 -1.66059755E-02 -1.47607959E-01 -3.73815467E-16  8.40418085E-04 -3.01340504E-02
  6.04962992E-01  2.96557908E-03 -1.14106597E-02  1.90175835E-02 -5.45345933E-02
 -4.95197643E-16  1.63287229E-02 -5.36883318E-02  5.91030392E-02  5.03608563E-02
 -9.85938863E-17 -1.09624901E-01  2.72387276E-01 -1.48614238E-01 -4.20396094E-01
  1.92872325E-15  2.15753022E-04 -6.94815622E-03  3.05753410E-04  6.05359231E-01
  2.03376405E-16 -2.77752595E-16 -1.26054039E-16 -1.30928830E-16 -3.14568254E-01
  6.88253222E-17 -5.28743213E-16 -4.71601625E-16 -1.09932376E-15 -5.88147911E-02
  3.20711279E-16 -1.15852360E-15  5.67388466E-16  2.92796676E-15  4.79055463E-01
 -2.67461019E-16  1.97044033E-15 -9.78678329E-16  1.17737751E-16  7.68063508E-01
 -4.86753026E-03  1.46345093E-02 -1.51628355E-02 -1.63287229E-02 -2.59109321E-16
 -4.39789736E-03  1.50470380E-02 -3.84948190E-03 -1.20847682E-02  2.43186732E-16
 -5.22609485E-03  1.67503568E-02  2.44445053E-03 -2.41580414E-02  2.36770773E-16
  2.58574577E-02 -6.76423104E-02 -7.53914771E-02  8.70674913E-02 -4.57103284E-16
  2.06694239E+00  1.48969812E-02 -3.42020878E-02  6.21923520E-02  5.36883318E-02
  2.88404620E-16  1.50470380E-02 -5.05254076E-02  1.37403543E-02  4.44990397E-02
  2.19004220E-16  1.67552104E-02 -4.38926575E-02 -1.71426221E-02  8.92734908E-02
  7.36866548E-17 -6.82718638E-02  9.11484786E-02  1.87788211E-01 -2.16532328E-01
  6.28278734E-16 -2.01989166E-01  8.17388544E-01  1.98718467E-02 -6.57082401E-02
  5.41307360E-02  5.91030392E-02  5.64304774E-16  3.84948190E-03 -1.37403543E-02
 -4.19040108E-02  2.98155100E-02 -4.62548449E-19 -7.24879869E-03  1.93242325E-02
  1.47646487E-02 -3.89650949E-02  2.96775996E-16  7.79877919E-02 -1.91618281E-01
 -1.85793248E-01  2.48210396E-01 -7.99374663E-17  2.03753209E-03 -1.12495096E-02
  6.06163663E-01  1.47624050E-02 -6.13350085E-02  1.73044176E-02  5.03608563E-02
  5.51945337E-16  1.20847682E-02 -4.44990397E-02  2.98155100E-02  3.14368425E-02
  5.92992313E-16  2.31309537E-02 -8.84105095E-02  6.98463670E-03  8.99314817E-02
  3.94194752E-16 -8.65792329E-02  2.21454791E-01  2.38911593E-01 -2.53717878E-01
  1.65785470E-15  4.61537010E-03 -2.94908984E-02  8.36837072E-03  6.19703993E-01
 -1.06217140E-16  3.68142322E-16  2.31799966E-16  1.25001050E-15 -5.88147911E-02
 -1.13906332E-16 -1.13396312E-15 -1.68768050E-15 -3.72135717E-16 -3.25088162E-01
  5.70699929E-16 -1.88139795E-15  7.91716755E-16  1.08066500E-15 -5.26046275E-02
 -5.61895594E-16  4.36810086E-15 -2.39187159E-15  2.62814513E-15  4.77641604E-01
  6.99955619E-16 -9.54423395E-16  1.11082937E-15  3.48811812E-16  7.96345922E-01
  2.60620143E-02 -6.82432512E-02  3.45189021E-02  1.09624901E-01 -8.23328058E-17
 -5.22609485E-03  1.67552104E-02  7.24879869E-03 -2.31309537E-02  2.18835211E-16
 -4.37366438E-03  1.49426993E-02  8.25555476E-03 -9.74120386E-03  5.33850499E-16
 -4.76928535E-03  1.42619639E-02  2.06858936E-02 -8.93173384E-03 -5.59109907E-17
  2.54093046E-02 -6.63449340E-02 -1.13505208E-01 -2.41478213E-02 -2.62567353E-16
  2.06686974E+00 -6.89803139E-02  9.30453814E-02 -8.50610228E-02 -2.72387276E-01
  5.53308508E-17  1.67503568E-02 -4.38926575E-02 -1.93242325E-02  8.84105095E-02
 -1.20771939E-15  1.49426993E-02 -5.00914605E-02 -2.99247788E-02  3.61106635E-02
 -1.31294770E-15  1.44931798E-02 -3.27140694E-02 -7.96203430E-02  2.43570033E-02
  6.46360345E-17 -6.63100041E-02  8.60035967E-02  2.84370650E-01  6.73895910E-02
  1.34628018E-15 -2.01527248E-01  8.15503264E-01 -3.86806494E-02  9.29110208E-02
 -1.66059755E-02 -1.48614238E-01  4.51043270E-16 -2.44445053E-03  1.71426221E-02
  1.47646487E-02  6.98463670E-03 -1.97456736E-17 -8.25555476E-03  2.99247788E-02
 -8.65668463E-03 -4.77366094E-02 -2.20869250E-17 -2.37688085E-02  8.34175689E-02
  8.28195427E-02 -4.56528699E-02  7.88022036E-16  1.13739010E-01 -2.87682201E-01
 -4.47487513E-01 -8.92655613E-02  1.31801454E-15 -3.66263115E-03  2.17061926E-02
  6.13324350E-01 -1.08648931E-01  2.70892059E-01 -1.47607959E-01 -4.20396094E-01
  1.77708735E-15  2.41580414E-02 -8.92734908E-02 -3.89650949E-02  8.99314817E-02
 -7.63733403E-17  9.74120386E-03 -3.61106635E-02 -4.77366094E-02 -1.64183594E-03
 -6.37903871E-16  6.21501472E-03 -3.26816855E-02 -4.48071955E-03  2.45166918E-02
 -2.80479615E-16  2.21571614E-02 -4.90893080E-02 -1.00707349E-01 -1.20159239E-03
  1.73458455E-15  3.78097848E-03 -2.42552272E-02 -1.27263562E-02  6.16915048E-01
 -5.36578816E-16 -1.82982591E-17  9.24235256E-17  3.69027536E-15  4.79055463E-01
  4.15947131E-16 -9.36733911E-16 -8.63141568E-16 -6.36896762E-16 -5.26046275E-02
  1.71783655E-16 -1.62326387E-15  5.67863039E-16  1.07064327E-15 -3.32022826E-01
 -7.54606574E-16  3.90208441E-15 -1.30116583E-15  5.58446840E-16 -6.08647150E-02
 -9.76782784E-18 -4.52959526E-16  8.07831343E-16  1.44473967E-15  5.19364347E-01
 -2.65341910E-16  1.03053578E-15  1.14119429E-15  8.75956057E-16  7.94466485E-01
  2.70175204E-02 -1.02685027E-01  3.17094785E-02 -1.24642130E-01  7.91298578E-16
 -1.13947414E-01  2.90925055E-01  1.74745517E-01  5.19825798E-01 -3.90274805E-16
  2.75021226E-02 -1.01844696E-01 -9.51388034E-02 -8.23798617E-02  5.99600062E-16
 -1.83002356E-02  6.85332718E-02  3.44477926E-02  9.24318271E-02  5.01052347E-16
 -2.17777509E-03  7.55292908E-03  4.02631645E-03  6.22473917E-03  1.36944784E-15
 -1.81634594E-02  6.84848965E-02  2.61441413E-02  9.42731439E-02  3.86603882E-16
  5.87060437E-01 -1.86102632E-02  7.03251418E-02 -6.61124521E-02  7.14943278E-02
 -9.44419839E-16  2.74072836E-02 -1.01534432E-01  1.19482989E-01 -3.65239678E-02
 -2.23500846E-16 -1.14376592E-01  2.91710362E-01 -3.64140107E-01  4.09825385E-01
 -8.31561809E-16  2.63712229E-02 -9.91710649E-02  1.78723012E-02 -1.26258917E-01
  3.03086461E-16 -1.82091194E-02  6.87288762E-02 -6.07783032E-02  7.54380945E-02
 -5.83288057E-16 -2.13129392E-03  7.42070103E-03 -6.04550526E-03  4.43307245E-03
  1.27405876E-16 -7.54132354E-02  5.87112421E-01 -1.83002356E-02  6.85332718E-02
 -3.44477926E-02 -9.24318271E-02  4.12613155E-16 -2.17777509E-03  7.55292908E-03
 -4.02631645E-03 -6.22473917E-03  2.51951972E-16 -1.81634594E-02  6.84848965E-02
 -2.61441413E-02 -9.42731439E-02  7.56564943E-16  2.70175204E-02 -1.02685027E-01
 -3.17094785E-02  1.24642130E-01  1.88780727E-16 -1.13947414E-01  2.90925055E-01
 -1.74745517E-01 -5.19825798E-01  1.52570398E-15  2.75021226E-02 -1.01844696E-01
  9.51388034E-02  8.23798617E-02  2.84831388E-16  1.93767850E-02 -4.60804656E-02
  5.87060437E-01  2.63712229E-02 -9.91710649E-02 -1.78723012E-02  1.26258917E-01
  1.42825291E-16 -1.82091194E-02  6.87288762E-02  6.07783032E-02 -7.54380945E-02
  7.28031254E-16 -2.13129392E-03  7.42070103E-03  6.04550526E-03 -4.43307245E-03
  2.07412822E-16 -1.86102632E-02  7.03251418E-02  6.61124521E-02 -7.14943278E-02
  4.41265003E-16  2.74072836E-02 -1.01534432E-01 -1.19482989E-01  3.65239678E-02
 -1.51886027E-15 -1.14376592E-01  2.91710362E-01  3.64140107E-01 -4.09825385E-01
 -1.56005695E-16 -4.60804656E-02  1.89258502E-02 -7.54132354E-02  5.87112421E-01
  9.87766697E-05 -2.34396505E-04  1.05678770E-03 -4.15417997E-04  3.14788068E-16
  3.06037626E-03 -1.11695809E-02  1.52001265E-02  3.85660436E-03  9.88217473E-17
 -5.03508213E-03  1.70182043E-02 -1.77986334E-02 -1.44146772E-02  2.00993896E-16
  1.94906206E-02 -5.44272827E-02  9.89915116E-02  2.10881756E-02  3.94086112E-16
 -5.64465761E-03  1.99992722E-02 -2.31881218E-02  2.93743645E-03  7.03356987E-16
  3.32128405E-03 -1.23187818E-02  1.65388181E-02  2.88984088E-03  2.40279964E-16
  6.67530619E-03  1.28714196E-02  1.50095446E-02  6.16709617E-03  2.06764459E+00
  4.44446585E-04 -1.95607363E-03 -8.50538495E-04  2.22341282E-03 -9.92312114E-16
 -1.18533326E-02  4.07045809E-02 -6.32009113E-02 -1.64285828E-02 -8.20808704E-16
  1.80322952E-02 -5.47149023E-02  7.43016998E-02  5.15109090E-02 -1.25050086E-15
 -5.46932097E-02  9.76345002E-02 -2.83063360E-01 -5.86277542E-02 -2.17521037E-15
  2.20695790E-02 -7.21503046E-02  9.93416751E-02 -9.68173990E-03 -2.21368128E-15
 -1.34434063E-02  4.72902880E-02 -7.13548126E-02 -1.18600439E-02 -1.71307286E-15
 -2.78654354E-02 -5.09588662E-02 -5.97801079E-02 -2.74742003E-02 -2.07421422E-01
  8.37944923E-01 -2.22048828E-03  9.13571135E-03 -9.38313335E-03 -3.02644461E-03
 -5.00933874E-16 -1.45867467E-02  5.73426184E-02 -7.45290849E-02 -1.61526151E-02
  2.43602869E-16  1.92182488E-02 -7.00614259E-02  6.06281417E-02  6.91527032E-02
 -1.07731980E-16 -9.93960828E-02  2.87409660E-01 -4.63154337E-01 -9.40413297E-02
 -1.29679843E-15  2.23485977E-02 -8.35362953E-02  8.78038759E-02 -4.93042381E-02
 -2.04432245E-15 -1.49397569E-02  5.95205372E-02 -7.48897071E-02 -1.40042835E-02
 -2.23196345E-15 -3.57829809E-02 -6.06130347E-02 -5.85642140E-02 -3.70227908E-02
  1.94534407E-04  3.41128490E-02  5.98042824E-01 -1.36651051E-03  5.90281582E-03
 -3.77730301E-03 -2.99292122E-03  1.57622748E-15 -5.48926647E-03  2.36662284E-02
 -2.35899119E-02 -1.81814760E-03  1.54094308E-15  1.36924701E-02 -5.53561219E-02
  2.32114766E-02  4.21542067E-02  1.08911996E-15 -2.36553131E-02  7.91220915E-02
 -1.10851068E-01 -1.77709335E-02  4.24779135E-16 -8.93893263E-03  4.02797244E-02
 -1.10291342E-02 -1.08926930E-02 -2.38572782E-15  1.98974036E-04 -2.41010530E-03
 -4.44551815E-03  2.95959274E-03 -1.27903064E-15 -1.11185944E-02 -2.92932750E-02
  3.85766513E-03 -7.45935906E-03  4.86372930E-03 -3.60170766E-02 -4.75417537E-04
  6.18851976E-01 -4.91713052E-16 -5.91594923E-16 -3.28741044E-16 -4.99238641E-16
  1.29359782E-02 -8.45449449E-18 -1.18346874E-16  1.36924596E-15 -8.28081416E-16
 -4.45391144E-02 -8.28955582E-16  2.17550748E-15  5.15530989E-16 -7.22247819E-17
 -4.37604305E-02  3.10519604E-16 -1.08216438E-15  3.17920836E-16 -1.30313736E-15
  1.62968916E-01  5.44936433E-17  3.14083846E-16  1.15393760E-16  7.91268521E-16
 -4.13575069E-02  4.90886363E-16 -7.35237487E-16 -5.98538936E-16  9.28691996E-17
 -3.08823262E-02  3.01967713E-16  7.48489361E-17 -1.83509015E-15  1.31784420E-15
  8.78135446E-16 -1.47249849E-15  2.03435035E-16  1.80573018E-15  7.82737328E-01
 -4.71842730E-04  1.91717628E-03 -1.75942184E-03  1.04086294E-03 -2.04572839E-16
  9.82702618E-04 -3.34291962E-03  3.90530995E-03  6.07274249E-04  1.23540830E-16
 -3.64440471E-03  1.24300978E-02 -1.19066229E-02  1.67179440E-03 -2.26256537E-16
 -4.86002196E-03  1.72394803E-02 -2.28941997E-02  4.61285397E-03  5.53264531E-16
  3.09844709E-03 -1.17004966E-02  1.00856145E-02 -5.73707869E-03  1.29567561E-16
 -1.33684656E-03  5.41190574E-03 -6.00249762E-03 -6.19995514E-04 -1.76007536E-16
 -3.74495148E-04  7.62695999E-03 -3.27506182E-03 -2.99316758E-03  3.01259739E-02
 -7.71357669E-02  8.54979226E-02 -9.21625306E-02 -5.19059940E-16  2.06738079E+00
  1.78952914E-03 -6.95439732E-03  7.10874630E-03 -4.57158208E-03  2.51130828E-16
 -3.76710525E-03  1.23273705E-02 -1.61653454E-02 -1.91618170E-03 -8.83562085E-17
  1.20665147E-02 -4.10132332E-02  4.54839797E-02 -6.33859966E-03  2.49103549E-16
  1.39684971E-02 -4.31973279E-02  7.42749814E-02 -2.37675271E-02  1.43579899E-15
 -1.08613615E-02  3.75503229E-02 -3.97212219E-02  1.94563623E-02  2.10321346E-15
  5.00211398E-03 -1.90363813E-02  2.38587645E-02  1.33765698E-03  1.79866942E-15
  5.83638680E-04 -2.74617332E-02  1.06795979E-02  1.17645280E-02 -7.73520340E-02
  9.57185533E-02 -1.95088590E-01  2.21132381E-01 -2.80960282E-16 -2.02063653E-01
  8.11266132E-01  1.08552533E-03 -5.35715227E-03  3.15577966E-03 -6.50206035E-04
 -4.89950917E-16 -1.79376456E-03  5.65139065E-03 -5.28213552E-03 -4.40224652E-03
 -6.61897876E-16  9.69808835E-03 -3.70915575E-02  2.80295524E-02  9.89999742E-04
 -7.08750579E-16  2.21724199E-02 -9.23694664E-02  9.22935010E-02 -1.71377793E-03
  3.40469079E-16 -9.86833025E-03  4.04698701E-02 -2.81431387E-02  2.46654154E-02
 -2.25461292E-16  4.38431688E-03 -1.95910577E-02  1.87288812E-02  4.24568306E-03
  6.91860627E-16  9.07967340E-04  5.13948261E-03  1.29372929E-02  1.10031169E-02
 -8.97366113E-02  2.13059711E-01 -1.90858735E-01  2.38007826E-01 -6.78163658E-16
  2.92750608E-03 -3.20634031E-02  6.19897195E-01  2.39732309E-03 -9.78981088E-03
  7.97114029E-03 -9.31863582E-03 -3.04312521E-16 -3.81908899E-03  1.52901712E-02
 -2.07726206E-02  8.71662275E-04  5.90533998E-17  7.37383405E-03 -2.98015178E-02
  3.79740022E-02 -5.16442887E-02 -4.21984081E-16 -3.00922255E-03  4.73380617E-03
 -3.39949005E-02  1.10938585E-02 -9.95861976E-17  9.01703185E-03 -3.51717116E-02
  3.37732006E-02 -1.71516839E-02  3.17340197E-17 -3.15890497E-03  1.21825166E-02
 -1.75334333E-02 -2.53592075E-03  2.40876298E-16  7.57290296E-03 -3.40878188E-02
 -2.05102737E-03 -1.04174437E-02  8.71037820E-02 -2.01290277E-01  2.46960735E-01
 -2.11100607E-01  1.68168830E-15 -3.34596879E-03  3.37857285E-02  1.26027314E-02
  6.21462728E-01 -2.82714125E-16 -6.98386246E-16  4.86068860E-16 -1.23180344E-15
  1.46323347E-01  7.57904933E-16 -5.38658918E-16  1.08670154E-15  3.55690584E-16
  9.82623106E-03 -7.01812742E-16  2.16771461E-15  5.98963852E-16 -1.34083983E-15
 -1.74877640E-01  1.28502794E-16 -1.13708173E-15 -2.85040523E-17 -9.97160042E-16
 -6.53404130E-02  1.65290475E-17  7.52314469E-16 -7.17172952E-16 -1.19295905E-15
 -1.84011516E-01  5.25620467E-17 -1.21735876E-15  1.21325232E-17  5.62039048E-16
  1.21082153E-02  6.25174707E-16 -9.77667851E-16 -2.15085078E-16  1.09852596E-15
 -6.29427205E-16 -1.87161824E-16 -1.70415158E-16  4.05203797E-15  7.67199985E-01
 -6.52906927E-16 -2.22251775E-16 -3.66624007E-16 -1.01646112E-15  8.24069716E-01
  1.30658804E-03 -6.56184960E-03  4.00818118E-03 -5.41861305E-03  1.03740239E-15
  6.66506746E-03 -2.72697762E-02  3.05069790E-02  9.30180271E-03  1.72137497E-15
 -1.49009438E-02  5.64475168E-02 -2.80988484E-02 -7.70389280E-02  1.78339784E-15
  2.74299169E-02 -1.11747842E-01  1.18193734E-01  7.11510603E-02  7.07183046E-16
  1.17027969E-02 -4.36657240E-02  3.46591134E-02 -1.32330085E-02 -1.04715076E-15
 -1.26363072E-03  3.00883881E-03 -3.10447605E-03  5.95582926E-03 -1.31057493E-15
  2.41399355E-02  1.31265822E-02  1.80855057E-02 -3.87067714E-03 -1.14054827E-01
  2.85835665E-01 -1.36453046E-01 -5.30808812E-01  2.90701329E-15  2.92184051E-02
 -9.61897740E-02 -2.65719693E-02  1.20509245E-01  1.14749417E-15  5.88306072E-01
 -1.95010679E-03  8.50399971E-03 -6.42632352E-03  1.70103467E-03 -7.91824710E-16
 -1.92604501E-04  1.66208038E-03 -2.56691010E-03  1.59227600E-04 -2.00861502E-16
 -4.43725274E-03  1.69454250E-02 -1.81565164E-02  2.48830824E-02 -1.92557226E-16
 -2.23933587E-02  9.38690410E-02 -1.18456869E-01 -1.29436691E-02 -1.33095487E-15
  6.08022362E-03 -2.41818305E-02  2.38223816E-02 -2.42047709E-02 -7.08160305E-16
 -4.18918384E-03  1.76360104E-02 -2.06703047E-02 -2.64645295E-03 -1.40588933E-15
 -8.07399649E-03 -6.09225946E-03 -1.20925265E-02 -1.27696031E-02  2.84178751E-02
 -8.83474683E-02  1.08870933E-01 -2.87745347E-02 -2.27478315E-16 -1.12228496E-01
  2.82231977E-01 -5.36137002E-01 -1.33082010E-01  6.40600277E-16 -9.12473372E-02
  5.85957846E-01  1.44807483E-03 -7.48160487E-03  2.15018893E-03 -3.66571358E-04
 -2.24470223E-16  1.84026134E-04  9.82610678E-05  6.45933532E-03 -2.69157613E-03
  2.57138349E-16  7.37039751E-03 -2.55170341E-02  1.39056875E-02 -3.75336683E-02
 -4.20526256E-16  1.62978793E-02 -6.79375206E-02  8.27097034E-02  3.02500508E-03
 -6.48115849E-16 -1.20817139E-03  1.79609584E-03 -8.68268252E-03  1.43277526E-02
 -1.50563133E-15  1.75999499E-03 -6.98761996E-03  8.92449554E-03 -1.59847397E-04
 -7.46488266E-16  8.80390630E-03  8.66635569E-03  5.38474119E-03  7.34209140E-03
  2.50046334E-02 -8.09179061E-02  2.91809374E-02 -1.18426624E-01  9.98236978E-16
 -1.12566427E-01  2.81422779E-01  1.48449823E-01  5.31968821E-01 -1.18294838E-15
  1.41387846E-01 -1.60484114E-01  5.89063022E-01  1.94906206E-02 -5.44272827E-02
 -9.89915116E-02 -2.10881756E-02 -4.81209383E-16 -5.64465761E-03  1.99992722E-02
  2.31881218E-02 -2.93743645E-03  2.77861318E-16  3.32128405E-03 -1.23187818E-02
 -1.65388181E-02 -2.88984088E-03  6.75128226E-16  9.87766697E-05 -2.34396505E-04
 -1.05678770E-03  4.15417997E-04 -6.50436899E-16  3.06037626E-03 -1.11695809E-02
 -1.52001265E-02 -3.85660436E-03  3.51753185E-16 -5.03508213E-03  1.70182043E-02
  1.77986334E-02  1.44146772E-02  4.63417126E-16  1.50095446E-02  6.16709617E-03
  6.67530619E-03  1.28714196E-02  6.52489012E-04 -3.11681778E-03 -2.57936165E-03
 -2.10883274E-04 -6.21486758E-16  9.22209485E-05 -3.80326524E-04 -7.46560053E-05
 -1.37905969E-03 -5.61012181E-17  4.26304383E-04  5.75084142E-05  3.51870595E-05
  2.06764459E+00 -5.46932097E-02  9.76345002E-02  2.83063360E-01  5.86277542E-02
  2.24417089E-17  2.20695790E-02 -7.21503046E-02 -9.93416751E-02  9.68173990E-03
  4.06088513E-16 -1.34434063E-02  4.72902880E-02  7.13548126E-02  1.18600439E-02
  4.19890734E-16  4.44446585E-04 -1.95607363E-03  8.50538495E-04 -2.22341282E-03
  2.81632687E-18 -1.18533326E-02  4.07045809E-02  6.32009113E-02  1.64285828E-02
 -6.70895241E-16  1.80322952E-02 -5.47149023E-02 -7.43016998E-02 -5.15109090E-02
 -6.67053092E-16 -5.97801079E-02 -2.74742003E-02 -2.78654354E-02 -5.09588662E-02
 -3.11681778E-03  1.43268430E-02  1.26558331E-02  1.23963567E-03  7.28647145E-16
 -3.70509587E-04  1.52179883E-03  2.75153060E-04  6.31719171E-03  9.06374453E-16
 -2.00383959E-03 -4.71326394E-05  3.29320606E-05 -2.07421422E-01  8.37944923E-01
  9.93960828E-02 -2.87409660E-01 -4.63154337E-01 -9.40413297E-02 -6.94035165E-18
 -2.23485977E-02  8.35362953E-02  8.78038759E-02 -4.93042381E-02  1.10053594E-16
  1.49397569E-02 -5.95205372E-02 -7.48897071E-02 -1.40042835E-02 -4.98448872E-17
  2.22048828E-03 -9.13571135E-03 -9.38313335E-03 -3.02644461E-03 -1.67289595E-16
  1.45867467E-02 -5.73426184E-02 -7.45290849E-02 -1.61526151E-02 -9.69777376E-17
 -1.92182488E-02  7.00614259E-02  6.06281417E-02  6.91527032E-02  5.76175185E-17
  5.85642140E-02  3.70227908E-02  3.57829809E-02  6.06130347E-02  2.57936165E-03
 -1.26558331E-02 -8.81008923E-03  2.61124599E-04 -1.92829085E-16  5.98339426E-04
 -2.51836328E-03 -5.82600271E-04 -7.50301829E-03 -4.90570343E-16  4.73962109E-04
  1.37508419E-03 -1.76786923E-04 -1.94534407E-04 -3.41128490E-02  5.98042824E-01
  2.36553131E-02 -7.91220915E-02 -1.10851068E-01 -1.77709335E-02 -1.99324845E-17
  8.93893263E-03 -4.02797244E-02 -1.10291342E-02 -1.08926930E-02 -7.38187537E-16
 -1.98974036E-04  2.41010530E-03 -4.44551815E-03  2.95959274E-03 -6.03949128E-16
  1.36651051E-03 -5.90281582E-03 -3.77730301E-03 -2.99292122E-03  2.55763523E-16
  5.48926647E-03 -2.36662284E-02 -2.35899119E-02 -1.81814760E-03  8.54602307E-16
 -1.36924701E-02  5.53561219E-02  2.32114766E-02  4.21542067E-02  3.32197316E-16
 -3.85766513E-03  7.45935906E-03  1.11185944E-02  2.92932750E-02  2.10883274E-04
 -1.23963567E-03  2.61124599E-04  6.53209012E-04 -6.67243017E-16  4.42306454E-05
  2.17586144E-05 -1.68049042E-04 -1.50800351E-03 -4.89408845E-16 -8.09014562E-04
  5.94130728E-04 -9.47132807E-04 -4.86372930E-03  3.60170766E-02 -4.75417537E-04
  6.18851976E-01  8.87924570E-16 -1.63365066E-15 -2.77970542E-16 -2.90664273E-15
  1.62968916E-01  6.69825624E-16  1.23360523E-15  1.27544721E-15 -3.78435567E-16
 -4.13575069E-02 -6.83510611E-16  2.03809009E-15 -7.90245939E-16 -2.15984166E-16
 -3.08823262E-02  4.60019464E-16 -2.20103462E-15  8.49406950E-16 -1.62116685E-15
  1.29359782E-02 -3.70184738E-16  1.31894333E-15  7.45317675E-17 -1.24162928E-16
 -4.45391144E-02  2.25441315E-16 -2.26247526E-15 -1.89004306E-16 -7.84212526E-16
 -4.37604305E-02 -2.42585297E-16 -1.23668600E-15 -9.38039312E-17  1.42955285E-15
  3.38158054E-16 -7.25290121E-16  1.14054007E-15  3.40867241E-15  1.58718375E-02
  1.09187244E-15 -1.24937344E-15 -5.42608783E-16 -4.88475937E-16 -3.57699692E-03
  3.05479931E-15 -1.77085103E-15  1.26387377E-15  4.97260949E-16  6.63702405E-16
 -2.79360031E-16 -7.41089621E-16  7.82737328E-01 -4.86002196E-03  1.72394803E-02
  2.28941997E-02 -4.61285397E-03 -1.16900057E-16  3.09844709E-03 -1.17004966E-02
 -1.00856145E-02  5.73707869E-03  4.19581609E-17 -1.33684656E-03  5.41190574E-03
  6.00249762E-03  6.19995514E-04  1.06358669E-16 -4.71842730E-04  1.91717628E-03
  1.75942184E-03 -1.04086294E-03 -2.52268567E-16  9.82702618E-04 -3.34291962E-03
 -3.90530995E-03 -6.07274249E-04 -1.15408027E-16 -3.64440471E-03  1.24300978E-02
  1.19066229E-02 -1.67179440E-03 -2.09643806E-16 -3.27506182E-03 -2.99316758E-03
 -3.74495148E-04  7.62695999E-03  9.22209485E-05 -3.70509587E-04 -5.98339426E-04
 -4.42306454E-05  5.75035138E-16 -1.73774723E-04  7.25954881E-04  4.34070030E-04
  2.11463567E-04 -1.31647914E-16 -1.88323417E-04 -5.16965473E-04  1.47096163E-04
  3.01259739E-02 -7.71357669E-02 -8.54979226E-02  9.21625306E-02  1.55142249E-16
  2.06738079E+00  1.39684971E-02 -4.31973279E-02 -7.42749814E-02  2.37675271E-02
 -5.88054100E-16 -1.08613615E-02  3.75503229E-02  3.97212219E-02 -1.94563623E-02
 -3.30693823E-16  5.00211398E-03 -1.90363813E-02 -2.38587645E-02 -1.33765698E-03
 -2.60082496E-16  1.78952914E-03 -6.95439732E-03 -7.10874630E-03  4.57158208E-03
 -2.70925157E-16 -3.76710525E-03  1.23273705E-02  1.61653454E-02  1.91618170E-03
  3.30069581E-16  1.20665147E-02 -4.10132332E-02 -4.54839797E-02  6.33859966E-03
  3.71653143E-16  1.06795979E-02  1.17645280E-02  5.83638680E-04 -2.74617332E-02
 -3.80326524E-04  1.52179883E-03  2.51836328E-03 -2.17586144E-05 -5.89134769E-16
  7.25954881E-04 -2.93610105E-03 -1.98362185E-03 -7.88241509E-04 -3.47845162E-16
  8.08837887E-04  2.17730737E-03 -7.99711864E-04 -7.73520340E-02  9.57185533E-02
  1.95088590E-01 -2.21132381E-01 -1.34018393E-15 -2.02063653E-01  8.11266132E-01
 -2.21724199E-02  9.23694664E-02  9.22935010E-02 -1.71377793E-03  1.74953782E-16
  9.86833025E-03 -4.04698701E-02 -2.81431387E-02  2.46654154E-02  5.19783158E-16
 -4.38431688E-03  1.95910577E-02  1.87288812E-02  4.24568306E-03  1.32302623E-16
 -1.08552533E-03  5.35715227E-03  3.15577966E-03 -6.50206035E-04 -5.90109218E-16
  1.79376456E-03 -5.65139065E-03 -5.28213552E-03 -4.40224652E-03 -1.47170633E-15
 -9.69808835E-03  3.70915575E-02  2.80295524E-02  9.89999742E-04 -1.21715874E-15
 -1.29372929E-02 -1.10031169E-02 -9.07967340E-04 -5.13948261E-03  7.46560053E-05
 -2.75153060E-04 -5.82600271E-04 -1.68049042E-04  5.65559674E-16 -4.34070030E-04
  1.98362185E-03  6.56804399E-04  1.14966557E-03  1.30918168E-15 -5.10530614E-04
 -1.14475852E-03 -9.33693394E-05  8.97366113E-02 -2.13059711E-01 -1.90858735E-01
  2.38007826E-01 -4.35834172E-16 -2.92750608E-03  3.20634031E-02  6.19897195E-01
  3.00922255E-03 -4.73380617E-03 -3.39949005E-02  1.10938585E-02 -4.95550809E-16
 -9.01703185E-03  3.51717116E-02  3.37732006E-02 -1.71516839E-02 -6.51749343E-16
  3.15890497E-03 -1.21825166E-02 -1.75334333E-02 -2.53592075E-03 -7.07616144E-17
 -2.39732309E-03  9.78981088E-03  7.97114029E-03 -9.31863582E-03  4.83557416E-16
  3.81908899E-03 -1.52901712E-02 -2.07726206E-02  8.71662275E-04  2.67245881E-16
 -7.37383405E-03  2.98015178E-02  3.79740022E-02 -5.16442887E-02 -2.67739569E-17
  2.05102737E-03  1.04174437E-02 -7.57290296E-03  3.40878188E-02  1.37905969E-03
 -6.31719171E-03 -7.50301829E-03 -1.50800351E-03  1.39649500E-16 -2.11463567E-04
  7.88241509E-04  1.14966557E-03 -2.95316194E-03 -3.63057139E-16 -4.80597211E-05
 -1.54756561E-03  9.94679115E-04 -8.71037820E-02  2.01290277E-01  2.46960735E-01
 -2.11100607E-01  1.41058155E-15  3.34596879E-03 -3.37857285E-02  1.26027314E-02
  6.21462728E-01 -3.46133608E-16 -7.82373372E-16  2.23000653E-16 -2.95943449E-15
 -6.53404130E-02 -4.05288636E-16  1.36317938E-15  1.20053265E-15 -5.54393555E-16
 -1.84011516E-01  3.18921404E-17  2.04030638E-15 -6.25311924E-16 -2.49676658E-16
  1.21082153E-02  2.81312789E-16 -1.75948558E-15  7.29287071E-16 -1.37490474E-15
  1.46323347E-01  1.40908874E-16  4.91008257E-16  4.08662812E-16  7.29345730E-16
  9.82623106E-03  3.62792578E-16 -2.41376322E-15 -6.87667772E-16 -6.18280064E-16
 -1.74877640E-01 -2.69640388E-16 -1.34215330E-15 -1.26701513E-15  7.52830349E-16
 -4.68652276E-16 -7.79511216E-16  1.41520410E-15  3.42303845E-15 -3.57699692E-03
  9.60074754E-18 -4.93297464E-16 -1.85893225E-15 -1.39742731E-15 -7.55600086E-02
  2.14262766E-15  7.50590618E-17  3.28258632E-16  2.07597963E-16  8.15367547E-16
 -1.70549477E-15  8.28025056E-16  7.67199985E-01  8.47772031E-16 -1.68106314E-15
  1.30016173E-16 -1.47749981E-16  8.24069716E-01  2.74299169E-02 -1.11747842E-01
 -1.18193734E-01 -7.11510603E-02  3.41232949E-16  1.17027969E-02 -4.36657240E-02
 -3.46591134E-02  1.32330085E-02  1.08635513E-16 -1.26363072E-03  3.00883881E-03
  3.10447605E-03 -5.95582926E-03  2.74307496E-17  1.30658804E-03 -6.56184960E-03
 -4.00818118E-03  5.41861305E-03 -1.64008234E-17  6.66506746E-03 -2.72697762E-02
 -3.05069790E-02 -9.30180271E-03 -4.99956401E-16 -1.49009438E-02  5.64475168E-02
  2.80988484E-02  7.70389280E-02 -8.48519111E-16  1.80855057E-02 -3.87067714E-03
  2.41399355E-02  1.31265822E-02  4.26304383E-04 -2.00383959E-03 -4.73962109E-04
  8.09014562E-04  3.12299820E-16 -1.88323417E-04  8.08837887E-04  5.10530614E-04
  4.80597211E-05  6.09893437E-16  4.33247011E-04 -2.02969874E-04  6.73112926E-06
 -1.14054827E-01  2.85835665E-01  1.36453046E-01  5.30808812E-01  3.31671258E-16
  2.92184051E-02 -9.61897740E-02  2.65719693E-02 -1.20509245E-01  1.36179017E-15
  5.88306072E-01 -2.23933587E-02  9.38690410E-02  1.18456869E-01  1.29436691E-02
  2.59234210E-16  6.08022361E-03 -2.41818305E-02 -2.38223816E-02  2.42047709E-02
 -4.53773694E-16 -4.18918384E-03  1.76360104E-02  2.06703047E-02  2.64645295E-03
  3.67103253E-17 -1.95010679E-03  8.50399971E-03  6.42632352E-03 -1.70103467E-03
  6.29849585E-16 -1.92604501E-04  1.66208038E-03  2.56691010E-03 -1.59227600E-04
  9.67499422E-16 -4.43725274E-03  1.69454250E-02  1.81565164E-02 -2.48830824E-02
  4.95635301E-16 -1.20925265E-02 -1.27696031E-02 -8.07399649E-03 -6.09225946E-03
  5.75084142E-05 -4.71326394E-05 -1.37508419E-03 -5.94130728E-04 -7.61907075E-16
 -5.16965473E-04  2.17730737E-03  1.14475852E-03  1.54756561E-03 -4.98443168E-16
 -2.02969874E-04 -1.75913347E-03  6.25850969E-04  2.84178751E-02 -8.83474683E-02
 -1.08870933E-01  2.87745347E-02  1.20542421E-15 -1.12228496E-01  2.82231977E-01
  5.36137002E-01  1.33082010E-01  1.29995023E-15 -9.12473372E-02  5.85957846E-01
  1.62978793E-02 -6.79375206E-02 -8.27097034E-02 -3.02500508E-03 -7.50523332E-17
 -1.20817139E-03  1.79609584E-03  8.68268252E-03 -1.43277526E-02 -2.49149331E-17
  1.75999499E-03 -6.98761996E-03 -8.92449554E-03  1.59847397E-04  2.07632656E-17
  1.44807483E-03 -7.48160487E-03 -2.15018893E-03  3.66571358E-04  7.53160902E-17
  1.84026134E-04  9.82610678E-05 -6.45933532E-03  2.69157613E-03 -9.26696874E-19
  7.37039751E-03 -2.55170341E-02 -1.39056875E-02  3.75336683E-02 -1.82508065E-16
  5.38474119E-03  7.34209140E-03  8.80390630E-03  8.66635569E-03  3.51870595E-05
  3.29320606E-05  1.76786923E-04  9.47132807E-04 -7.71397492E-17  1.47096163E-04
 -7.99711864E-04  9.33693394E-05 -9.94679115E-04  7.37007642E-17  6.73112926E-06
  6.25850969E-04 -4.76588727E-04  2.50046334E-02 -8.09179061E-02 -2.91809374E-02
  1.18426624E-01  4.28074906E-17 -1.12566427E-01  2.81422779E-01 -1.48449823E-01
 -5.31968821E-01  1.22585807E-15  1.41387846E-01 -1.60484114E-01  5.89063022E-01
Pure Switching                             I                1
Dipole_Data                                R   N=           3
 -1.24163840E-13  2.15311386E-13  4.02239128E-15
Quadrupole_Data                            R   N=           6
 -5.09653967E+01 -1.10138983E-01 -5.01437925E+01  5.52807735E-15 -2.00396937E-14
 -5.85742331E+01
Octapole_Data                              R   N=          10
 -3.27717554E-12  7.43433341E-13  1.68789713E-13  2.30426405E-13  2.85418861E-14
 -5.77602794E-16  5.97856821E-15 -3.28729028E-14  8.37626851E-14  1.71166810E-15
Hexadecapole_Data                          R   N=          15
 -1.81118066E+03  5.00674516E-01 -3.58427992E+02  3.47067467E+00 -3.29583663E+02
  7.93729527E-15 -4.30408414E-16 -5.10428505E-14  2.06245022E-13 -3.56712212E+02
 -6.69052917E-02 -7.21348291E+01 -1.04459730E-13  3.28050996E-13 -4.75456432E+01
