Jobname.Temp
SP        U                             STO-3G              
Number of atoms                            I               20
Charge                                     I                1
Multiplicity                               I                2
Number of electrons                        I               69
Number of alpha electrons                  I               35
Number of beta electrons                   I               34
Atomic numbers                             I   N=          20
           6           6           6           6           6           6
           1           1           1           1           6           6
           1           1           1           6           6           1
           1           1
Current cartesian coordinates              R   N=          60
  2.58290277E+00  5.26797819E-01 -7.59359635E-16  8.34595104E-01  2.50022004E+00
 -4.80205391E-15 -1.74784262E+00  1.97341116E+00 -4.04262387E-15 -2.58290277E+00
 -5.26797819E-01  7.59359635E-16 -8.34595104E-01 -2.50022004E+00  4.80205391E-15
  1.74784262E+00 -1.97341116E+00  4.04262387E-15  1.49330241E+00  4.47110415E+00
 -8.58735257E-15 -3.12599029E+00  3.52878408E+00 -7.22893583E-15 -1.49330241E+00
 -4.47110415E+00  8.58735257E-15  3.12599029E+00 -3.52878408E+00  7.22893583E-15
 -5.43458912E+00 -1.10885517E+00  1.59859989E-15 -7.18244858E+00  6.86446481E-01
 -2.09570409E-15 -5.90319098E+00 -3.13067751E+00  5.50345343E-15 -9.21608439E+00
  2.72072857E-01 -1.49860446E-15 -6.71384672E+00  2.70826884E+00 -6.00055767E-15
  5.43458912E+00  1.10885517E+00 -1.59859989E-15  7.18244858E+00 -6.86446481E-01
  2.09570409E-15  5.90319098E+00  3.13067751E+00 -5.50345343E-15  9.21608439E+00
 -2.72072857E-01  1.49860446E-15  6.71384672E+00 -2.70826884E+00  6.00055767E-15
Nuclear charges                            R   N=          20
  6.00000000E+00  6.00000000E+00  6.00000000E+00  6.00000000E+00  6.00000000E+00
  6.00000000E+00  1.00000000E+00  1.00000000E+00  1.00000000E+00  1.00000000E+00
  6.00000000E+00  6.00000000E+00  1.00000000E+00  1.00000000E+00  1.00000000E+00
  6.00000000E+00  6.00000000E+00  1.00000000E+00  1.00000000E+00  1.00000000E+00
Number of basis functions                  I               60
Number of contracted shells                I               30
Number of primitive shells                 I               90
Highest angular momentum                   I                1
Largest degree of contraction              I                3
Shell types                                I   N=          30
           0          -1           0          -1           0          -1
           0          -1           0          -1           0          -1
           0           0           0           0           0          -1
           0          -1           0           0           0           0
          -1           0          -1           0           0           0
Number of primitives per shell             I   N=          30
           3           3           3           3           3           3
           3           3           3           3           3           3
           3           3           3           3           3           3
           3           3           3           3           3           3
           3           3           3           3           3           3
Shell to atom map                          I   N=          30
           1           1           2           2           3           3
           4           4           5           5           6           6
           7           8           9          10          11          11
          12          12          13          14          15          16
          16          17          17          18          19          20
Primitive exponents                        R   N=          90
  7.16168370E+01  1.30450960E+01  3.53051220E+00  2.94124940E+00  6.83483100E-01
  2.22289900E-01  7.16168370E+01  1.30450960E+01  3.53051220E+00  2.94124940E+00
  6.83483100E-01  2.22289900E-01  7.16168370E+01  1.30450960E+01  3.53051220E+00
  2.94124940E+00  6.83483100E-01  2.22289900E-01  7.16168370E+01  1.30450960E+01
  3.53051220E+00  2.94124940E+00  6.83483100E-01  2.22289900E-01  7.16168370E+01
  1.30450960E+01  3.53051220E+00  2.94124940E+00  6.83483100E-01  2.22289900E-01
  7.16168370E+01  1.30450960E+01  3.53051220E+00  2.94124940E+00  6.83483100E-01
  2.22289900E-01  3.42525091E+00  6.23913730E-01  1.68855400E-01  3.42525091E+00
  6.23913730E-01  1.68855400E-01  3.42525091E+00  6.23913730E-01  1.68855400E-01
  3.42525091E+00  6.23913730E-01  1.68855400E-01  7.16168370E+01  1.30450960E+01
  3.53051220E+00  2.94124940E+00  6.83483100E-01  2.22289900E-01  7.16168370E+01
  1.30450960E+01  3.53051220E+00  2.94124940E+00  6.83483100E-01  2.22289900E-01
  3.42525091E+00  6.23913730E-01  1.68855400E-01  3.42525091E+00  6.23913730E-01
  1.68855400E-01  3.42525091E+00  6.23913730E-01  1.68855400E-01  7.16168370E+01
  1.30450960E+01  3.53051220E+00  2.94124940E+00  6.83483100E-01  2.22289900E-01
  7.16168370E+01  1.30450960E+01  3.53051220E+00  2.94124940E+00  6.83483100E-01
  2.22289900E-01  3.42525091E+00  6.23913730E-01  1.68855400E-01  3.42525091E+00
  6.23913730E-01  1.68855400E-01  3.42525091E+00  6.23913730E-01  1.68855400E-01
Contraction coefficients                   R   N=          90
  1.54328970E-01  5.35328140E-01  4.44634540E-01 -9.99672301E-02  3.99512830E-01
  7.00115471E-01  1.54328970E-01  5.35328140E-01  4.44634540E-01 -9.99672301E-02
  3.99512830E-01  7.00115471E-01  1.54328970E-01  5.35328140E-01  4.44634540E-01
 -9.99672301E-02  3.99512830E-01  7.00115471E-01  1.54328970E-01  5.35328140E-01
  4.44634540E-01 -9.99672301E-02  3.99512830E-01  7.00115471E-01  1.54328970E-01
  5.35328140E-01  4.44634540E-01 -9.99672301E-02  3.99512830E-01  7.00115471E-01
  1.54328970E-01  5.35328140E-01  4.44634540E-01 -9.99672301E-02  3.99512830E-01
  7.00115471E-01  1.54328971E-01  5.35328142E-01  4.44634542E-01  1.54328971E-01
  5.35328142E-01  4.44634542E-01  1.54328971E-01  5.35328142E-01  4.44634542E-01
  1.54328971E-01  5.35328142E-01  4.44634542E-01  1.54328970E-01  5.35328140E-01
  4.44634540E-01 -9.99672301E-02  3.99512830E-01  7.00115471E-01  1.54328970E-01
  5.35328140E-01  4.44634540E-01 -9.99672301E-02  3.99512830E-01  7.00115471E-01
  1.54328971E-01  5.35328142E-01  4.44634542E-01  1.54328971E-01  5.35328142E-01
  4.44634542E-01  1.54328971E-01  5.35328142E-01  4.44634542E-01  1.54328970E-01
  5.35328140E-01  4.44634540E-01 -9.99672301E-02  3.99512830E-01  7.00115471E-01
  1.54328970E-01  5.35328140E-01  4.44634540E-01 -9.99672301E-02  3.99512830E-01
  7.00115471E-01  1.54328971E-01  5.35328142E-01  4.44634542E-01  1.54328971E-01
  5.35328142E-01  4.44634542E-01  1.54328971E-01  5.35328142E-01  4.44634542E-01
P(S=P) Contraction coefficients            R   N=          90
  0.00000000E+00  0.00000000E+00  0.00000000E+00  1.55916272E-01  6.07683728E-01
  3.91957395E-01  0.00000000E+00  0.00000000E+00  0.00000000E+00  1.55916272E-01
  6.07683728E-01  3.91957395E-01  0.00000000E+00  0.00000000E+00  0.00000000E+00
  1.55916272E-01  6.07683728E-01  3.91957395E-01  0.00000000E+00  0.00000000E+00
  0.00000000E+00  1.55916272E-01  6.07683728E-01  3.91957395E-01  0.00000000E+00
  0.00000000E+00  0.00000000E+00  1.55916272E-01  6.07683728E-01  3.91957395E-01
  0.00000000E+00  0.00000000E+00  0.00000000E+00  1.55916272E-01  6.07683728E-01
  3.91957395E-01  0.00000000E+00  0.00000000E+00  0.00000000E+00  0.00000000E+00
  0.00000000E+00  0.00000000E+00  0.00000000E+00  0.00000000E+00  0.00000000E+00
  0.00000000E+00  0.00000000E+00  0.00000000E+00  0.00000000E+00  0.00000000E+00
  0.00000000E+00  1.55916272E-01  6.07683728E-01  3.91957395E-01  0.00000000E+00
  0.00000000E+00  0.00000000E+00  1.55916272E-01  6.07683728E-01  3.91957395E-01
  0.00000000E+00  0.00000000E+00  0.00000000E+00  0.00000000E+00  0.00000000E+00
  0.00000000E+00  0.00000000E+00  0.00000000E+00  0.00000000E+00  0.00000000E+00
  0.00000000E+00  0.00000000E+00  1.55916272E-01  6.07683728E-01  3.91957395E-01
  0.00000000E+00  0.00000000E+00  0.00000000E+00  1.55916272E-01  6.07683728E-01
  3.91957395E-01  0.00000000E+00  0.00000000E+00  0.00000000E+00  0.00000000E+00
  0.00000000E+00  0.00000000E+00  0.00000000E+00  0.00000000E+00  0.00000000E+00
Coordinates of each shell                  R   N=          90
  2.58290277E+00  5.26797819E-01 -7.59359635E-16  2.58290277E+00  5.26797819E-01
 -7.59359635E-16  8.34595104E-01  2.50022004E+00 -4.80205391E-15  8.34595104E-01
  2.50022004E+00 -4.80205391E-15 -1.74784262E+00  1.97341116E+00 -4.04262387E-15
 -1.74784262E+00  1.97341116E+00 -4.04262387E-15 -2.58290277E+00 -5.26797819E-01
  7.59359635E-16 -2.58290277E+00 -5.26797819E-01  7.59359635E-16 -8.34595104E-01
 -2.50022004E+00  4.80205391E-15 -8.34595104E-01 -2.50022004E+00  4.80205391E-15
  1.74784262E+00 -1.97341116E+00  4.04262387E-15  1.74784262E+00 -1.97341116E+00
  4.04262387E-15  1.49330241E+00  4.47110415E+00 -8.58735257E-15 -3.12599029E+00
  3.52878408E+00 -7.22893583E-15 -1.49330241E+00 -4.47110415E+00  8.58735257E-15
  3.12599029E+00 -3.52878408E+00  7.22893583E-15 -5.43458912E+00 -1.10885517E+00
  1.59859989E-15 -5.43458912E+00 -1.10885517E+00  1.59859989E-15 -7.18244858E+00
  6.86446481E-01 -2.09570409E-15 -7.18244858E+00  6.86446481E-01 -2.09570409E-15
 -5.90319098E+00 -3.13067751E+00  5.50345343E-15 -9.21608439E+00  2.72072857E-01
 -1.49860446E-15 -6.71384672E+00  2.70826884E+00 -6.00055767E-15  5.43458912E+00
  1.10885517E+00 -1.59859989E-15  5.43458912E+00  1.10885517E+00 -1.59859989E-15
  7.18244858E+00 -6.86446481E-01  2.09570409E-15  7.18244858E+00 -6.86446481E-01
  2.09570409E-15  5.90319098E+00  3.13067751E+00 -5.50345343E-15  9.21608439E+00
 -2.72072857E-01  1.49860446E-15  6.71384672E+00 -2.70826884E+00  6.00055767E-15
Orthonormalization Matrix                  R   N=        1830
 -1.22930373E-03 -3.32276443E-03  2.63853033E-03 -3.14429833E-04 -6.14706342E-16
 -3.50760297E-17 -8.82483787E-18 -9.72348704E-05 -3.32276443E-03 -1.53437252E-02
  1.03671375E+00  2.34456611E-04  2.48977939E-02  8.80327922E-04 -1.00087134E-02
  1.28088556E-05  3.67450530E-03  2.50077900E-01  2.20618014E-06 -5.26494253E-17
  5.91782021E-16  9.73836206E-03 -7.56180560E-03 -1.93551865E-04  7.77112915E-18
  5.23795377E-17  6.14733748E-04  4.01305520E-03  1.24005910E-01 -7.86066353E-18
 -5.19092173E-03  1.61158148E-02 -2.41516969E-05 -2.04673209E-02  2.99639414E-18
  3.12833205E-04  1.31844132E-04  1.01013387E-01 -3.05011237E-01  3.80985449E-04
 -9.29956075E-02 -7.30543415E-03 -8.28117606E-17 -1.06374554E-02 -3.44322219E-04
 -3.70303746E-03  2.74855981E-01 -3.17320074E-04  1.24005910E-01  8.68662787E-02
 -5.25422233E-16  3.32276443E-03  1.70420569E-03 -2.21098378E-17 -3.78375334E-03
  0.00000000E+00  4.45034693E-16  9.23012535E-05 -8.52856058E-05  7.44423363E-17
  1.50726514E-05 -2.48977939E-02 -5.68233839E-02 -6.09484550E-03 -7.26754903E-16
 -2.08352131E-01 -2.15228404E-01 -3.01684858E-03 -4.46306405E-16  3.01178552E-17
 -2.18023280E-17  2.70612225E-16  1.31298446E-18  8.47018577E-04  4.16454517E-04
  6.24452569E-03 -3.44135820E-17  1.30267361E-03  4.32773296E-17 -2.26763237E-17
  3.09094555E-17  2.70357797E-02  7.95247205E-04  3.27818454E-03  7.60075749E-17
 -3.41748359E-18  7.22101116E-17 -1.01397222E-05 -3.19107488E-04  8.52358588E-17
  4.36201315E-17 -5.70635837E-05 -3.79330937E-05  1.57749434E-03 -2.06381851E-16
 -1.55776724E-03  5.26618865E-03 -7.24710979E-04  5.96755777E-18  1.29021550E-04
  2.00136904E-03  1.92669305E-02 -6.37226306E-04  4.85554752E-04 -4.67106144E-05
 -1.37876067E-16 -6.97001263E-04 -1.09216829E-02  1.11350764E-01  4.20173105E-04
 -3.47706690E-16  4.63443297E-17 -1.33162400E-04  9.73836206E-03 -4.15220927E-17
  1.01831245E-16 -6.14733748E-04  2.26598547E-03  7.20583123E-03  6.95660658E-04
  0.00000000E+00 -1.11350764E-01 -1.06631495E-02  1.31674698E-16  1.16056412E-16
  0.00000000E+00  1.61300449E-16 -1.23309252E-02  1.56904849E-04  8.60941226E-17
 -6.03957389E-06 -1.70420569E-03 -9.20194819E-17  7.97931253E-04  4.44263061E-18
  5.15382366E-02  1.87944228E-16  6.15260451E-04  1.47264269E-05  3.27521738E-17
 -1.69538529E-16 -7.56180560E-03  1.90795139E-02 -1.22130205E-04 -1.13995253E-01
  1.28352838E-16 -2.26598547E-03 -2.39411715E-01 -1.34683647E-02 -2.28410246E-16
  4.68780493E-16  2.63853033E-03  5.62927703E-17  6.63838960E-03 -3.05918304E-17
  4.85454834E-04 -4.00950720E-03  2.26239833E-04 -8.42318688E-17 -6.18959920E-17
 -1.24604362E-04 -1.32327368E-03 -1.19675891E-06 -1.19558721E-01  5.39613573E-17
  3.53272295E-04  3.79494874E-04  1.93020349E-04  3.92382632E-05 -1.13275912E-01
 -8.59751749E-18  4.96911586E-17  4.10742509E-05  4.44263061E-18  1.61428040E-04
  6.10941874E-04  3.42727726E-04 -5.77841233E-18  4.49363575E-03 -3.49979152E-04
  1.78555308E-04  8.83193013E-04  7.39088371E-18 -3.04961374E-03 -1.50199273E-03
  1.16103507E-16  1.02604641E-02 -7.42767498E-04  3.47294378E-17  5.80673067E-17
 -9.11681957E-18  2.94372010E-04  1.27515990E+00 -9.23012535E-05  7.56312213E-17
 -6.18929977E-17 -7.90025723E-17  1.71674480E-02  1.41446710E-16  2.52384708E-04
  6.01899668E-17  6.43872407E-03  1.98035856E-03  2.72702729E-16  2.04673209E-02
  4.30193011E-17 -1.37876067E-16  9.78802397E-18 -5.31954735E-03  7.44423363E-17
  0.00000000E+00 -1.61158148E-02 -4.95643845E-04  1.55898106E-04  2.72671244E-18
  0.00000000E+00  8.00525226E-04 -8.82366454E-04 -3.59632100E-16  3.40169819E-04
  0.00000000E+00 -1.14328495E-03  6.88658386E-04  2.12205387E-03  5.62927703E-17
 -4.96577291E-17  2.55566903E-03  2.99977798E-01 -6.55189307E-06 -4.15220927E-17
  2.09026718E-01  1.27515990E+00  6.03543825E-04 -3.35056176E-16 -7.89125045E-16
  3.80471525E-17  1.82401123E-02 -6.57886807E-03 -1.07241934E-16 -5.92431463E-16
 -7.31122590E-17 -8.95410240E-04  5.03076910E-03  2.74970105E-04 -3.80086422E-17
 -5.26646335E-16 -8.80327922E-04  5.10530629E-02 -7.55618606E-05 -4.18889713E-17
 -2.06381851E-16 -2.30776107E-02  9.58476679E-03 -1.93530304E-04 -1.37931742E-16
 -8.06217335E-17 -1.75486101E-01 -3.15856844E-18  3.01178552E-17 -8.18818989E-17
  6.54870827E-17  2.70332976E-02  1.45492379E-16  1.28441504E-03 -2.71909533E-17
 -3.83992950E-17  6.01899668E-17  3.10163712E-04 -1.56631445E-02 -5.24085932E-18
  2.70506041E-02  2.70351666E-02  4.21193180E-05 -3.33261641E-05 -1.43782694E-17
  6.53968284E-17  1.01523103E-16 -6.25880922E-07  2.09682703E-02 -1.79207098E-16
 -1.14328495E-03  1.61300449E-16  3.33215152E-04 -2.09026718E-01  4.67492296E-04
 -1.71546101E-16 -1.12240334E-04  1.90016618E-04  4.85454834E-04  1.71674480E-02
  2.23441197E-04 -3.23767909E-16 -3.04757699E-01 -3.02719877E-01 -7.05824208E-04
 -9.30336937E-02 -1.01756054E-03  1.04898595E-04 -4.01305520E-03  3.98292790E-02
  8.20595439E-17  2.45096803E-02 -1.32327368E-03 -2.49210030E-03  1.63337237E-03
 -9.49847338E-17  6.03486543E-03  1.61158148E-02 -1.93530304E-04 -1.28441504E-03
 -1.08016280E-16  1.16154526E-16 -1.52153217E-02 -8.00525226E-04  1.35488529E-04
  4.63443297E-17  3.07286916E-01  5.87280091E-04 -2.99977798E-01  5.68233839E-02
  4.91096553E-17  2.63853033E-03  1.26132628E-02  1.09977004E-02  6.45205842E-03
  1.34547577E-05 -4.26076877E-04  3.14873706E-03  1.77704424E-02 -2.26853487E-17
  0.00000000E+00  1.09216829E-02  6.89867743E-03  1.32946292E-03 -3.70704004E-03
  0.00000000E+00 -1.35488529E-04  6.03486543E-03  1.55167823E-17 -9.61178328E-17
  0.00000000E+00  5.15382366E-02 -2.49210030E-03  7.98887627E-17  3.47294378E-17
 -2.22719242E-06 -1.00087134E-02  5.70965948E-17  1.25909466E-03 -5.24116312E-16
 -1.08892439E-02  2.33164222E-01  1.23870375E-02 -1.46570724E-02  2.25670853E-04
 -1.35298434E-18 -2.08572720E-03 -1.41042865E-02 -3.71848636E-04 -7.29703987E-19
  2.92941107E-16  1.33211311E-03  2.24515049E-05 -3.79160195E-03 -3.95347871E-16
 -8.68376393E-02 -2.02830112E-01 -8.58419946E-04  2.07205712E-04  1.27468445E-16
 -1.13903761E-01  2.34456611E-04  6.45205842E-03 -2.02178382E-02  8.52856058E-05
 -7.56861666E-17  2.09682703E-02  6.03486543E-03  8.68662787E-02 -4.21223788E-17
 -2.59266207E-17 -2.56749890E-04  1.73064936E-04  5.05946579E-04  1.83565948E-16
 -3.99382194E-05 -1.34534233E-03  2.38107321E-04  4.78617724E-03  7.17455092E-17
  1.55078837E-04  7.49065583E-18  3.20487351E-05  5.28790273E-03 -4.91970867E-17
  1.83628814E-17 -1.22453170E-03  2.58960926E-02 -2.12431275E-02 -5.66162885E-17
  7.72750371E-17 -6.95660658E-04  2.59783931E-02 -1.53146074E-03 -1.29813584E-16
  9.92194275E-17 -5.47799367E-17 -2.93798266E-04  3.29359122E-04  1.07191510E-03
  6.98656970E-04  2.72107082E-03 -1.22333258E-05  6.47300405E-17  1.54849808E+00
 -1.79869423E-17  1.03668302E+00  1.54933750E-02 -1.75486101E-01 -1.54607871E-02
  2.20063229E-03  1.52573890E-03 -1.68592897E-04 -1.06014817E-02  5.10530629E-02
  1.42716552E-03 -9.43580567E-05  4.64979917E-04  3.78375334E-03 -3.42505638E-01
 -8.42560439E-03  1.94641610E-03 -1.83982598E-04 -2.11306804E-02 -3.57755952E-02
 -1.13995253E-01 -1.28555169E-03  3.09698548E-04  3.67450530E-03  3.19107488E-04
 -5.95740671E-17  3.77240609E-04 -2.30776107E-02 -1.06683380E-16  3.91265795E-04
  1.29524183E-16  2.11306804E-02  8.68662787E-02  4.95643845E-04  6.63838960E-03
  8.03071696E-18 -1.00293999E-03 -2.26853487E-17 -1.33211311E-03  2.10116690E-04
 -1.76017648E-17 -1.00087134E-02 -2.33164222E-01 -2.55566903E-03  2.74420410E-03
 -1.13275912E-01 -2.30776107E-02  1.26667953E+00  4.26076877E-04 -1.52153217E-02
 -2.06457750E-04  1.02941817E+00  2.93798266E-04  4.30193011E-17  1.57992509E-02
  1.24005910E-01  1.01831245E-16 -1.34484000E-03  3.78375334E-03  1.06304454E-17
 -2.99977798E-01 -2.77700184E-03  2.78746179E-04 -3.04757699E-01  1.07191510E-03
  1.28555169E-03  1.42716552E-03  1.63337237E-03  1.45506106E-17 -8.88480884E-17
 -2.81112574E-17  6.03486543E-03  6.81520192E-02  9.62690058E-04  1.01669357E-16
  1.40118171E-16  4.67492296E-04 -2.10116690E-04  9.58476679E-03 -1.10127923E-16
 -9.26306782E-04  1.85431376E-04  2.23441197E-04  1.32847503E-04  6.45205842E-03
  2.22618434E-17 -1.70948732E-02 -3.29940236E-03  4.64979917E-04  3.57755952E-02
 -4.43269035E-04  2.53981189E-02  9.30336937E-02  3.68396994E-05  2.74420410E-03
  6.14887082E-03 -3.04757699E-01 -1.21887545E-03  6.37226306E-04 -1.10127923E-16
 -2.00136904E-03  4.97382653E-04  3.66497244E-03  1.29631121E-03 -1.30267361E-03
 -9.20194819E-17  2.72357876E-02 -2.30776107E-02 -8.00828938E-04 -5.21003455E-16
  4.04416578E-03  6.01300569E-04  1.09356009E-16  3.29359122E-04  1.55776724E-03
  2.52384708E-04 -3.34230014E-01 -2.38310126E-17  8.00828938E-04 -1.72651227E-17
  8.11020756E-02  3.73549334E-17 -1.37281232E-16 -3.19107488E-04 -4.32087810E-03
  4.20173105E-04 -1.92523678E-17  2.46370302E-17 -2.20476446E-04  1.55167823E-17
  7.24710979E-04 -3.98292790E-02  1.21567745E-04 -9.29956075E-02  1.26132628E-02
  1.98035856E-03 -6.95660658E-04 -2.74812247E-17 -9.30336937E-02 -1.75526832E-01
 -1.06195679E-16  2.72357876E-02  1.29021550E-04 -2.04673209E-02  2.99226841E-17
  3.95947114E-03  2.70506041E-02  2.70351666E-02 -8.74282512E-17 -1.75526832E-01
 -6.98656970E-04 -1.23959854E-04  1.54607871E-02  4.67536216E-17 -4.01305520E-03
 -1.13275912E-01 -1.22275698E-03 -1.52153217E-02 -1.62915553E-02 -1.13903761E-01
  1.42999321E-18  9.05398144E-04  1.39354748E-16 -1.39177609E-04  2.63853033E-03
  2.23968379E-17  5.11767196E-16 -1.61158148E-02 -9.72348704E-05  1.54926463E+00
  9.36263173E-17 -1.10327174E-16 -5.19568080E-03  3.57678062E-17 -1.00087134E-02
  1.97845713E-17 -1.32196747E-02 -2.74812247E-17 -9.07380373E-03  1.06957709E-02
  0.00000000E+00  1.22130205E-04  3.73121229E-16 -6.80326607E-16  4.16283192E-18
  0.00000000E+00 -4.02198905E-05  1.11747824E-16  6.15315027E-03 -3.10967086E-17
  0.00000000E+00 -6.57933246E-03 -3.29940236E-03  3.31654987E-04  2.45373132E-18
  3.73549334E-17  5.19092173E-03 -1.93020349E-04 -4.18522099E-03 -1.02541820E-03
  0.00000000E+00 -6.41496437E-03  4.00950720E-03 -1.38956909E-03  1.08783142E-16
  0.00000000E+00  3.71848636E-04  6.57886807E-03 -3.79160195E-03  7.43569548E-20
 -3.32936630E-03  5.89434474E-05 -2.10155142E-01 -1.85805311E-04  1.11747824E-16
  1.04506449E-05 -1.22453170E-03  3.29359122E-04  8.46818617E-04 -3.55217179E-17
 -5.74133133E-17  9.05398144E-04  1.42430198E-02 -9.29956075E-02 -9.18955590E-03
 -2.94372010E-04 -1.41449552E-16  2.84942594E-17  6.46008247E-17  2.09866016E-17
  2.70506041E-02 -4.00950720E-03  1.38956909E-03 -2.81112574E-17  1.35826852E-16
  1.40075944E-02 -1.68736160E-16  1.04506449E-05 -1.93231484E-17  6.14887082E-03
 -2.24515049E-05  9.95637581E-17  1.06957709E-02  6.63838960E-03 -3.47706690E-16
 -8.73744395E-06  4.85554752E-04  6.95660658E-04  6.25880922E-07  1.55078837E-04
 -4.78617724E-03  1.04762744E+00  8.50645601E-04 -2.66733569E-05 -1.80866557E-17
  5.19364053E-03 -1.06075501E-16  3.63509406E-16 -3.05864637E-03  2.24072391E-01
 -1.76646299E-02  1.25466983E+00  3.07600953E-04 -8.82366454E-04 -1.21887545E-03
 -1.01883302E-04  1.73064936E-04 -3.23895897E-17 -1.22275698E-03 -1.21887545E-03
  5.13973888E-05 -4.17237247E-16 -1.16861242E-16 -9.62791154E-04  1.02941441E+00
 -3.46889200E-04 -1.14005483E-16  1.08892439E-02  7.00469140E-03 -2.53981189E-02
  1.56639603E-16  1.54849808E+00  3.15365731E-06  3.29359122E-04  2.09026718E-01
  8.94071743E-17  1.48048780E-16  2.90935828E-17 -5.34684955E-16 -1.62915553E-02
 -5.24116312E-16  2.70357797E-02 -3.04961374E-03 -7.90025723E-17 -1.76634745E-03
  2.06396348E-06  1.85431376E-04 -1.54933750E-02 -3.11315884E-17 -8.73744395E-06
 -3.04764220E-01 -1.50296451E-02  2.40506066E-03  3.82945798E-04  2.72357876E-02
  2.70332976E-02 -1.02541820E-03  5.19568080E-03 -1.48430797E-04 -6.26500231E-05
 -4.18522099E-03  5.68233839E-02 -8.95410240E-04 -6.10082895E-18  1.72082982E-02
  2.54957542E-04  1.24924269E-16  3.95947114E-03 -4.18522099E-03 -1.53437252E-02
 -4.67106144E-05 -1.57749434E-03  2.12821077E-03 -1.84362001E-06 -4.18522099E-03
  1.54926463E+00 -3.51148202E-17 -1.70948732E-02  3.78759381E-16 -9.07380373E-03
  6.17170095E-05 -6.17637641E-17  1.30547032E-01  1.28995489E+00 -5.31518278E-16
 -3.99036934E-04 -3.53790997E-17 -6.57933246E-03  5.23795377E-17  2.66209317E-03
 -5.05946579E-04  3.32326615E-05 -1.61161955E-02  8.36379649E-04  1.56631445E-02
 -3.27818454E-03 -3.16898565E-17 -6.41496437E-03  2.92941107E-16  5.28790273E-03
 -1.32847503E-04  1.25471700E-17 -1.06631495E-02 -7.26754903E-16 -1.22889901E-02
  1.98778423E-02 -2.41864667E-03  4.18894771E-03  1.80005347E-16 -3.77240609E-04
  5.71583350E-17 -2.09682703E-02 -3.57755952E-02 -3.92382632E-05 -4.49363575E-03
  0.00000000E+00  0.00000000E+00  0.00000000E+00  0.00000000E+00  0.00000000E+00
  0.00000000E+00 -4.14868628E-02 -7.41474428E-17 -1.10148476E-16 -1.11682952E-16
  0.00000000E+00  4.63777773E-17  3.81888626E-05 -1.54933750E-02 -1.17046685E-16
  0.00000000E+00  8.68662787E-02  2.39411715E-01 -1.34683647E-02  4.46612178E-17
  0.00000000E+00  8.58419946E-04 -1.90795139E-02  2.14534965E-17  1.10183959E-16
  0.00000000E+00 -1.32196747E-02 -5.21003455E-16  3.95947114E-03 -1.55651790E-02
 -1.14201114E-16  1.81196673E-16 -1.26977775E-05  0.00000000E+00 -1.08323139E-02
  3.51233042E-16 -5.25422233E-16  4.41777969E-04  5.96755777E-18 -9.18955590E-03
  0.00000000E+00  1.05875916E-17  6.17740837E-17  1.54470257E-17 -1.03176098E-16
 -1.17557073E-04 -1.09216829E-02  3.19107488E-04 -1.72904712E-03  5.58469731E-04
  1.68592897E-04 -6.06154766E-04 -5.51259813E-17 -2.72371000E-17  1.57915578E-16
  2.74855981E-01  7.17255833E-02  4.02198905E-05 -5.28739500E-17  1.75600054E-17
 -5.03076910E-03 -2.75766836E-06  1.47569323E-16  5.19092173E-03  6.54520101E-02
  7.61425173E-04 -1.35298434E-18  3.16442564E-04  1.69793845E-02 -1.08422279E-03
  8.36729838E-17  5.83886807E-17  2.38107321E-04  2.30663144E-16  7.20583123E-03
  1.05672187E-01  2.97015520E-17 -1.56904849E-04 -5.31518278E-16 -1.93231484E-17
  8.82366454E-04  0.00000000E+00 -1.20644455E-04  6.84550704E-17 -1.23959854E-04
 -9.05398144E-04 -4.17237247E-16  6.59586660E-04 -2.22719242E-06  2.45431750E-06
 -9.18225579E-18  2.93556532E-17 -1.40450568E-16  3.82945798E-04 -3.27818454E-03
  3.81888626E-05 -1.23870375E-02  4.09714343E-17  3.85274528E-04 -1.22889901E-02
  1.05520839E-04 -6.03543825E-04  5.15382366E-02 -3.14429833E-04 -1.70590945E-02
  6.83568565E-03  1.05672187E-01  1.63180721E-04 -1.34547577E-05  4.97382653E-04
 -3.14082265E-03 -1.75486101E-01  1.08972960E-16 -1.19675891E-06 -5.78626786E-16
  1.26390212E+00  4.04416578E-03 -1.39612946E-17 -5.23203530E-04  9.75063023E-17
 -3.17320074E-04 -2.71720827E-17 -4.47746040E-17  0.00000000E+00  2.14534965E-17
  3.33215152E-04 -8.00828938E-04 -1.22275698E-03  1.53110748E-16  2.70506041E-02
  1.53145777E+00  2.02830112E-01  2.04673209E-02 -3.14082265E-03 -1.42430198E-02
 -3.95347871E-16 -3.66497244E-03  1.54282361E-04  1.46570724E-02 -6.85579264E-06
 -5.95740671E-17 -3.02719877E-01 -2.89115854E-16  6.14887082E-03  1.05917503E-02
  9.40169691E-06  1.16478419E-05 -6.10082895E-18  1.05964545E-03  9.30336937E-02
  1.32196747E-02  4.68780493E-16 -2.06457750E-04  1.83516737E-17 -3.78375334E-03
 -3.07286916E-01 -1.82191071E-02 -1.36533925E-03  1.75896798E-04  1.98778423E-02
 -7.63863952E-17  1.21567745E-04 -2.65949432E-01  3.15365731E-06  3.82945798E-04
 -1.75526832E-01  0.00000000E+00 -5.19568080E-03 -1.76017648E-17 -1.75299185E-01
 -7.61425173E-04 -3.74787405E-17  2.17954933E-02 -5.03138237E-03 -5.09318740E-03
  4.57328717E-06  4.29817525E-05 -3.83447021E-04  2.74855981E-01  1.23309252E-02
  1.62915553E-02 -9.08610313E-17  1.05981640E-03  5.15382366E-02 -6.88658386E-04
  1.20026796E-17 -6.71400914E-18  1.55651790E-02  1.32196747E-02 -2.15228404E-01
 -2.12431275E-02 -2.79185231E-17 -2.28421707E-01  1.90842720E-02 -2.03537730E-04
  5.18404858E-05  2.94372010E-04  1.28555169E-03 -3.49979152E-04 -9.62791154E-04
  7.22101116E-17 -1.82191071E-02  4.73609548E-18 -2.33650948E-03 -2.12431275E-02
 -8.87996795E-17 -1.55078837E-04  2.77700184E-03  3.33261641E-05  1.34534233E-03
 -7.13690916E-04  5.78411311E-03 -1.33162070E-17  1.61161955E-02 -1.24604362E-04
 -7.96625330E-07  4.10742509E-05  3.73121229E-16  3.46208952E-17 -1.00293999E-03
 -2.57454879E-04 -1.71674480E-02  2.66209317E-03  2.25670853E-04  5.97200506E-16
  2.86797268E-05  3.14873706E-03  1.75896798E-04 -1.01013387E-01  1.50199273E-03
 -7.23389576E-05  3.81347082E-04  5.13973888E-05  4.85554752E-04 -2.10925500E-03
  1.47050232E-04  4.84199678E-17 -1.02082339E-03  1.31674698E-16 -5.57998418E-17
  1.56631445E-02 -8.99559571E-05 -2.91686736E-17  3.79494874E-04 -6.41496437E-03
 -2.77700184E-03  3.61631840E-03 -1.52153217E-02 -2.18450307E-05 -1.40075944E-02
 -2.56749890E-04  3.14795600E-04 -1.30710722E-17 -1.12607073E-02  5.19364053E-03
  0.00000000E+00  3.05864637E-03 -1.06318012E-17 -4.23565949E-05  6.61515887E-02
 -6.54520101E-02  2.50077900E-01 -8.95345647E-02  1.80005347E-16  5.29410535E-17
  3.16442564E-04  1.34534233E-03  1.05520839E-04 -5.10530629E-02 -4.49363575E-03
  1.05981640E-03  1.53937994E-03 -5.78281885E-17  2.02178382E-02  6.15315027E-03
  2.19155710E-02 -6.85579264E-06  3.20487351E-05 -3.80086422E-17  1.85104266E-04
  0.00000000E+00 -1.72082982E-02  1.22889901E-02 -2.12431275E-02  1.54933750E-02
 -1.75299185E-01 -3.23957482E-04 -6.43872407E-03  1.09216829E-02  3.85274528E-04
 -7.41474428E-17  7.42767498E-04  6.81520192E-02 -8.42560439E-03  1.01013387E-01
  8.11020756E-02  3.31767937E-03 -1.34534233E-03 -1.54984234E-16  3.74955776E-03
 -9.05398144E-04  1.78917245E-04 -1.22453170E-03  4.00950720E-03  3.85274528E-04
 -5.37351051E-17  8.46818617E-04 -2.11306804E-02  5.71583350E-17  5.91782021E-16
 -1.43840286E-16 -1.08017416E-07 -2.60401721E-04 -6.30731832E-06  1.41788671E-17
 -1.58376680E-16  4.81440323E-02  4.15535048E-18 -3.04961374E-03 -3.44322219E-04
  1.61161955E-02 -1.30782448E-16  3.10163712E-04  2.26239833E-04 -5.68233839E-02
  1.61428040E-04 -1.75299185E-01  2.70357797E-02  4.96911586E-17  9.26306782E-04
 -2.60401721E-04 -3.04764220E-01 -6.44360310E-03  2.39411715E-01  7.61425173E-04
 -4.18889713E-17 -1.22930373E-03 -1.83982598E-04 -3.02719877E-01 -1.60450226E-16
  7.77112915E-18  1.26667953E+00 -3.09698548E-04 -7.56861666E-17  1.40118171E-16
 -1.05964545E-03 -3.25682510E-05  1.06304454E-17 -1.23870375E-02  1.55651790E-02
 -1.79956643E-05  2.11306804E-02  7.05824208E-04  0.00000000E+00  2.45096803E-02
 -5.10530629E-02 -7.55618606E-05  3.28797141E-17  0.00000000E+00  2.74970105E-04
  2.01174641E-03 -8.06217335E-17 -1.55278893E-16  0.00000000E+00  2.54411008E-17
 -1.33162070E-17 -2.52840187E-16 -8.73582272E-17  0.00000000E+00  6.94029312E-06
  2.99226841E-17 -2.96003238E-17 -3.66291578E-17  0.00000000E+00  1.57749434E-03
 -3.59632100E-16  6.52854143E-03  4.77404348E-17  2.17954933E-02  1.14130354E-16
 -1.69793845E-02 -2.75766836E-06  0.00000000E+00  0.00000000E+00  0.00000000E+00
  0.00000000E+00  0.00000000E+00  0.00000000E+00  0.00000000E+00  0.00000000E+00
  0.00000000E+00  0.00000000E+00  0.00000000E+00  0.00000000E+00  0.00000000E+00
  1.24534895E+00 -1.22275698E-03 -5.26646335E-16  1.48430797E-04 -1.55898106E-04
 -1.13903761E-01 -1.05981640E-03 -8.95345647E-02 -9.67333652E-05  7.26358767E-16
  5.44019416E-17  1.41042865E-02  1.08017415E-07 -5.19364053E-03 -6.41496437E-03
  1.24005910E-01 -9.67333652E-05  3.27521738E-17 -2.56749890E-04  8.12632423E-04
  3.32936630E-03  2.07205712E-04  5.89434474E-05  9.26306782E-04 -1.01013387E-01
  1.24534895E+00  1.27468445E-16 -1.74194257E-02  1.17557073E-04 -1.41736028E-16
 -7.79294289E-18 -6.14733748E-04  6.26500231E-05  3.02867977E-05 -1.24480514E-04
  0.00000000E+00  6.46553275E-16 -3.47146439E-17 -1.13661452E-16  2.18938432E-18
  0.00000000E+00  0.00000000E+00  0.00000000E+00  0.00000000E+00  0.00000000E+00
  2.18771951E-02  0.00000000E+00  1.76634745E-03  1.30547032E-01 -2.96003238E-17
 -1.01397222E-05  1.25062734E-16 -3.64714357E-17 -2.18023280E-17 -6.30731832E-06
  1.05672187E-01  6.41415237E-18 -9.26306782E-04 -2.72371000E-17  1.02082339E-03
 -1.74194257E-02  6.46008247E-17  1.22930373E-03 -2.18771951E-02  6.61515887E-02
 -5.78626786E-16  1.18204189E-17 -1.47050232E-04  6.03957389E-06 -1.08323139E-02
  6.06154766E-04 -2.08352131E-01 -1.79145688E-18  2.30229203E-01  3.67168890E-03
 -7.56180560E-03  7.42362402E-17 -2.94372010E-04  1.35826852E-16  1.34417171E-04
 -1.84362001E-06 -3.04764220E-01 -1.75486101E-01  5.07839095E-05  0.00000000E+00
 -8.59079505E-17 -1.41085626E-16  1.28475717E-16  4.65039958E-03  0.00000000E+00
  0.00000000E+00  0.00000000E+00  0.00000000E+00  0.00000000E+00 -9.40169691E-06
  0.00000000E+00  2.06396348E-06  5.87280091E-04  1.03668302E+00  5.15568547E-17
  7.26358767E-16 -4.40474891E-04  1.10967790E-16  3.32326615E-05  1.57992509E-02
  2.03221678E-16  1.70135980E-05  3.81347082E-04  3.07286916E-01 -2.08572720E-03
  1.47569323E-16  2.24346400E-16  1.50216665E-03 -7.77131493E-05 -1.05964545E-03
  4.69115990E-17  1.40075944E-02  2.99977798E-01 -1.41736028E-16  3.79494874E-04
  6.47300405E-17  1.06297950E-04 -1.24591401E-04  1.26168786E-04  9.62791154E-04
 -1.93551865E-04  3.02867977E-05  2.72274583E-02 -3.40361146E-01 -4.29817525E-05
 -3.42505638E-01 -1.06014817E-02  3.81347082E-04  1.13739982E-17  0.00000000E+00
 -3.43347060E-17 -2.04851671E-17  1.80585542E-17  6.65599802E-17  0.00000000E+00
  0.00000000E+00  0.00000000E+00  0.00000000E+00  0.00000000E+00 -1.16478419E-05
  0.00000000E+00  1.70590945E-02  1.14115066E-02  5.07839095E-05 -5.34684955E-16
  1.48048780E-16  8.32050801E-17  1.75600054E-17 -3.68396994E-05 -3.61631840E-03
  5.44019416E-17  4.00078485E-17 -1.40075944E-02 -2.15228404E-01 -6.89867743E-03
  1.39177609E-04 -1.66887117E-17  2.45096803E-02  2.50077900E-01 -5.92431463E-16
 -5.23203530E-04 -1.10978418E-16 -1.75587651E-02 -4.81440323E-02  1.48153200E-17
  3.23957482E-04 -3.99382194E-05 -2.96552575E-01 -9.18955590E-03  1.05672187E-01
 -9.86286965E-17  3.53272295E-04 -1.57749434E-03 -7.56180560E-03  2.49548871E-03
 -7.02932935E-04 -1.82191071E-02 -2.20063229E-03 -6.97001263E-04 -6.43872407E-03
  0.00000000E+00 -2.89939646E-03  3.90615053E-17 -2.32613151E-17 -5.42994654E-17
  0.00000000E+00  0.00000000E+00  0.00000000E+00  0.00000000E+00  0.00000000E+00
 -3.13031158E-17  0.00000000E+00 -6.83568565E-03  9.56003635E-17 -2.52840187E-16
 -1.29813584E-16  1.53146074E-03 -6.80326607E-16  0.00000000E+00 -8.87996795E-17
 -2.08352131E-01 -1.62418228E-02  3.12833205E-04  0.00000000E+00  3.99036934E-04
  6.15260451E-04 -9.18225579E-18  3.07600953E-04  0.00000000E+00 -9.18955590E-03
  5.23203530E-04 -7.86852761E-03  2.96552575E-01  0.00000000E+00  0.00000000E+00
  0.00000000E+00  0.00000000E+00  0.00000000E+00  0.00000000E+00  3.01684858E-03
 -1.13903761E-01  2.19933771E-18 -4.58024611E-17  0.00000000E+00  3.79330937E-05
  5.10484726E-04  1.42430198E-02 -2.40506066E-03  8.12632423E-04  0.00000000E+00
  1.08422279E-03 -6.17170095E-05  0.00000000E+00  0.00000000E+00  0.00000000E+00
  0.00000000E+00  0.00000000E+00  0.00000000E+00  0.00000000E+00  0.00000000E+00
  0.00000000E+00  0.00000000E+00  0.00000000E+00  0.00000000E+00  0.00000000E+00
  4.97382653E-04 -5.31954735E-03  1.26132628E-02  1.98038558E-03  6.24452569E-03
 -6.54520101E-02  3.05011237E-01  4.14868628E-02 -6.94029312E-06  6.15315027E-03
  1.10967790E-16 -7.83888161E-16 -7.23389576E-05  3.95947114E-03 -8.88480884E-17
 -3.74955776E-03 -1.05917503E-02  1.23870375E-02 -3.55761164E-17  2.19155710E-02
  7.13690916E-04  0.00000000E+00  1.80451296E-16 -2.82300352E-18  4.10805287E-04
  6.13542869E-18 -1.47264269E-05  2.72274583E-02 -1.28555169E-03  3.16390990E-04
 -1.85805311E-04  1.90016618E-04 -2.01174641E-03  1.09356009E-16  1.04762744E+00
 -1.61878386E-16  7.95247205E-04 -1.76646299E-02 -5.69609999E-17  1.30267361E-03
  0.00000000E+00  0.00000000E+00  0.00000000E+00  0.00000000E+00  0.00000000E+00
  0.00000000E+00  0.00000000E+00  0.00000000E+00  0.00000000E+00  0.00000000E+00
  0.00000000E+00  0.00000000E+00  0.00000000E+00 -1.09977004E-02 -2.08352131E-01
 -1.62418228E-02 -3.42727726E-04  3.63509406E-16 -9.29956075E-02 -1.06631495E-02
 -3.91265795E-04  5.78411311E-03 -2.57454879E-04  1.08892439E-02 -1.80989852E-04
 -2.46620385E-16 -2.09026718E-01  4.18894771E-03 -2.99461024E-03 -9.42028751E-04
 -2.15228404E-01 -1.26977775E-05  1.50726514E-05 -7.96625330E-07  3.85274528E-04
  0.00000000E+00  1.58499337E-17 -5.55500239E-17  1.64983988E-17  4.97382653E-04
  4.45034693E-16  1.78917245E-04  4.56866065E-17  1.28088556E-05  1.05964545E-03
  1.01883302E-04  3.73444237E-17 -2.60401721E-04 -1.61161955E-02  5.10484726E-04
  1.33024053E-16  1.28995489E+00  1.02941441E+00  2.41516969E-05  0.00000000E+00
  0.00000000E+00  0.00000000E+00  0.00000000E+00  0.00000000E+00  0.00000000E+00
  0.00000000E+00  0.00000000E+00  0.00000000E+00  0.00000000E+00  0.00000000E+00
  0.00000000E+00  0.00000000E+00 -3.98292790E-02  9.77655875E-17 -5.50282386E-17
  1.22930373E-03  1.79956643E-05 -8.36379649E-04 -3.74238495E-16  3.40169819E-04
 -8.47018577E-04  6.90266010E-17  4.78617724E-03  2.70351666E-02 -1.53937994E-03
  5.70965948E-17  1.40237216E-03  3.04693787E-16  4.23565949E-05 -7.86852761E-03
 -1.85431376E-04 -3.04757699E-01  6.54520101E-02 -2.39411715E-01 -1.47371463E-17
  0.00000000E+00 -1.85431376E-04 -2.57454879E-04 -1.05981640E-03  2.23968379E-17
 -1.13995253E-01  2.22618434E-17 -1.75299185E-01 -3.04764220E-01  6.43872407E-03
  3.33215152E-04 -3.14082265E-03  2.33027213E-01 -4.32087810E-03  1.85104266E-04
 -3.02719877E-01 -1.98778423E-02  3.27818454E-03  3.32276443E-03  0.00000000E+00
  0.00000000E+00  0.00000000E+00  0.00000000E+00  0.00000000E+00  0.00000000E+00
  0.00000000E+00  0.00000000E+00  0.00000000E+00  0.00000000E+00  0.00000000E+00
  0.00000000E+00  0.00000000E+00 -4.72787286E-05  2.78746179E-04  7.00469140E-03
  2.24264252E-03 -4.43269035E-04 -1.69662038E-16 -7.93304108E-17  2.96552575E-01
 -6.81520192E-02 -5.22383076E-17 -2.41864667E-03  2.02830112E-01 -1.82401123E-02
  1.29631121E-03  4.76107187E-17 -2.38310126E-17 -7.61425173E-04  2.33027213E-01
 -1.82191071E-02 -1.06631495E-02 -2.10155142E-01  6.44360310E-03  2.86797268E-05
 -8.99559571E-05  0.00000000E+00  2.72357876E-02 -1.56631445E-02  1.02955122E+00
 -3.74955776E-03 -8.68376393E-02 -2.20476446E-04 -3.25682510E-05  6.01300569E-04
 -3.55689943E-17  6.10941874E-04 -1.08016280E-16 -3.05011237E-01 -1.86768100E-16
  8.00828938E-04 -1.50296451E-02 -5.51259813E-17  4.85454834E-04 -1.52199097E-05
  0.00000000E+00  0.00000000E+00  0.00000000E+00  0.00000000E+00  0.00000000E+00
  0.00000000E+00  0.00000000E+00  0.00000000E+00  0.00000000E+00  0.00000000E+00
  0.00000000E+00  0.00000000E+00  0.00000000E+00  1.31298446E-18  4.18894771E-03
 -1.34484000E-03 -3.31767937E-03 -3.14429833E-04  1.83516737E-17  1.30547032E-01
  8.11020756E-02  7.89645463E-17  2.50077900E-01 -1.75587651E-02  4.91096553E-17
 -4.40474891E-04 -2.96552575E-01 -2.24264252E-03  5.62955405E-19 -3.83447021E-04
 -4.21193180E-05 -1.06374554E-02 -3.08074223E-05  1.63180721E-04  2.58960926E-02
  3.46889200E-04  2.70351666E-02 -3.40361146E-01  5.58469731E-04  2.99819897E-18
  1.22889901E-02  2.70332976E-02 -7.29703987E-19  2.45431750E-06  1.49167058E-16
 -2.33027213E-01 -4.78617724E-03 -8.14023598E-17  2.84942594E-17  1.32327368E-03
 -2.49548871E-03  4.16454517E-04  6.24452569E-03 -1.90842720E-02 -5.02606718E-16
  5.19568080E-03  4.57328717E-06  0.00000000E+00 -1.06297950E-04  1.24591401E-04
 -1.26168786E-04  9.42028751E-04  0.00000000E+00  0.00000000E+00  0.00000000E+00
  0.00000000E+00  0.00000000E+00 -2.56749890E-04  0.00000000E+00 -1.22453170E-03
 -1.42430198E-02  2.46370302E-17  2.33650948E-03  4.49363575E-03 -4.78633542E-04
 -3.14082265E-03 -5.90371895E-17  2.59783931E-02 -1.98778423E-02 -2.48401589E-03
 -3.14429833E-04  3.33215152E-04  1.23124075E-16  7.02932935E-04  2.44978733E-03
  6.54870827E-17 -1.72904712E-03  1.70135980E-05  2.72274583E-02  4.85454834E-04
  1.54282361E-04  0.00000000E+00 -1.40237216E-03 -2.33027213E-01  1.97845713E-17
  2.45096803E-02  0.00000000E+00  2.99461024E-03  2.54957542E-04  6.80991116E-17
  2.24072391E-01  1.53145777E+00  1.30547032E-01  7.17255833E-02 -1.30710722E-17
 -1.90061094E-17  3.16390990E-04 -1.55078837E-04 -1.80989852E-04 -1.71674480E-02
 -2.09682703E-02 -3.04961374E-03  2.72274583E-02  1.02955122E+00 -2.03537730E-04
  0.00000000E+00  0.00000000E+00  0.00000000E+00  0.00000000E+00  0.00000000E+00
  0.00000000E+00  0.00000000E+00  0.00000000E+00  0.00000000E+00  0.00000000E+00
  0.00000000E+00  0.00000000E+00  0.00000000E+00 -1.07241934E-16  5.23203530E-04
  1.04898595E-04  3.05011237E-01  3.33022880E-04 -5.19092173E-03  2.74855981E-01
  2.91205162E-17 -7.89125045E-16  1.82356175E-04 -5.09318740E-03  4.18894771E-03
  2.28421707E-01  8.01089411E-04 -7.00469140E-03  3.12203508E-04 -3.07286916E-01
  2.66733569E-05 -1.22333258E-05 -1.34417171E-04  9.56003635E-17  1.78555308E-04
  6.59586660E-04 -1.08892439E-02 -1.21887545E-03  9.62791154E-04  3.82945798E-04
  8.50645601E-04 -1.52105180E-17  1.32327368E-03 -2.57454879E-04  8.82366454E-04
 -1.57158882E-16  3.83447021E-04 -1.19558721E-01 -5.02606718E-16  1.13175918E-16
 -5.18404858E-05 -5.28739500E-17 -9.24207444E-17  4.01305520E-03 -3.80985449E-04
 -2.02830112E-01  3.74955776E-03  2.70357797E-02 -5.03138237E-03  0.00000000E+00
  1.50216665E-03 -7.77131493E-05 -2.30229203E-01  3.67168890E-03  0.00000000E+00
  0.00000000E+00  0.00000000E+00  0.00000000E+00  0.00000000E+00 -1.06075501E-16
  0.00000000E+00  0.00000000E+00  1.62915553E-02  3.79494874E-04  2.37836976E-04
  2.70332976E-02  1.27806953E-02  6.63838960E-03  3.57755952E-02  1.33162400E-04
  6.45205842E-03 -2.39373876E-05 -5.19364053E-03 -3.13531479E-16 -7.00469140E-03
Overlap Matrix                             R   N=        1830
  1.00000000E+00  2.48362390E-01  1.00000000E+00  0.00000000E+00 -2.47021272E-16
  1.00000000E+00 -3.92614542E-18 -7.54489951E-17  2.92389811E-32  1.00000000E+00
  6.79642237E-33 -1.98870957E-32 -6.32704000E-48  0.00000000E+00  1.00000000E+00
  9.28499138E-07  3.79483092E-02 -4.17199964E-02  4.70919219E-02 -9.64711155E-17
  1.00000000E+00  3.79483092E-02  3.67071367E-01 -2.58382267E-01  2.91651932E-01
 -5.97469503E-16  2.48362390E-01  1.00000000E+00  4.17199964E-02  2.58382267E-01
 -2.38697895E-02  2.69517708E-01 -5.52125989E-16 -1.70023257E-18  0.00000000E+00
  1.00000000E+00 -4.70919219E-02 -2.91651932E-01  2.69517708E-01 -8.93180125E-02
  6.23218509E-16 -2.87661866E-16 -2.81810080E-16  0.00000000E+00  1.00000000E+00
  9.64711155E-17  5.97469503E-16 -5.52125989E-16  6.23218509E-16  2.14903175E-01
 -1.32042995E-31  5.55720627E-31  0.00000000E+00 -4.68271985E-46  1.00000000E+00
  2.05608027E-17  1.84257566E-03 -4.02361919E-03  1.34402295E-03 -3.05042292E-18
  9.35849271E-07  3.79890711E-02 -6.17105198E-02 -1.25887450E-02  1.81475131E-17
  1.00000000E+00  1.84257566E-03  6.12758481E-02 -8.54995256E-02  2.85596920E-02
 -6.48196810E-17  3.79890711E-02  3.67296441E-01 -3.81939539E-01 -7.79144214E-02
  1.12318820E-16  2.48362390E-01  1.00000000E+00  4.02361919E-03  8.54995256E-02
 -1.06061995E-01  4.40001101E-02 -9.98635807E-17  6.17105198E-02  3.81939539E-01
 -3.06403838E-01 -1.06380508E-01  1.53354578E-16 -8.66565768E-17 -2.73873542E-17
  1.00000000E+00 -1.34402295E-03 -2.85596920E-02  4.40001101E-02  1.09642096E-02
  3.33577653E-17  1.25887450E-02  7.79144214E-02 -1.06380508E-01  1.93376294E-01
  3.12838342E-17  7.46348625E-17 -1.40905040E-16 -7.12361375E-33  1.00000000E+00
  3.05042292E-18  6.48196810E-17 -9.98635807E-17  3.33577653E-17  2.56617133E-02
 -1.81475131E-17 -1.12318820E-16  1.53354578E-16  3.12838342E-17  2.15077572E-01
 -2.47674403E-31 -9.72994279E-32  2.53081600E-47 -2.53081600E-47  1.00000000E+00
  9.69956219E-23  4.22422022E-04 -1.09814248E-03 -2.23972451E-04  3.22848032E-19
  2.07766845E-17  1.84489037E-03 -3.17913752E-03 -2.81589233E-03  5.17352143E-18
  9.32781801E-07  3.79720926E-02 -1.99432541E-02 -5.97110317E-02  1.14682969E-16
  1.00000000E+00  4.22422022E-04  2.63846609E-02 -4.15260030E-02 -8.46946625E-03
  1.22084234E-17  1.84489037E-03  6.13204775E-02 -6.75227108E-02 -5.98076309E-02
  1.09882064E-16  3.79720926E-02  3.67202707E-01 -1.23466549E-01 -3.69664598E-01
  7.09989972E-16  2.48362390E-01  1.00000000E+00  1.09814248E-03  4.15260030E-02
 -6.02962948E-02 -1.43755942E-02  2.07218891E-17  3.17913752E-03  6.75227108E-02
 -5.64152786E-02 -7.27173659E-02  1.33600581E-16  1.99432541E-02  1.23466549E-01
  1.60500016E-01 -1.63190270E-01  3.13428594E-16  0.00000000E+00  2.47021272E-16
  1.00000000E+00  2.23972451E-04  8.46946625E-03 -1.43755942E-02  7.25561534E-03
  4.22634801E-18  2.81589233E-03  5.98076309E-02 -7.27173659E-02 -3.87262493E-02
  1.18335507E-16  5.97110317E-02  3.69664598E-01 -1.63190270E-01 -2.73594333E-01
  9.38419809E-16  3.92614542E-18  7.54489951E-17  2.92389811E-32  1.00000000E+00
 -3.22848032E-19 -1.22084234E-17  2.07218891E-17  4.22634801E-18  1.01876002E-02
 -5.17352143E-18 -1.09882064E-16  1.33600581E-16  1.18335507E-16  2.56825005E-02
 -1.14682969E-16 -7.09989972E-16  3.13428594E-16  9.38419809E-16  2.15004936E-01
 -6.79642237E-33  1.98870957E-32 -6.32704000E-48  0.00000000E+00  1.00000000E+00
  2.07766845E-17  1.84489037E-03 -3.17913752E-03 -2.81589233E-03  5.17352143E-18
  9.78578800E-23  4.22871019E-04 -3.55212406E-04 -1.06411980E-03  2.04380438E-18
  2.05843586E-17  1.84282927E-03  8.48599293E-04 -4.15694563E-03  8.21856855E-18
  9.28499138E-07  3.79483092E-02  4.17199964E-02 -4.70919219E-02  9.64711155E-17
  1.00000000E+00  1.84489037E-03  6.13204775E-02 -6.75227108E-02 -5.98076309E-02
  1.09882064E-16  4.22871019E-04  2.64005007E-02 -1.34265195E-02 -4.02222024E-02
  7.72528742E-17  1.84282927E-03  6.12807389E-02  1.80312937E-02 -8.83280342E-02
  1.74630623E-16  3.79483092E-02  3.67071367E-01  2.58382267E-01 -2.91651932E-01
  5.97469503E-16  2.48362390E-01  1.00000000E+00  3.17913752E-03  6.75227108E-02
 -5.64152786E-02 -7.27173659E-02  1.33600581E-16  3.55212406E-04  1.34265195E-02
  2.83008715E-03 -2.20609509E-02  4.23714209E-17 -8.48599293E-04 -1.80312937E-02
  1.98058897E-02  2.86964762E-02 -5.67349148E-17 -4.17199964E-02 -2.58382267E-01
 -2.38697895E-02  2.69517708E-01 -5.52125989E-16  2.58437827E-17  1.14080426E-16
  1.00000000E+00  2.81589233E-03  5.98076309E-02 -7.27173659E-02 -3.87262493E-02
  1.18335507E-16  1.06411980E-03  4.02222024E-02 -2.20609509E-02 -5.58943879E-02
  1.26933258E-16  4.15694563E-03  8.83280342E-02  2.86964762E-02 -1.14908470E-01
  2.77921462E-16  4.70919219E-02  2.91651932E-01  2.69517708E-01 -8.93180125E-02
  6.23218509E-16  2.87661866E-16  2.81810080E-16  2.92389811E-32  1.00000000E+00
 -5.17352143E-18 -1.09882064E-16  1.33600581E-16  1.18335507E-16  2.56825005E-02
 -2.04380438E-18 -7.72528742E-17  4.23714209E-17  1.26933258E-16  1.01942236E-02
 -8.21856855E-18 -1.74630623E-16 -5.67349148E-17  2.77921462E-16  2.56639912E-02
 -9.64711155E-17 -5.97469503E-16 -5.52125989E-16  6.23218509E-16  2.14903175E-01
  1.32042995E-31 -5.55720627E-31 -7.69875756E-47 -4.68271985E-46  1.00000000E+00
  9.32781801E-07  3.79720926E-02 -1.99432541E-02 -5.97110317E-02  1.14682969E-16
  2.05843586E-17  1.84282927E-03  8.48599293E-04 -4.15694563E-03  8.21856855E-18
  9.67201544E-23  4.22277839E-04  7.42855953E-04 -8.38725530E-04  1.71816797E-18
  2.05608027E-17  1.84257566E-03  4.02361919E-03 -1.34402295E-03  3.05042292E-18
  9.35849271E-07  3.79890711E-02  6.17105198E-02  1.25887450E-02 -1.81475131E-17
  1.00000000E+00  3.79720926E-02  3.67202707E-01 -1.23466549E-01 -3.69664598E-01
  7.09989972E-16  1.84282927E-03  6.12807389E-02  1.80312937E-02 -8.83280342E-02
  1.74630623E-16  4.22277839E-04  2.63795729E-02  2.80947942E-02 -3.17205793E-02
  6.49810713E-17  1.84257566E-03  6.12758481E-02  8.54995256E-02 -2.85596920E-02
  6.48196810E-17  3.79890711E-02  3.67296441E-01  3.81939539E-01  7.79144214E-02
 -1.12318820E-16  2.48362390E-01  1.00000000E+00  1.99432541E-02  1.23466549E-01
  1.60500016E-01 -1.63190270E-01  3.13428594E-16 -8.48599293E-04 -1.80312937E-02
  1.98058897E-02  2.86964762E-02 -5.67349148E-17 -7.42855953E-04 -2.80947942E-02
 -2.20833552E-02  3.64332946E-02 -7.46352861E-17 -4.02361919E-03 -8.54995256E-02
 -1.06061995E-01  4.40001101E-02 -9.98635807E-17 -6.17105198E-02 -3.81939539E-01
 -3.06403838E-01 -1.06380508E-01  1.53354578E-16  4.90705165E-17 -1.50897990E-16
  1.00000000E+00  5.97110317E-02  3.69664598E-01 -1.63190270E-01 -2.73594333E-01
  9.38419809E-16  4.15694563E-03  8.83280342E-02  2.86964762E-02 -1.14908470E-01
  2.77921462E-16  8.38725530E-04  3.17205793E-02  3.64332946E-02 -3.09497356E-02
  8.42673733E-17  1.34402295E-03  2.85596920E-02  4.40001101E-02  1.09642096E-02
  3.33577653E-17 -1.25887450E-02 -7.79144214E-02 -1.06380508E-01  1.93376294E-01
  3.12838342E-17 -7.46348625E-17  1.40905040E-16 -2.92389811E-32  1.00000000E+00
 -1.14682969E-16 -7.09989972E-16  3.13428594E-16  9.38419809E-16  2.15004936E-01
 -8.21856855E-18 -1.74630623E-16 -5.67349148E-17  2.77921462E-16  2.56639912E-02
 -1.71816797E-18 -6.49810713E-17 -7.46352861E-17  8.42673733E-17  1.01854727E-02
 -3.05042292E-18 -6.48196810E-17 -9.98635807E-17  3.33577653E-17  2.56617133E-02
  1.81475131E-17  1.12318820E-16  1.53354578E-16  3.12838342E-17  2.15077572E-01
  2.47674403E-31  9.72994279E-32  0.00000000E+00 -2.53081600E-47  1.00000000E+00
  5.29064196E-03  9.55903187E-02 -3.29116238E-02  1.19138660E-01 -2.36446288E-16
  6.08874056E-02  4.85212737E-01  1.47061368E-01  4.40014721E-01 -8.45096437E-16
  5.29176584E-03  9.56049109E-02  9.79163065E-02  7.54563185E-02 -1.37298098E-16
  9.20087291E-05  6.45003131E-03  6.75860783E-03  8.28683980E-03 -1.54974442E-17
  1.21817086E-05  1.84747902E-03  1.05294511E-03  3.15324093E-03 -6.05624175E-18
  9.19773484E-05  6.44864959E-03 -4.21949098E-04  1.06830173E-02 -2.09366027E-17
  1.00000000E+00  9.18753931E-05  6.44415922E-03 -9.45667472E-03  4.97273417E-03
 -1.07167321E-17  5.29116530E-03  9.55971136E-02 -1.19639927E-01  3.10704895E-02
 -7.33103689E-17  6.08838509E-02  4.85198418E-01 -3.07669085E-01  3.47234316E-01
 -7.11338637E-16  5.29246541E-03  9.56139937E-02 -1.64086457E-02  1.22533853E-01
 -2.41355408E-16  9.19352201E-05  6.44679436E-03 -3.79728042E-03  9.99121385E-03
 -1.99376529E-17  1.21620393E-05  1.84565734E-03 -2.20227216E-03  2.48620164E-03
 -5.09312538E-18  5.00066312E-02  1.00000000E+00  9.20087291E-05  6.45003131E-03
 -6.75860783E-03 -8.28683980E-03  1.54974442E-17  1.21817086E-05  1.84747902E-03
 -1.05294511E-03 -3.15324093E-03  6.05624175E-18  9.19773484E-05  6.44864959E-03
  4.21949098E-04 -1.06830173E-02  2.09366027E-17  5.29064196E-03  9.55903187E-02
  3.29116238E-02 -1.19138660E-01  2.36446288E-16  6.08874056E-02  4.85212737E-01
 -1.47061368E-01 -4.40014721E-01  8.45096437E-16  5.29176584E-03  9.56049109E-02
 -9.79163065E-02 -7.54563185E-02  1.37298098E-16  1.11528442E-04  7.61637368E-04
  1.00000000E+00  5.29246541E-03  9.56139937E-02  1.64086457E-02 -1.22533853E-01
  2.41355408E-16  9.19352201E-05  6.44679436E-03  3.79728042E-03 -9.99121385E-03
  1.99376529E-17  1.21620393E-05  1.84565734E-03  2.20227216E-03 -2.48620164E-03
  5.09312538E-18  9.18753931E-05  6.44415922E-03  9.45667472E-03 -4.97273417E-03
  1.07167321E-17  5.29116530E-03  9.55971136E-02  1.19639927E-01 -3.10704895E-02
  7.33103689E-17  6.08838509E-02  4.85198418E-01  3.07669085E-01 -3.47234316E-01
  7.11338637E-16  7.61637368E-04  1.11398407E-04  5.00066312E-02  1.00000000E+00
  9.22885316E-53  1.06745412E-07 -4.29246199E-07 -8.75707565E-08  1.26242119E-22
  1.51058224E-41  2.34817295E-06 -7.39185638E-06 -4.25538071E-06  7.54686924E-21
  3.91179358E-19  1.14467049E-03 -2.12573746E-03 -1.77720085E-03  3.25266754E-18
  6.33881341E-08  2.65883850E-02 -4.36861748E-02 -8.91677985E-03  1.28566721E-17
  3.88855306E-19  1.14385146E-03 -2.65040526E-03  8.01670772E-04 -1.84575270E-18
  1.49285306E-41  2.34485482E-06 -8.45667496E-06  1.01793783E-06 -2.87762100E-21
  2.05131401E-07  1.01737671E-03  1.01718898E-03  2.04866536E-07  1.00000000E+00
  1.06745412E-07  2.93227593E-04 -6.32203684E-04 -1.28976226E-04  1.85932299E-19
  2.34817295E-06  1.52827565E-03 -2.63558426E-03 -1.51726628E-03  2.69085447E-18
  1.14467049E-03  4.65534822E-02 -5.41969969E-02 -4.53108396E-02  8.29287794E-17
  2.65883850E-02  2.98493812E-01 -3.29566904E-01 -6.72678609E-02  9.69902640E-17
  1.14385146E-03  4.65343398E-02 -6.75924490E-02  2.04447568E-02 -4.70716488E-17
  2.34485482E-06  1.52711465E-03 -3.01717788E-03  3.63180506E-04 -1.02667945E-18
  1.58079961E-04  3.04893695E-02  3.04856017E-02  1.57958181E-04  2.48362390E-01
  1.00000000E+00  4.29246199E-07  6.32203684E-04 -1.28669150E-03 -2.81762970E-04
  4.06189871E-19  7.39185638E-06  2.63558426E-03 -4.16355691E-03 -2.68973754E-03
  4.77021890E-18  2.12573746E-03  5.41969969E-02 -5.01125605E-02 -5.77259802E-02
  1.05651211E-16  4.36861748E-02  3.29566904E-01 -2.94979322E-01 -9.37446014E-02
  1.35165791E-16  2.65040526E-03  6.75924490E-02 -8.85136172E-02  3.24973117E-02
 -7.48212396E-17  8.45667496E-06  3.01717788E-03 -5.61944053E-03  7.37599924E-04
 -2.08513033E-18  2.55811836E-04  1.99234120E-02  3.40091238E-02  3.15852575E-04
 -3.07793116E-16  6.95776166E-17  1.00000000E+00  8.75707565E-08  1.28976226E-04
 -2.81762970E-04  3.69454331E-05  8.28670222E-20  4.25538071E-06  1.51726628E-03
 -2.68973754E-03 -1.03975993E-03  2.74614339E-18  1.77720085E-03  4.53108396E-02
 -5.77259802E-02 -2.93268311E-02  8.83286039E-17  8.91677985E-03  6.72678609E-02
 -9.37446014E-02  1.45171458E-01  2.75886733E-17 -8.01670772E-04 -2.04447568E-02
  3.24973117E-02  9.09631159E-03  2.26312564E-17 -1.01793783E-06 -3.63180506E-04
  7.37599924E-04  4.19498624E-04  2.50989076E-19  2.06039548E-04  4.00232367E-02
 -2.90126424E-02 -8.92861032E-05 -5.75170757E-17  1.50897990E-16  0.00000000E+00
  1.00000000E+00 -1.26242119E-22 -1.85932299E-19  4.06189871E-19  8.28670222E-20
  9.44280538E-05 -7.54686924E-21 -2.69085447E-18  4.77021890E-18  2.74614339E-18
  5.08681585E-04 -3.25266754E-18 -8.29287794E-17  1.05651211E-16  8.83286039E-17
  1.89343784E-02 -1.28566721E-17 -9.69902640E-17  1.35165791E-16  2.75886733E-17
  1.64305657E-01  1.84575270E-18  4.70716488E-17 -7.48212396E-17  2.26312564E-17
  1.89258065E-02  2.87762100E-21  1.02667945E-18 -2.08513033E-18  2.50989076E-19
  5.08284213E-04 -3.76115472E-19 -7.61824135E-17  6.03055229E-17  2.07737820E-19
  7.28799087E-32 -2.04315539E-31 -1.30258264E-46 -2.59694320E-47  1.00000000E+00
  1.47225279E-74  2.64963546E-10 -1.29521865E-09  2.11748576E-11 -1.77244852E-25
  3.15953097E-53  9.38978532E-08 -3.77545207E-07 -8.54157144E-08  1.27449649E-22
  2.41845956E-25  2.05744451E-04 -5.62474885E-04 -1.33199226E-04  2.01503751E-19
  8.88424017E-19  1.26320676E-03 -2.92715020E-03  7.72108474E-04 -1.81696208E-18
  4.15816668E-40  3.49292959E-06 -1.11351303E-05  5.58991274E-06 -1.20997491E-20
  5.40065296E-68  1.61150042E-09 -7.20785179E-09  2.14683477E-09 -4.95439143E-24
  3.74728463E-08  1.48084008E-03  5.44616205E-06  1.39591865E-10  3.04987038E-06
  4.47243006E-02 -5.17653303E-02  5.31703981E-02 -1.09412038E-16  1.00000000E+00
  2.64963546E-10  1.22404593E-05 -3.16710808E-05  5.17774068E-07 -4.33404510E-21
  9.38978532E-08  2.73906286E-04 -5.90151022E-04 -1.33515590E-04  1.99219959E-19
  2.05744451E-04  1.76113287E-02 -2.85372124E-02 -6.75787439E-03  1.02233104E-17
  1.26320676E-03  4.92679015E-02 -7.18434953E-02  1.89505040E-02 -4.45952199E-17
  3.49292959E-06  1.89227713E-03 -3.31868299E-03  1.66600191E-03 -3.60617526E-18
  1.61150042E-09  3.17846220E-05 -7.53841746E-05  2.24529266E-05 -5.18160916E-20
  5.74574690E-05  3.92739296E-02  1.13225154E-03  2.08624942E-06  4.47243006E-02
  4.02773183E-01 -2.88955938E-01  2.96799077E-01 -6.10741936E-16  2.48362390E-01
  1.00000000E+00  1.29521865E-09  3.16710808E-05 -7.83167081E-05  1.34342676E-06
 -1.12451985E-20  3.77545207E-07  5.90151022E-04 -1.19972541E-03 -2.91363378E-04
  4.34746236E-19  5.62474885E-04  2.85372124E-02 -4.28466297E-02 -1.17070996E-02
  1.77104968E-17  2.92715020E-03  7.18434953E-02 -9.46869801E-02  3.02923286E-02
 -7.12853366E-17  1.11351303E-05  3.31868299E-03 -5.36450788E-03  3.01121358E-03
 -6.51797809E-18  7.20785179E-09  7.53841746E-05 -1.69541690E-04  5.34912347E-05
 -1.23445231E-19  1.15420705E-04  4.60238929E-02  1.55580819E-03  4.91997829E-06
  5.17653303E-02  2.88955938E-01 -3.45116016E-02  2.85322875E-01 -5.87126641E-16
 -2.00098325E-16  9.60127184E-16  1.00000000E+00 -2.11748576E-11 -5.17774068E-07
  1.34342676E-06  3.83573700E-06  1.83841915E-22  8.54157144E-08  1.33515590E-04
 -2.91363378E-04  2.22091918E-05  9.83568582E-20  1.33199226E-04  6.75787439E-03
 -1.17070996E-02  3.81786616E-03  4.19400854E-18 -7.72108474E-04 -1.89505040E-02
  3.02923286E-02  1.21642968E-02  1.88032758E-17 -5.58991274E-06 -1.66600191E-03
  3.01121358E-03 -8.77807551E-04  3.27207026E-18 -2.14683477E-09 -2.24529266E-05
  5.34912347E-05 -5.88069319E-06  3.67677531E-20  5.03504374E-05  3.22486839E-02
 -1.41043300E-03 -2.01183158E-06 -5.31703981E-02 -2.96799077E-01  2.85322875E-01
 -4.97960002E-02  6.03063036E-16 -2.62354908E-17 -7.54489951E-17 -5.84779622E-32
  1.00000000E+00  1.77244852E-25  4.33404510E-21 -1.12451985E-20  1.83841915E-22
  3.85769998E-06 -1.27449649E-22 -1.99219959E-19  4.34746236E-19  9.83568582E-20
  8.81271552E-05 -2.01503751E-19 -1.02233104E-17  1.77104968E-17  4.19400854E-18
  6.59021502E-03  1.81696208E-18  4.45952199E-17 -7.12853366E-17  1.88032758E-17
  2.01546499E-02  1.20997491E-20  3.60617526E-18 -6.51797809E-18  3.27207026E-18
  6.33842577E-04  4.95439143E-24  5.18160916E-20 -1.23445231E-19  3.67677531E-20
  1.00514938E-05 -8.63637798E-20 -5.82407833E-17  2.92149060E-18  4.45043392E-21
  1.09412038E-16  6.10741936E-16 -5.87126641E-16  6.03063036E-16  2.43271401E-01
 -1.49867846E-32  3.08986688E-32  0.00000000E+00  0.00000000E+00  1.00000000E+00
  7.41680361E-08  8.62330313E-05 -1.69957607E-04 -7.32511064E-05  1.25430234E-19
  2.85181282E-07  1.92426968E-04 -3.03518210E-04 -2.53656012E-04  4.64233965E-19
  6.94927243E-05  5.41006775E-03 -5.73149530E-03 -7.04009814E-03  1.31669580E-17
  4.44493833E-03  8.43832651E-02 -8.72231161E-02 -6.84032489E-02  1.24626122E-16
  1.14946288E-03  3.30926736E-02 -4.77834330E-02 -5.94354396E-03  6.61233956E-18
  4.69613642E-06  1.03505424E-03 -1.90849174E-03 -2.88671229E-04  3.64392747E-19
  1.49461234E-05  2.79609580E-03  5.54692998E-02  2.06833017E-04  6.10855877E-02
  4.86010001E-01 -1.04860636E-01 -4.52430081E-01  8.73802397E-16  5.78115105E-03
  1.01890938E-01  4.15192821E-02 -1.23887673E-01  2.46636459E-16  1.00000000E+00
  1.17574263E-11  4.82167356E-07 -1.29920889E-06 -2.80482495E-08 -8.13996524E-23
  2.61557141E-09  1.18376124E-05 -2.73329062E-05 -6.05946473E-06  8.98375816E-21
  5.71623743E-06  1.16596450E-03 -2.10470388E-03 -4.79472069E-04  7.16956910E-19
  5.60690731E-05  4.73213080E-03 -7.95518537E-03  9.58086885E-04 -2.70797997E-18
  2.49178440E-07  1.77533321E-04 -3.48016438E-04  1.15111225E-04 -2.61616117E-19
  1.14557941E-10  1.85585227E-06 -4.65407222E-06  9.53184455E-07 -2.35219341E-21
  2.78911361E-06  4.16626666E-03  1.98901713E-04  1.51794016E-07  5.78140573E-03
  1.01894175E-01 -1.22735715E-01  4.48206800E-02 -1.00525735E-16  6.10850997E-02
  4.86008040E-01 -4.55071040E-01 -9.27252732E-02  1.33614262E-16  4.83128210E-02
  1.00000000E+00  2.89127764E-08  4.92515142E-05 -1.05909652E-04  2.48515718E-05
 -5.97083380E-20  7.47252902E-06  1.37187357E-03 -2.51368675E-03  6.92817825E-05
 -3.99110582E-19  1.32819924E-03  3.64817255E-02 -5.20184038E-02  7.69756180E-03
 -2.05091636E-17  9.08755529E-04  2.82732793E-02 -3.28687591E-02  2.57405154E-02
 -5.37867606E-17  3.49483384E-06  8.65694395E-04 -1.22148400E-03  1.08212511E-03
 -2.24437021E-18  1.98010906E-08  3.93342514E-05 -7.68802784E-05  4.25362888E-05
 -9.12492248E-20  5.46289496E-04  1.29837666E-01  2.65253358E-04  2.09214798E-06
  5.78115091E-03  1.01890936E-01 -4.15192813E-02  1.23887672E-01 -2.46636455E-16
  6.10855863E-02  4.86009995E-01  1.04860634E-01  4.52430078E-01 -8.73802391E-16
  1.41444010E-02  1.52206714E-01  1.00000000E+00  6.33881341E-08  2.65883850E-02
  4.36861748E-02  8.91677985E-03 -1.28566721E-17  3.88855306E-19  1.14385146E-03
  2.65040526E-03 -8.01670772E-04  1.84575270E-18  1.49285306E-41  2.34485482E-06
  8.45667496E-06 -1.01793783E-06  2.87762100E-21  9.22885316E-53  1.06745412E-07
  4.29246199E-07  8.75707565E-08 -1.26242119E-22  1.51058224E-41  2.34817295E-06
  7.39185638E-06  4.25538071E-06 -7.54686924E-21  3.91179358E-19  1.14467049E-03
  2.12573746E-03  1.77720085E-03 -3.25266754E-18  1.01718898E-03  2.04866536E-07
  2.05131401E-07  1.01737671E-03  9.02103186E-96  7.80481257E-13  4.23971132E-12
  8.65056351E-13 -1.24712317E-27  0.00000000E+00  3.77253247E-16  2.37488320E-15
  7.95092581E-17  9.35690641E-32  3.63456936E-12  5.21668335E-17  2.01943028E-12
  1.00000000E+00  2.65883850E-02  2.98493812E-01  3.29566904E-01  6.72678609E-02
 -9.69902640E-17  1.14385146E-03  4.65343398E-02  6.75924490E-02 -2.04447568E-02
  4.70716488E-17  2.34485482E-06  1.52711465E-03  3.01717788E-03 -3.63180506E-04
  1.02667945E-18  1.06745412E-07  2.93227593E-04  6.32203684E-04  1.28976226E-04
 -1.85932299E-19  2.34817295E-06  1.52827565E-03  2.63558426E-03  1.51726628E-03
 -2.69085447E-18  1.14467049E-03  4.65534822E-02  5.41969969E-02  4.53108396E-02
 -8.29287794E-17  3.04856017E-02  1.57958181E-04  1.58079961E-04  3.04893695E-02
  7.80481257E-13  5.63355794E-07  1.61753600E-06  3.30036571E-07 -4.75802826E-22
  3.77253247E-16  9.94828380E-09  3.31343834E-08  1.10931361E-09  1.30547610E-24
  2.40635379E-07  3.25513079E-10  1.69926554E-07  2.48362390E-01  1.00000000E+00
 -4.36861748E-02 -3.29566904E-01 -2.94979322E-01 -9.37446014E-02  1.35165791E-16
 -2.65040526E-03 -6.75924490E-02 -8.85136172E-02  3.24973117E-02 -7.48212396E-17
 -8.45667496E-06 -3.01717788E-03 -5.61944053E-03  7.37599924E-04 -2.08513033E-18
 -4.29246199E-07 -6.32203684E-04 -1.28669150E-03 -2.81762970E-04  4.06189871E-19
 -7.39185638E-06 -2.63558426E-03 -4.16355691E-03 -2.68973754E-03  4.77021890E-18
 -2.12573746E-03 -5.41969969E-02 -5.01125605E-02 -5.77259802E-02  1.05651211E-16
 -3.40091238E-02 -3.15852575E-04 -2.55811836E-04 -1.99234120E-02 -4.23971132E-12
 -1.61753600E-06 -4.47030127E-06 -9.48173809E-07  1.36695087E-21 -2.37488320E-15
 -3.31343834E-08 -1.07249239E-07 -3.69502799E-09 -4.34842834E-24 -6.22725543E-07
 -1.08693996E-09 -4.71085513E-07  3.07793116E-16 -6.95776166E-17  1.00000000E+00
 -8.91677985E-03 -6.72678609E-02 -9.37446014E-02  1.45171458E-01  2.75886733E-17
  8.01670772E-04  2.04447568E-02  3.24973117E-02  9.09631159E-03  2.26312564E-17
  1.01793783E-06  3.63180506E-04  7.37599924E-04  4.19498624E-04  2.50989076E-19
 -8.75707565E-08 -1.28976226E-04 -2.81762970E-04  3.69454331E-05  8.28670222E-20
 -4.25538071E-06 -1.51726628E-03 -2.68973754E-03 -1.03975993E-03  2.74614339E-18
 -1.77720085E-03 -4.53108396E-02 -5.77259802E-02 -2.93268311E-02  8.83286039E-17
  2.90126424E-02  8.92861032E-05 -2.06039548E-04 -4.00232367E-02 -8.65056351E-13
 -3.30036571E-07 -9.48173809E-07 -1.66867195E-08  2.78908030E-22 -7.95092581E-17
 -1.10931361E-09 -3.69502799E-09  2.99482886E-09 -1.45582028E-25 -2.32855574E-07
 -6.20812511E-11  6.20212030E-08  5.75170757E-17 -1.50897990E-16  0.00000000E+00
  1.00000000E+00  1.28566721E-17  9.69902640E-17  1.35165791E-16  2.75886733E-17
  1.64305657E-01 -1.84575270E-18 -4.70716488E-17 -7.48212396E-17  2.26312564E-17
  1.89258065E-02 -2.87762100E-21 -1.02667945E-18 -2.08513033E-18  2.50989076E-19
  5.08284213E-04  1.26242119E-22  1.85932299E-19  4.06189871E-19  8.28670222E-20
  9.44280538E-05  7.54686924E-21  2.69085447E-18  4.77021890E-18  2.74614339E-18
  5.08681585E-04  3.25266754E-18  8.29287794E-17  1.05651211E-16  8.83286039E-17
  1.89343784E-02 -6.03055229E-17 -2.07737820E-19  3.76115472E-19  7.61824135E-17
  1.24712317E-27  4.75802826E-22  1.36695087E-21  2.78908030E-22  1.76775456E-07
 -9.35690641E-32 -1.30547610E-24 -4.34842834E-24 -1.45582028E-25  3.11853555E-09
  3.90079008E-22  7.41870502E-27 -1.70696752E-22 -7.28799087E-32  2.04315539E-31
 -1.30258264E-46 -2.59694320E-47  1.00000000E+00  8.88424017E-19  1.26320676E-03
  2.92715020E-03 -7.72108474E-04  1.81696208E-18  4.15816668E-40  3.49292959E-06
  1.11351303E-05 -5.58991274E-06  1.20997491E-20  5.40065296E-68  1.61150042E-09
  7.20785179E-09 -2.14683477E-09  4.95439143E-24  1.47225279E-74  2.64963546E-10
  1.29521865E-09 -2.11748576E-11  1.77244852E-25  3.15953097E-53  9.38978532E-08
  3.77545207E-07  8.54157144E-08 -1.27449649E-22  2.41845956E-25  2.05744451E-04
  5.62474885E-04  1.33199226E-04 -2.01503751E-19  5.44616205E-06  1.39591865E-10
  3.74728463E-08  1.48084008E-03  0.00000000E+00  3.77253247E-16  2.37488320E-15
  7.95092581E-17  9.35690641E-32  0.00000000E+00  1.32352584E-20  9.47072263E-20
 -9.05143163E-21  2.76337963E-35  2.51067327E-14  7.73708215E-21  2.95521187E-16
  3.04987038E-06  4.47243006E-02  5.17653303E-02 -5.31703981E-02  1.09412038E-16
  1.00000000E+00  1.26320676E-03  4.92679015E-02  7.18434953E-02 -1.89505040E-02
  4.45952199E-17  3.49292959E-06  1.89227713E-03  3.31868299E-03 -1.66600191E-03
  3.60617526E-18  1.61150042E-09  3.17846220E-05  7.53841746E-05 -2.24529266E-05
  5.18160916E-20  2.64963546E-10  1.22404593E-05  3.16710808E-05 -5.17774068E-07
  4.33404510E-21  9.38978532E-08  2.73906286E-04  5.90151022E-04  1.33515590E-04
 -1.99219959E-19  2.05744451E-04  1.76113287E-02  2.85372124E-02  6.75787439E-03
 -1.02233104E-17  1.13225154E-03  2.08624942E-06  5.74574690E-05  3.92739296E-02
  3.77253247E-16  9.94828380E-09  3.31343834E-08  1.10931361E-09  1.30547610E-24
  1.32352584E-20  4.35420739E-11  1.65098631E-10 -1.57789329E-11  4.81726910E-26
  1.26462377E-08  1.74466664E-12  9.09887554E-10  4.47243006E-02  4.02773183E-01
  2.88955938E-01 -2.96799077E-01  6.10741936E-16  2.48362390E-01  1.00000000E+00
 -2.92715020E-03 -7.18434953E-02 -9.46869801E-02  3.02923286E-02 -7.12853366E-17
 -1.11351303E-05 -3.31868299E-03 -5.36450788E-03  3.01121358E-03 -6.51797809E-18
 -7.20785179E-09 -7.53841746E-05 -1.69541690E-04  5.34912347E-05 -1.23445231E-19
 -1.29521865E-09 -3.16710808E-05 -7.83167081E-05  1.34342676E-06 -1.12451985E-20
 -3.77545207E-07 -5.90151022E-04 -1.19972541E-03 -2.91363378E-04  4.34746236E-19
 -5.62474885E-04 -2.85372124E-02 -4.28466297E-02 -1.17070996E-02  1.77104968E-17
 -1.55580819E-03 -4.91997829E-06 -1.15420705E-04 -4.60238929E-02 -2.37488320E-15
 -3.31343834E-08 -1.07249239E-07 -3.69502799E-09 -4.34842834E-24 -9.47072263E-20
 -1.65098631E-10 -6.12360559E-10  5.98293174E-11 -1.82657422E-25 -3.77302771E-08
 -6.52016240E-12 -2.88196906E-09 -5.17653303E-02 -2.88955938E-01 -3.45116016E-02
  2.85322875E-01 -5.87126641E-16  2.00098325E-16 -9.60127184E-16  1.00000000E+00
  7.72108474E-04  1.89505040E-02  3.02923286E-02  1.21642968E-02  1.88032758E-17
  5.58991274E-06  1.66600191E-03  3.01121358E-03 -8.77807551E-04  3.27207026E-18
  2.14683477E-09  2.24529266E-05  5.34912347E-05 -5.88069319E-06  3.67677531E-20
  2.11748576E-11  5.17774068E-07  1.34342676E-06  3.83573700E-06  1.83841915E-22
 -8.54157144E-08 -1.33515590E-04 -2.91363378E-04  2.22091918E-05  9.83568582E-20
 -1.33199226E-04 -6.75787439E-03 -1.17070996E-02  3.81786616E-03  4.19400854E-18
  1.41043300E-03  2.01183158E-06 -5.03504374E-05 -3.22486839E-02 -7.95092581E-17
 -1.10931361E-09 -3.69502799E-09  2.99482886E-09 -1.45582028E-25  9.05143163E-21
  1.57789329E-11  5.98293174E-11  7.92939705E-12  1.74570752E-26 -7.04753586E-09
  3.81113467E-13  7.04034012E-10  5.31703981E-02  2.96799077E-01  2.85322875E-01
 -4.97960002E-02  6.03063036E-16  2.62354908E-17  7.54489951E-17 -5.84779622E-32
  1.00000000E+00 -1.81696208E-18 -4.45952199E-17 -7.12853366E-17  1.88032758E-17
  2.01546499E-02 -1.20997491E-20 -3.60617526E-18 -6.51797809E-18  3.27207026E-18
  6.33842577E-04 -4.95439143E-24 -5.18160916E-20 -1.23445231E-19  3.67677531E-20
  1.00514938E-05 -1.77244852E-25 -4.33404510E-21 -1.12451985E-20  1.83841915E-22
  3.85769998E-06  1.27449649E-22  1.99219959E-19  4.34746236E-19  9.83568582E-20
  8.81271552E-05  2.01503751E-19  1.02233104E-17  1.77104968E-17  4.19400854E-18
  6.59021502E-03 -2.92149060E-18 -4.45043392E-21  8.63637798E-20  5.82407833E-17
 -9.35690641E-32 -1.30547610E-24 -4.34842834E-24 -1.45582028E-25  3.11853555E-09
 -2.76337963E-35 -4.81726910E-26 -1.82657422E-25  1.74570752E-26  1.36474504E-11
  9.82568154E-24 -1.42912024E-27 -1.67909327E-24 -1.09412038E-16 -6.10741936E-16
 -5.87126641E-16  6.03063036E-16  2.43271401E-01  1.49867846E-32 -3.08986688E-32
  0.00000000E+00  0.00000000E+00  1.00000000E+00  4.44493833E-03  8.43832651E-02
  8.72231161E-02  6.84032489E-02 -1.24626122E-16  1.14946288E-03  3.30926736E-02
  4.77834330E-02  5.94354396E-03 -6.61233956E-18  4.69613642E-06  1.03505424E-03
  1.90849174E-03  2.88671229E-04 -3.64392747E-19  7.41680361E-08  8.62330313E-05
  1.69957607E-04  7.32511064E-05 -1.25430234E-19  2.85181282E-07  1.92426968E-04
  3.03518210E-04  2.53656012E-04 -4.64233965E-19  6.94927243E-05  5.41006775E-03
  5.73149530E-03  7.04009814E-03 -1.31669580E-17  5.54692998E-02  2.06833017E-04
  1.49461234E-05  2.79609580E-03  3.63456936E-12  2.40635379E-07  6.22725543E-07
  2.32855574E-07 -3.90079008E-22  2.51067327E-14  1.26462377E-08  3.77302771E-08
  7.04753586E-09 -9.82568154E-24  5.59348657E-08  4.11819602E-10  2.83715240E-07
  6.10855877E-02  4.86010001E-01  1.04860636E-01  4.52430081E-01 -8.73802397E-16
  5.78115105E-03  1.01890938E-01 -4.15192821E-02  1.23887673E-01 -2.46636459E-16
  1.00000000E+00  5.60690731E-05  4.73213080E-03  7.95518537E-03 -9.58086885E-04
  2.70797997E-18  2.49178440E-07  1.77533321E-04  3.48016438E-04 -1.15111225E-04
  2.61616117E-19  1.14557941E-10  1.85585227E-06  4.65407222E-06 -9.53184455E-07
  2.35219341E-21  1.17574263E-11  4.82167356E-07  1.29920889E-06  2.80482495E-08
  8.13996524E-23  2.61557141E-09  1.18376124E-05  2.73329062E-05  6.05946473E-06
 -8.98375816E-21  5.71623743E-06  1.16596450E-03  2.10470388E-03  4.79472069E-04
 -7.16956910E-19  1.98901713E-04  1.51794016E-07  2.78911361E-06  4.16626666E-03
  5.21668335E-17  3.25513079E-10  1.08693996E-09  6.20812511E-11 -7.41870502E-27
  7.73708215E-21  1.74466664E-12  6.52016240E-12 -3.81113467E-13  1.42912024E-27
  4.11819602E-10  6.72822756E-14  4.63163947E-11  5.78140573E-03  1.01894175E-01
  1.22735715E-01 -4.48206800E-02  1.00525735E-16  6.10850997E-02  4.86008040E-01
  4.55071040E-01  9.27252732E-02 -1.33614262E-16  4.83128210E-02  1.00000000E+00
  9.08755529E-04  2.82732793E-02  3.28687591E-02 -2.57405154E-02  5.37867606E-17
  3.49483384E-06  8.65694395E-04  1.22148400E-03 -1.08212511E-03  2.24437021E-18
  1.98010906E-08  3.93342514E-05  7.68802784E-05 -4.25362888E-05  9.12492248E-20
  2.89127764E-08  4.92515142E-05  1.05909652E-04 -2.48515718E-05  5.97083380E-20
  7.47252902E-06  1.37187357E-03  2.51368675E-03 -6.92817825E-05  3.99110582E-19
  1.32819924E-03  3.64817255E-02  5.20184038E-02 -7.69756180E-03  2.05091636E-17
  2.65253358E-04  2.09214798E-06  5.46289496E-04  1.29837666E-01  2.01943028E-12
  1.69926554E-07  4.71085513E-07 -6.20212030E-08  1.70696752E-22  2.95521187E-16
  9.09887554E-10  2.88196906E-09 -7.04034012E-10  1.67909327E-24  2.83715240E-07
  4.63163947E-11  4.06637549E-09  5.78115091E-03  1.01890936E-01  4.15192813E-02
 -1.23887672E-01  2.46636455E-16  6.10855863E-02  4.86009995E-01 -1.04860634E-01
 -4.52430078E-01  8.73802391E-16  1.41444010E-02  1.52206714E-01  1.00000000E+00
Kinetic Energy Matrix                      R   N=        1830
  1.58911217E+01 -8.58900137E-02  4.72249973E-01  0.00000000E+00  0.00000000E+00
  1.47772808E+00  0.00000000E+00  0.00000000E+00  0.00000000E+00  1.47772808E+00
  0.00000000E+00  0.00000000E+00  0.00000000E+00  0.00000000E+00  1.47772808E+00
 -3.53936812E-05 -8.43110030E-03  7.71716965E-03 -8.71084328E-03  1.78447754E-17
  1.58911217E+01 -8.43110030E-03  4.60533250E-02 -9.92832755E-02  1.12067130E-01
 -2.29577401E-16 -8.58900137E-02  4.72249973E-01 -7.71716965E-03  9.92832755E-02
 -9.41345093E-02  1.90829709E-01 -3.90928086E-16  0.00000000E+00  0.00000000E+00
  1.47772808E+00  8.71084328E-03 -1.12067130E-01  1.90829709E-01 -1.40474564E-01
  4.41264537E-16  0.00000000E+00  0.00000000E+00  0.00000000E+00  1.47772808E+00
 -1.78447754E-17  2.29577401E-16 -3.90928086E-16  4.41264537E-16  7.49266469E-02
  0.00000000E+00  0.00000000E+00  0.00000000E+00  0.00000000E+00  1.47772808E+00
  0.00000000E+00 -2.29206936E-03  3.36295826E-03 -1.12334018E-03  2.54955662E-18
 -3.56481748E-05 -8.43112877E-03  1.13960470E-02  2.32475645E-03 -3.35129104E-18
  1.58911217E+01 -2.29206936E-03 -1.75273954E-02  9.77820148E-03 -3.26624528E-03
  7.41313939E-18 -8.43112877E-03  4.61444255E-02 -1.46862493E-01 -2.99594701E-02
  4.31885687E-17 -8.58900137E-02  4.72249973E-01 -3.36295826E-03 -9.77820148E-03
 -1.01223126E-02  2.08512477E-03 -4.73244329E-18 -1.13960470E-02  1.46862493E-01
 -2.94440655E-01 -7.53749244E-02  1.08657967E-16  0.00000000E+00  0.00000000E+00
  1.47772808E+00  1.12334018E-03  3.26624528E-03  2.08512477E-03 -4.57654834E-03
  1.58079383E-18 -2.32475645E-03  2.99594701E-02 -7.53749244E-02  5.96739312E-02
  2.21658711E-17  0.00000000E+00  0.00000000E+00  0.00000000E+00  1.47772808E+00
 -2.54955662E-18 -7.41313939E-18 -4.73244329E-18  1.58079383E-18 -3.88004715E-03
  3.35129104E-18 -4.31885687E-17  1.08657967E-16  2.21658711E-17  7.50501702E-02
  0.00000000E+00  0.00000000E+00  0.00000000E+00  0.00000000E+00  1.47772808E+00
  0.00000000E+00 -7.86369097E-04  1.58252465E-03  3.22764969E-04 -4.65253804E-19
  0.00000000E+00 -2.29398733E-03  2.65556483E-03  2.35214255E-03 -4.32149332E-18
 -3.55419900E-05 -8.43111840E-03  3.68545215E-03  1.10344154E-02 -2.11930607E-17
  1.58911217E+01 -7.86369097E-04 -1.21380658E-02  1.23197389E-02  2.51268134E-03
 -3.62193752E-18 -2.29398733E-03 -1.75307675E-02  7.71133828E-03  6.83024820E-03
 -1.25489299E-17 -8.43111840E-03  4.61064794E-02 -4.74612832E-02 -1.42101293E-01
  2.72924411E-16 -8.58900137E-02  4.72249973E-01 -1.58252465E-03 -1.23197389E-02
  6.44032044E-03  2.00491653E-03 -2.89001327E-18 -2.65556483E-03 -7.71133828E-03
 -7.78297102E-03 -3.45785358E-03  6.35297003E-18 -3.68545215E-03  4.74612832E-02
  3.63910900E-02 -1.15593020E-01  2.22011753E-16  0.00000000E+00  0.00000000E+00
  1.47772808E+00 -3.22764969E-04 -2.51268134E-03  2.00491653E-03 -2.98092081E-03
 -5.89434765E-19 -2.35214255E-03 -6.83024820E-03 -3.45785358E-03 -6.94182293E-03
  5.62708579E-18 -1.10344154E-02  1.42101293E-01 -1.15593020E-01 -2.71092175E-01
  6.64713529E-16  0.00000000E+00  0.00000000E+00  0.00000000E+00  1.47772808E+00
  4.65253804E-19  3.62193752E-18 -2.89001327E-18 -5.89434765E-19 -3.38983503E-03
  4.32149332E-18  1.25489299E-17  6.35297003E-18  5.62708579E-18 -3.87906037E-03
  2.11930607E-17 -2.72924411E-16  2.22011753E-16  6.64713529E-16  7.49987126E-02
  0.00000000E+00  0.00000000E+00  0.00000000E+00  0.00000000E+00  1.47772808E+00
  0.00000000E+00 -2.29398733E-03  2.65556483E-03  2.35214255E-03 -4.32149332E-18
  0.00000000E+00 -7.87015709E-04  5.11735627E-04  1.53302082E-03 -2.94440029E-18
  0.00000000E+00 -2.29227956E-03 -7.09216945E-04  3.47416773E-03 -6.86866949E-18
 -3.53936812E-05 -8.43110030E-03 -7.71716965E-03  8.71084328E-03 -1.78447754E-17
  1.58911217E+01 -2.29398733E-03 -1.75307675E-02  7.71133828E-03  6.83024820E-03
 -1.25489299E-17 -7.87015709E-04 -1.21421388E-02  3.98162305E-03  1.19278602E-02
 -2.29092747E-17 -2.29227956E-03 -1.75277652E-02 -2.06183898E-03  1.01001175E-02
 -1.99686296E-17 -8.43110030E-03  4.60533250E-02  9.92832755E-02 -1.12067130E-01
  2.29577401E-16 -8.58900137E-02  4.72249973E-01 -2.65556483E-03 -7.71133828E-03
 -7.78297102E-03 -3.45785358E-03  6.35297003E-18 -5.11735627E-04 -3.98162305E-03
 -2.36467689E-03  3.07386110E-03 -5.90381906E-18  7.09216945E-04  2.06183898E-03
 -4.15765383E-03  1.36041201E-03 -2.68962849E-18  7.71716965E-03 -9.92832755E-02
 -9.41345093E-02  1.90829709E-01 -3.90928086E-16  0.00000000E+00  0.00000000E+00
  1.47772808E+00 -2.35214255E-03 -6.83024820E-03 -3.45785358E-03 -6.94182293E-03
  5.62708579E-18 -1.53302082E-03 -1.19278602E-02  3.07386110E-03  5.81769386E-03
 -1.76862369E-17 -3.47416773E-03 -1.01001175E-02  1.36041201E-03 -1.05440489E-02
  1.31754050E-17 -8.71084328E-03  1.12067130E-01  1.90829709E-01 -1.40474564E-01
  4.41264537E-16  0.00000000E+00  0.00000000E+00  0.00000000E+00  1.47772808E+00
  4.32149332E-18  1.25489299E-17  6.35297003E-18  5.62708579E-18 -3.87906037E-03
  2.94440029E-18  2.29092747E-17 -5.90381906E-18 -1.76862369E-17 -3.39075835E-03
  6.86866949E-18  1.99686296E-17 -2.68962849E-18  1.31754050E-17 -3.87993918E-03
  1.78447754E-17 -2.29577401E-16 -3.90928086E-16  4.41264537E-16  7.49266469E-02
  0.00000000E+00  0.00000000E+00  0.00000000E+00  0.00000000E+00  1.47772808E+00
 -3.55419900E-05 -8.43111840E-03  3.68545215E-03  1.10344154E-02 -2.11930607E-17
  0.00000000E+00 -2.29227956E-03 -7.09216945E-04  3.47416773E-03 -6.86866949E-18
  0.00000000E+00 -7.86161413E-04 -1.07063031E-03  1.20880094E-03 -2.47628454E-18
  0.00000000E+00 -2.29206936E-03 -3.36295826E-03  1.12334018E-03 -2.54955662E-18
 -3.56481748E-05 -8.43112877E-03 -1.13960470E-02 -2.32475645E-03  3.35129104E-18
  1.58911217E+01 -8.43111840E-03  4.61064794E-02 -4.74612832E-02 -1.42101293E-01
  2.72924411E-16 -2.29227956E-03 -1.75277652E-02 -2.06183898E-03  1.01001175E-02
 -1.99686296E-17 -7.86161413E-04 -1.21367570E-02 -8.33616988E-03  9.41199767E-03
 -1.92809118E-17 -2.29206936E-03 -1.75273954E-02 -9.77820148E-03  3.26624528E-03
 -7.41313939E-18 -8.43112877E-03  4.61444255E-02  1.46862493E-01  2.99594701E-02
 -4.31885687E-17 -8.58900137E-02  4.72249973E-01 -3.68545215E-03  4.74612832E-02
  3.63910900E-02 -1.15593020E-01  2.22011753E-16  7.09216945E-04  2.06183898E-03
 -4.15765383E-03  1.36041201E-03 -2.68962849E-18  1.07063031E-03  8.33616988E-03
  1.11225453E-03 -5.08277350E-03  1.04122962E-17  3.36295826E-03  9.77820148E-03
 -1.01223126E-02  2.08512477E-03 -4.73244329E-18  1.13960470E-02 -1.46862493E-01
 -2.94440655E-01 -7.53749244E-02  1.08657967E-16  0.00000000E+00  0.00000000E+00
  1.47772808E+00 -1.10344154E-02  1.42101293E-01 -1.15593020E-01 -2.71092175E-01
  6.64713529E-16 -3.47416773E-03 -1.01001175E-02  1.36041201E-03 -1.05440489E-02
  1.31754050E-17 -1.20880094E-03 -9.41199767E-03 -5.08277350E-03  2.34919463E-03
 -1.17560593E-17 -1.12334018E-03 -3.26624528E-03  2.08512477E-03 -4.57654834E-03
  1.58079383E-18  2.32475645E-03 -2.99594701E-02 -7.53749244E-02  5.96739312E-02
  2.21658711E-17  0.00000000E+00  0.00000000E+00  0.00000000E+00  1.47772808E+00
  2.11930607E-17 -2.72924411E-16  2.22011753E-16  6.64713529E-16  7.49987126E-02
  6.86866949E-18  1.99686296E-17 -2.68962849E-18  1.31754050E-17 -3.87993918E-03
  2.47628454E-18  1.92809118E-17  1.04122962E-17 -1.17560593E-17 -3.38953827E-03
  2.54955662E-18  7.41313939E-18 -4.73244329E-18  1.58079383E-18 -3.88004715E-03
 -3.35129104E-18  4.31885687E-17  1.08657967E-16  2.21658711E-17  7.50501702E-02
  0.00000000E+00  0.00000000E+00  0.00000000E+00  0.00000000E+00  1.47772808E+00
 -2.30581547E-03 -1.49750251E-02  2.52716651E-04 -9.14823385E-04  1.81558692E-18
 -1.08452365E-02  1.03737710E-01  8.09145154E-02  2.42100140E-01 -4.64979820E-16
 -2.30601755E-03 -1.49747496E-02 -7.49159323E-04 -5.77317574E-04  1.05047008E-18
 -1.57946973E-04 -3.79960867E-03 -3.11734412E-03 -3.82222670E-03  7.14804996E-18
 -2.89026746E-05 -1.45227396E-03 -6.86304281E-04 -2.05526643E-03  3.94742763E-18
 -1.57903290E-04 -3.79900835E-03  1.94634039E-04 -4.92779533E-03  9.65750502E-18
  7.60031884E-01 -1.57761339E-04 -3.79705709E-03  4.36313559E-03 -2.29432798E-03
  4.94450288E-18 -2.30590957E-03 -1.49748969E-02  9.17133244E-04 -2.38179506E-04
  5.61981087E-19 -1.08460159E-02  1.03729691E-01 -1.69275433E-01  1.91043697E-01
 -3.91369045E-16 -2.30614332E-03 -1.49745779E-02  1.25260686E-04 -9.35401666E-04
  1.84246431E-18 -1.57844639E-04 -3.79820223E-03  1.75175491E-03 -4.60912968E-03
  9.19760391E-18 -2.88623782E-05 -1.45113596E-03  1.43576078E-03 -1.62086725E-03
  3.32043870E-18 -1.06935353E-02  7.60031884E-01 -1.57946973E-04 -3.79960867E-03
  3.11734412E-03  3.82222670E-03 -7.14804996E-18 -2.89026746E-05 -1.45227396E-03
  6.86304281E-04  2.05526643E-03 -3.94742763E-18 -1.57903290E-04 -3.79900835E-03
 -1.94634039E-04  4.92779533E-03 -9.65750502E-18 -2.30581547E-03 -1.49750251E-02
 -2.52716651E-04  9.14823385E-04 -1.81558692E-18 -1.08452365E-02  1.03737710E-01
 -8.09145154E-02 -2.42100140E-01  4.64979820E-16 -2.30601755E-03 -1.49747496E-02
  7.49159323E-04  5.77317574E-04 -1.05047008E-18 -1.17661992E-04 -5.95903461E-04
  7.60031884E-01 -2.30614332E-03 -1.49745779E-02 -1.25260686E-04  9.35401666E-04
 -1.84246431E-18 -1.57844639E-04 -3.79820223E-03 -1.75175491E-03  4.60912968E-03
 -9.19760391E-18 -2.88623782E-05 -1.45113596E-03 -1.43576078E-03  1.62086725E-03
 -3.32043870E-18 -1.57761339E-04 -3.79705709E-03 -4.36313559E-03  2.29432798E-03
 -4.94450288E-18 -2.30590957E-03 -1.49748969E-02 -9.17133244E-04  2.38179506E-04
 -5.61981087E-19 -1.08460159E-02  1.03729691E-01  1.69275433E-01 -1.91043697E-01
  3.91369045E-16 -5.95903461E-04 -1.17544232E-04 -1.06935353E-02  7.60031884E-01
  0.00000000E+00 -5.70158853E-07  2.11310060E-06  4.31094832E-07 -6.21466881E-22
  0.00000000E+00 -9.50078999E-06  2.68056939E-05  1.54316355E-05 -2.73678298E-20
  0.00000000E+00 -1.65122841E-03  2.18349576E-03  1.82548908E-03 -3.34104560E-18
 -3.00974680E-06 -8.00057659E-03  1.05502053E-02  2.15340112E-03 -3.10488457E-18
  0.00000000E+00 -1.65038980E-03  2.72319414E-03 -8.23687301E-04  1.89644317E-18
  0.00000000E+00 -9.48875619E-06  3.06721560E-05 -3.69203593E-06  1.04370619E-20
 -7.57944004E-07 -9.53415941E-04 -9.53300544E-04 -7.57050941E-07  1.58911217E+01
 -5.70158853E-07 -3.98614795E-04  7.38527800E-04  1.50667468E-04 -2.17202422E-19
 -9.50078999E-06 -1.56535083E-03  2.24202773E-03  1.29070170E-03 -2.28904476E-18
 -1.65122841E-03 -1.59908938E-02  9.48108168E-03  7.92656042E-03 -1.45073450E-17
 -8.00057659E-03  2.08886897E-02 -9.92240102E-02 -2.02526007E-02  2.92012420E-17
 -1.65038980E-03 -1.59882954E-02  1.18305211E-02 -3.57838974E-03  8.23882168E-18
 -9.48875619E-06 -1.56439302E-03  2.56707267E-03 -3.09000924E-04  8.73518525E-19
 -1.90373351E-04 -1.05867082E-02 -1.05860028E-02 -1.90248327E-04 -8.58900137E-02
  4.72249973E-01 -2.11310060E-06 -7.38527800E-04  1.26114698E-03  2.80086406E-04
 -4.03772934E-19 -2.68056939E-05 -2.24202773E-03  2.81594160E-03  1.87747473E-03
 -3.32968006E-18 -2.18349576E-03 -9.48108168E-03 -3.04792336E-03  7.98855182E-04
 -1.46208028E-18 -1.05502053E-02  9.92240102E-02 -2.14550844E-01 -5.25307866E-02
  7.57415918E-17 -2.72319414E-03 -1.18305211E-02 -2.50667934E-03 -4.52692660E-04
  1.04227163E-18 -3.06721560E-05 -2.56707267E-03  3.83299804E-03 -5.14954950E-04
  1.45573250E-18 -2.67179198E-04 -4.13484276E-03 -7.05886988E-03 -3.29928926E-04
  0.00000000E+00  0.00000000E+00  1.47772808E+00 -4.31094832E-07 -1.50667468E-04
  2.80086406E-04 -5.46139596E-05 -8.23739415E-20 -1.54316355E-05 -1.29070170E-03
  1.87747473E-03  6.35487251E-04 -1.91684681E-18 -1.82548908E-03 -7.92656042E-03
  7.98855182E-04 -3.33557179E-03 -1.22235712E-18 -2.15340112E-03  2.02526007E-02
 -5.25307866E-02  3.20923365E-02  1.54596071E-17  8.23687301E-04  3.57838974E-03
 -4.52692660E-04 -3.86640099E-03 -3.15256959E-19  3.69203593E-06  3.09000924E-04
 -5.14954950E-04 -3.83083755E-04 -1.75227875E-19 -2.15195208E-04 -8.30629767E-03
  6.02180957E-03  9.32652460E-05  0.00000000E+00  0.00000000E+00  0.00000000E+00
  1.47772808E+00  6.21466881E-22  2.17202422E-19 -4.03772934E-19 -8.23739415E-20
 -1.11754544E-04  2.73678298E-20  2.28904476E-18 -3.32968006E-18 -1.91684681E-18
 -4.45346759E-04  3.34104560E-18  1.45073450E-17 -1.46208028E-18 -1.22235712E-18
 -4.00344641E-03  3.10488457E-18 -2.92012420E-17  7.57415918E-17  1.54596071E-17
  4.28143890E-02 -1.89644317E-18 -8.23882168E-18  1.04227163E-18 -3.15256959E-19
 -4.00332740E-03 -1.04370619E-20 -8.73518525E-19  1.45573250E-18 -1.75227875E-19
 -4.45069361E-04  3.92828698E-19  1.58106604E-17 -1.25169011E-17 -2.16995906E-19
  0.00000000E+00  0.00000000E+00  0.00000000E+00  0.00000000E+00  1.47772808E+00
  0.00000000E+00  0.00000000E+00  0.00000000E+00  0.00000000E+00  0.00000000E+00
  0.00000000E+00 -5.06575030E-07  1.87886292E-06  4.25073385E-07 -6.34256286E-22
  0.00000000E+00 -4.45373460E-04  9.80684042E-04  2.32235002E-04 -3.51325042E-19
  0.00000000E+00 -1.77012919E-03  2.88919301E-03 -7.62096324E-04  1.79340102E-18
  0.00000000E+00 -1.35503201E-05  3.85224158E-05 -1.93385202E-05  4.18595518E-20
  0.00000000E+00 -2.27368963E-09  9.94536184E-09 -2.96219307E-09  6.83604725E-24
 -1.59048531E-07 -1.20924694E-03 -1.43427284E-05  0.00000000E+00 -1.03696043E-04
 -8.25343488E-03  6.48506318E-03 -6.66108743E-03  1.37069343E-17  1.58911217E+01
  0.00000000E+00 -2.49085878E-05  5.77183989E-05 -9.43608156E-07  7.89850353E-21
 -5.06575030E-07 -3.76213104E-04  6.97336901E-04  1.57765292E-04 -2.35403183E-19
 -4.45373460E-04 -9.53538616E-03  1.08548009E-02  2.57051670E-03 -3.88867691E-18
 -1.77012919E-03 -1.63423713E-02  1.16769127E-02 -3.08007537E-03  7.24817866E-18
 -1.35503201E-05 -1.85775885E-03  2.68955896E-03 -1.35017727E-03  2.92255121E-18
 -2.27368963E-09 -5.81233805E-05  1.22169711E-04 -3.63878437E-05  8.39746138E-20
 -7.96607070E-05 -1.20333193E-02 -9.80537615E-04 -4.17800791E-06 -8.25343488E-03
  6.11697558E-02 -1.23228592E-01  1.26573389E-01 -2.60457942E-16 -8.58900137E-02
  4.72249973E-01  0.00000000E+00 -5.77183989E-05  1.25756003E-04 -2.17114281E-06
  1.81736233E-20 -1.87886292E-06 -6.97336901E-04  1.19086889E-03  2.93279284E-04
 -4.37604978E-19 -9.80684042E-04 -1.08548009E-02  8.49239578E-03  2.66024103E-03
 -4.02441185E-18 -2.88919301E-03 -1.16769127E-02 -3.87033595E-03 -3.75161763E-05
  8.82848360E-20 -3.85224158E-05 -2.68955896E-03  3.42800109E-03 -1.98706377E-03
  4.30113567E-18 -9.94536184E-09 -1.22169711E-04  2.38939016E-04 -7.60394886E-05
  1.75481316E-19 -1.40595204E-04 -7.53934180E-03 -1.13079682E-03 -8.94289344E-06
 -6.48506318E-03  1.23228592E-01 -1.22823892E-01  2.24923322E-01 -4.62838721E-16
  0.00000000E+00  0.00000000E+00  1.47772808E+00  0.00000000E+00  9.43608156E-07
 -2.17114281E-06 -7.01244841E-06 -2.97111137E-22 -4.25073385E-07 -1.57765292E-04
  2.93279284E-04 -3.91007325E-05 -9.90036191E-20 -2.32235002E-04 -2.57051670E-03
  2.66024103E-03 -2.11132429E-03 -9.53017743E-19  7.62096324E-04  3.08007537E-03
 -3.75161763E-05 -4.00266818E-03 -2.32873154E-20  1.93385202E-05  1.35017727E-03
 -1.98706377E-03  4.67281282E-04 -2.15919997E-18  2.96219307E-09  3.63878437E-05
 -7.60394886E-05  6.28971222E-06 -5.22665285E-20 -6.13324101E-05 -5.28277456E-03
  1.02513483E-03  3.65684448E-06  6.66108743E-03 -1.26573389E-01  2.24923322E-01
 -1.34872760E-01  4.75401565E-16  0.00000000E+00  0.00000000E+00  0.00000000E+00
  1.47772808E+00  0.00000000E+00 -7.89850353E-21  1.81736233E-20 -2.97111137E-22
 -7.04794330E-06  6.34256286E-22  2.35403183E-19 -4.37604978E-19 -9.90036191E-20
 -1.05452150E-04  3.51325042E-19  3.88867691E-18 -4.02441185E-18 -9.53017743E-19
 -2.74129384E-03 -1.79340102E-18 -7.24817866E-18  8.82848360E-20 -2.32873154E-20
 -4.01256400E-03 -4.18595518E-20 -2.92255121E-18  4.30113567E-18 -2.15919997E-18
 -5.30238530E-04 -6.83604725E-24 -8.39746138E-20  1.75481316E-19 -5.22665285E-20
 -1.63583975E-05  1.05200650E-19  9.54063518E-18 -2.12340590E-18 -8.08941705E-21
 -1.37069343E-17  2.60457942E-16 -4.62838721E-16  4.75401565E-16  9.61556614E-02
  0.00000000E+00  0.00000000E+00  0.00000000E+00  0.00000000E+00  1.47772808E+00
 -2.98435808E-07 -1.13207226E-04  1.95045676E-04  8.40639720E-05 -1.43945453E-19
 -1.02333615E-06 -2.25032217E-04  3.06996680E-04  2.56563036E-04 -4.69554316E-19
 -1.25626340E-04 -3.33431411E-03  2.79897672E-03  3.43803315E-03 -6.43008621E-18
 -2.14310794E-03 -1.50529255E-02  2.62074167E-03  2.05527219E-03 -3.74456780E-18
 -1.03200554E-03 -1.10557063E-02  9.24273628E-03  1.14965807E-03 -1.27902302E-18
 -1.25929563E-05 -9.11731637E-04  1.41366365E-03  2.13825408E-04 -2.69914074E-19
 -2.04358184E-05 -1.71419908E-03 -1.09932119E-02 -1.99406863E-04 -1.08014555E-02
  1.04184621E-01 -5.78266795E-02 -2.49498098E-01  4.81869013E-16 -2.39134083E-03
 -1.48158827E-02  1.63626552E-04 -4.88238519E-04  9.71988706E-19  7.60031884E-01
  0.00000000E+00 -1.09609321E-06  2.69893302E-06  5.82664936E-08  1.69096910E-22
 -1.33491668E-08 -1.98153730E-05  4.08344922E-05  9.05264752E-06 -1.34214489E-20
 -1.49643371E-05 -1.00408931E-03  1.52020326E-03  3.46317126E-04 -5.17849678E-19
 -1.05265615E-04 -3.01497207E-03  4.04809699E-03 -4.87534666E-04  1.37798996E-18
 -9.05020232E-07 -2.10145128E-04  3.56695553E-04 -1.17981962E-04  2.68140511E-19
  0.00000000E+00 -3.75782958E-06  8.56182889E-06 -1.75351860E-06  4.32719488E-21
 -4.54163024E-06 -2.34144484E-03 -1.92887487E-04 -3.22270529E-07 -2.39138399E-03
 -1.48157805E-02 -4.84412885E-04  1.76898101E-04 -3.96754613E-19 -1.08015641E-02
  1.04183521E-01 -2.50953085E-01 -5.11341996E-02  7.36828061E-17 -1.05829622E-02
  7.60031884E-01 -1.25138450E-07 -6.96678475E-05  1.31869064E-04 -3.09429164E-05
  7.43433908E-20 -1.89132732E-05 -1.14478105E-03  1.75279952E-03 -4.83103454E-05
  2.78300721E-19 -1.13083202E-03 -1.16141880E-02  9.18577139E-03 -1.35928898E-03
  3.62165070E-18 -8.84737337E-04 -1.01578782E-02  7.24707698E-03 -5.67540431E-03
  1.18591880E-17 -9.70610738E-06 -7.88289926E-04  9.38753413E-04 -8.31651209E-04
  1.72487744E-18 -8.81226261E-08 -5.72580172E-05  9.87698138E-05 -5.46473219E-05
  1.17229921E-19 -4.51992677E-04 -9.39181474E-03 -2.46243056E-04 -3.50941700E-06
 -2.39134080E-03 -1.48158827E-02 -1.63626418E-04  4.88238122E-04 -9.71987916E-19
 -1.08014558E-02  1.04184618E-01  5.78266776E-02  2.49498093E-01 -4.81869002E-16
 -5.65014282E-03 -7.44381857E-03  7.60031884E-01 -3.00974680E-06 -8.00057659E-03
 -1.05502053E-02 -2.15340112E-03  3.10488457E-18  0.00000000E+00 -1.65038980E-03
 -2.72319414E-03  8.23687301E-04 -1.89644317E-18  0.00000000E+00 -9.48875619E-06
 -3.06721560E-05  3.69203593E-06 -1.04370619E-20  0.00000000E+00 -5.70158853E-07
 -2.11310060E-06 -4.31094832E-07  6.21466881E-22  0.00000000E+00 -9.50078999E-06
 -2.68056939E-05 -1.54316355E-05  2.73678298E-20  0.00000000E+00 -1.65122841E-03
 -2.18349576E-03 -1.82548908E-03  3.34104560E-18 -9.53300544E-04 -7.57050941E-07
 -7.57944004E-07 -9.53415941E-04  0.00000000E+00  0.00000000E+00  0.00000000E+00
  0.00000000E+00  0.00000000E+00  0.00000000E+00  0.00000000E+00  0.00000000E+00
  0.00000000E+00  0.00000000E+00  0.00000000E+00  0.00000000E+00  0.00000000E+00
  1.58911217E+01 -8.00057659E-03  2.08886897E-02  9.92240102E-02  2.02526007E-02
 -2.92012420E-17 -1.65038980E-03 -1.59882954E-02 -1.18305211E-02  3.57838974E-03
 -8.23882168E-18 -9.48875619E-06 -1.56439302E-03 -2.56707267E-03  3.09000924E-04
 -8.73518525E-19 -5.70158853E-07 -3.98614795E-04 -7.38527800E-04 -1.50667468E-04
  2.17202422E-19 -9.50078999E-06 -1.56535083E-03 -2.24202773E-03 -1.29070170E-03
  2.28904476E-18 -1.65122841E-03 -1.59908938E-02 -9.48108168E-03 -7.92656042E-03
  1.45073450E-17 -1.05860028E-02 -1.90248327E-04 -1.90373351E-04 -1.05867082E-02
  0.00000000E+00 -1.52361823E-06 -4.01224543E-06 -8.18644981E-07  1.18021343E-21
  0.00000000E+00  0.00000000E+00  0.00000000E+00  0.00000000E+00  0.00000000E+00
 -5.79307719E-07  0.00000000E+00 -4.20483719E-07 -8.58900137E-02  4.72249973E-01
  1.05502053E-02 -9.92240102E-02 -2.14550844E-01 -5.25307866E-02  7.57415918E-17
  2.72319414E-03  1.18305211E-02 -2.50667934E-03 -4.52692660E-04  1.04227163E-18
  3.06721560E-05  2.56707267E-03  3.83299804E-03 -5.14954950E-04  1.45573250E-18
  2.11310060E-06  7.38527800E-04  1.26114698E-03  2.80086406E-04 -4.03772934E-19
  2.68056939E-05  2.24202773E-03  2.81594160E-03  1.87747473E-03 -3.32968006E-18
  2.18349576E-03  9.48108168E-03 -3.04792336E-03  7.98855182E-04 -1.46208028E-18
  7.05886988E-03  3.29928926E-04  2.67179198E-04  4.13484276E-03  0.00000000E+00
  4.01224543E-06  1.00428111E-05  2.13853634E-06 -3.08305722E-21  0.00000000E+00
  0.00000000E+00  0.00000000E+00  0.00000000E+00  0.00000000E+00  1.37765953E-06
  0.00000000E+00  1.07395234E-06  0.00000000E+00  0.00000000E+00  1.47772808E+00
  2.15340112E-03 -2.02526007E-02 -5.25307866E-02  3.20923365E-02  1.54596071E-17
 -8.23687301E-04 -3.57838974E-03 -4.52692660E-04 -3.86640099E-03 -3.15256959E-19
 -3.69203593E-06 -3.09000924E-04 -5.14954950E-04 -3.83083755E-04 -1.75227875E-19
  4.31094832E-07  1.50667468E-04  2.80086406E-04 -5.46139596E-05 -8.23739415E-20
  1.54316355E-05  1.29070170E-03  1.87747473E-03  6.35487251E-04 -1.91684681E-18
  1.82548908E-03  7.92656042E-03  7.98855182E-04 -3.33557179E-03 -1.22235712E-18
 -6.02180957E-03 -9.32652460E-05  2.15195208E-04  8.30629767E-03  0.00000000E+00
  8.18644981E-07  2.13853634E-06 -1.98917955E-09 -6.29056563E-22  0.00000000E+00
  0.00000000E+00  0.00000000E+00  0.00000000E+00  0.00000000E+00  5.15147810E-07
  0.00000000E+00 -1.41392199E-07  0.00000000E+00  0.00000000E+00  0.00000000E+00
  1.47772808E+00 -3.10488457E-18  2.92012420E-17  7.57415918E-17  1.54596071E-17
  4.28143890E-02  1.89644317E-18  8.23882168E-18  1.04227163E-18 -3.15256959E-19
 -4.00332740E-03  1.04370619E-20  8.73518525E-19  1.45573250E-18 -1.75227875E-19
 -4.45069361E-04 -6.21466881E-22 -2.17202422E-19 -4.03772934E-19 -8.23739415E-20
 -1.11754544E-04 -2.73678298E-20 -2.28904476E-18 -3.32968006E-18 -1.91684681E-18
 -4.45346759E-04 -3.34104560E-18 -1.45073450E-17 -1.46208028E-18 -1.22235712E-18
 -4.00344641E-03  1.25169011E-17  2.16995906E-19 -3.92828698E-19 -1.58106604E-17
  0.00000000E+00 -1.18021343E-21 -3.08305722E-21 -6.29056563E-22 -4.38328898E-07
  0.00000000E+00  0.00000000E+00  0.00000000E+00  0.00000000E+00  0.00000000E+00
 -8.62974173E-22  0.00000000E+00  3.89144161E-22  0.00000000E+00  0.00000000E+00
  0.00000000E+00  0.00000000E+00  1.47772808E+00  0.00000000E+00 -1.77012919E-03
 -2.88919301E-03  7.62096324E-04 -1.79340102E-18  0.00000000E+00 -1.35503201E-05
 -3.85224158E-05  1.93385202E-05 -4.18595518E-20  0.00000000E+00 -2.27368963E-09
 -9.94536184E-09  2.96219307E-09 -6.83604725E-24  0.00000000E+00  0.00000000E+00
  0.00000000E+00  0.00000000E+00  0.00000000E+00  0.00000000E+00 -5.06575030E-07
 -1.87886292E-06 -4.25073385E-07  6.34256286E-22  0.00000000E+00 -4.45373460E-04
 -9.80684042E-04 -2.32235002E-04  3.51325042E-19 -1.43427284E-05  0.00000000E+00
 -1.59048531E-07 -1.20924694E-03  0.00000000E+00  0.00000000E+00  0.00000000E+00
  0.00000000E+00  0.00000000E+00  0.00000000E+00  0.00000000E+00  0.00000000E+00
  0.00000000E+00  0.00000000E+00  0.00000000E+00  0.00000000E+00  0.00000000E+00
 -1.03696043E-04 -8.25343488E-03 -6.48506318E-03  6.66108743E-03 -1.37069343E-17
  1.58911217E+01 -1.77012919E-03 -1.63423713E-02 -1.16769127E-02  3.08007537E-03
 -7.24817866E-18 -1.35503201E-05 -1.85775885E-03 -2.68955896E-03  1.35017727E-03
 -2.92255121E-18 -2.27368963E-09 -5.81233805E-05 -1.22169711E-04  3.63878437E-05
 -8.39746138E-20  0.00000000E+00 -2.49085878E-05 -5.77183989E-05  9.43608156E-07
 -7.89850353E-21 -5.06575030E-07 -3.76213104E-04 -6.97336901E-04 -1.57765292E-04
  2.35403183E-19 -4.45373460E-04 -9.53538616E-03 -1.08548009E-02 -2.57051670E-03
  3.88867691E-18 -9.80537615E-04 -4.17800791E-06 -7.96607070E-05 -1.20333193E-02
  0.00000000E+00  0.00000000E+00  0.00000000E+00  0.00000000E+00  0.00000000E+00
  0.00000000E+00  0.00000000E+00  0.00000000E+00  0.00000000E+00  0.00000000E+00
  0.00000000E+00  0.00000000E+00  0.00000000E+00 -8.25343488E-03  6.11697558E-02
  1.23228592E-01 -1.26573389E-01  2.60457942E-16 -8.58900137E-02  4.72249973E-01
  2.88919301E-03  1.16769127E-02 -3.87033595E-03 -3.75161763E-05  8.82848360E-20
  3.85224158E-05  2.68955896E-03  3.42800109E-03 -1.98706377E-03  4.30113567E-18
  9.94536184E-09  1.22169711E-04  2.38939016E-04 -7.60394886E-05  1.75481316E-19
  0.00000000E+00  5.77183989E-05  1.25756003E-04 -2.17114281E-06  1.81736233E-20
  1.87886292E-06  6.97336901E-04  1.19086889E-03  2.93279284E-04 -4.37604978E-19
  9.80684042E-04  1.08548009E-02  8.49239578E-03  2.66024103E-03 -4.02441185E-18
  1.13079682E-03  8.94289344E-06  1.40595204E-04  7.53934180E-03  0.00000000E+00
  0.00000000E+00  0.00000000E+00  0.00000000E+00  0.00000000E+00  0.00000000E+00
  0.00000000E+00  0.00000000E+00  0.00000000E+00  0.00000000E+00  0.00000000E+00
  0.00000000E+00  0.00000000E+00  6.48506318E-03 -1.23228592E-01 -1.22823892E-01
  2.24923322E-01 -4.62838721E-16  0.00000000E+00  0.00000000E+00  1.47772808E+00
 -7.62096324E-04 -3.08007537E-03 -3.75161763E-05 -4.00266818E-03 -2.32873154E-20
 -1.93385202E-05 -1.35017727E-03 -1.98706377E-03  4.67281282E-04 -2.15919997E-18
 -2.96219307E-09 -3.63878437E-05 -7.60394886E-05  6.28971222E-06 -5.22665285E-20
  0.00000000E+00 -9.43608156E-07 -2.17114281E-06 -7.01244841E-06 -2.97111137E-22
  4.25073385E-07  1.57765292E-04  2.93279284E-04 -3.91007325E-05 -9.90036191E-20
  2.32235002E-04  2.57051670E-03  2.66024103E-03 -2.11132429E-03 -9.53017743E-19
 -1.02513483E-03 -3.65684448E-06  6.13324101E-05  5.28277456E-03  0.00000000E+00
  0.00000000E+00  0.00000000E+00  0.00000000E+00  0.00000000E+00  0.00000000E+00
  0.00000000E+00  0.00000000E+00  0.00000000E+00  0.00000000E+00  0.00000000E+00
  0.00000000E+00  0.00000000E+00 -6.66108743E-03  1.26573389E-01  2.24923322E-01
 -1.34872760E-01  4.75401565E-16  0.00000000E+00  0.00000000E+00  0.00000000E+00
  1.47772808E+00  1.79340102E-18  7.24817866E-18  8.82848360E-20 -2.32873154E-20
 -4.01256400E-03  4.18595518E-20  2.92255121E-18  4.30113567E-18 -2.15919997E-18
 -5.30238530E-04  6.83604725E-24  8.39746138E-20  1.75481316E-19 -5.22665285E-20
 -1.63583975E-05  0.00000000E+00  7.89850353E-21  1.81736233E-20 -2.97111137E-22
 -7.04794330E-06 -6.34256286E-22 -2.35403183E-19 -4.37604978E-19 -9.90036191E-20
 -1.05452150E-04 -3.51325042E-19 -3.88867691E-18 -4.02441185E-18 -9.53017743E-19
 -2.74129384E-03  2.12340590E-18  8.08941705E-21 -1.05200650E-19 -9.54063518E-18
  0.00000000E+00  0.00000000E+00  0.00000000E+00  0.00000000E+00  0.00000000E+00
  0.00000000E+00  0.00000000E+00  0.00000000E+00  0.00000000E+00  0.00000000E+00
  0.00000000E+00  0.00000000E+00  0.00000000E+00  1.37069343E-17 -2.60457942E-16
 -4.62838721E-16  4.75401565E-16  9.61556614E-02  0.00000000E+00  0.00000000E+00
  0.00000000E+00  0.00000000E+00  1.47772808E+00 -2.14310794E-03 -1.50529255E-02
 -2.62074167E-03 -2.05527219E-03  3.74456780E-18 -1.03200554E-03 -1.10557063E-02
 -9.24273628E-03 -1.14965807E-03  1.27902302E-18 -1.25929563E-05 -9.11731637E-04
 -1.41366365E-03 -2.13825408E-04  2.69914074E-19 -2.98435808E-07 -1.13207226E-04
 -1.95045676E-04 -8.40639720E-05  1.43945453E-19 -1.02333615E-06 -2.25032217E-04
 -3.06996680E-04 -2.56563036E-04  4.69554316E-19 -1.25626340E-04 -3.33431411E-03
 -2.79897672E-03 -3.43803315E-03  6.43008621E-18 -1.09932119E-02 -1.99406863E-04
 -2.04358184E-05 -1.71419908E-03  0.00000000E+00 -5.79307719E-07 -1.37765953E-06
 -5.15147810E-07  8.62974173E-22  0.00000000E+00  0.00000000E+00  0.00000000E+00
  0.00000000E+00  0.00000000E+00 -1.28206650E-07  0.00000000E+00 -5.72277958E-07
 -1.08014555E-02  1.04184621E-01  5.78266795E-02  2.49498098E-01 -4.81869013E-16
 -2.39134083E-03 -1.48158827E-02 -1.63626552E-04  4.88238519E-04 -9.71988706E-19
  7.60031884E-01 -1.05265615E-04 -3.01497207E-03 -4.04809699E-03  4.87534666E-04
 -1.37798996E-18 -9.05020232E-07 -2.10145128E-04 -3.56695553E-04  1.17981962E-04
 -2.68140511E-19  0.00000000E+00 -3.75782958E-06 -8.56182889E-06  1.75351860E-06
 -4.32719488E-21  0.00000000E+00 -1.09609321E-06 -2.69893302E-06 -5.82664936E-08
 -1.69096910E-22 -1.33491668E-08 -1.98153730E-05 -4.08344922E-05 -9.05264752E-06
  1.34214489E-20 -1.49643371E-05 -1.00408931E-03 -1.52020326E-03 -3.46317126E-04
  5.17849678E-19 -1.92887487E-04 -3.22270529E-07 -4.54163024E-06 -2.34144484E-03
  0.00000000E+00  0.00000000E+00  0.00000000E+00  0.00000000E+00  0.00000000E+00
  0.00000000E+00  0.00000000E+00  0.00000000E+00  0.00000000E+00  0.00000000E+00
  0.00000000E+00  0.00000000E+00  0.00000000E+00 -2.39138399E-03 -1.48157805E-02
  4.84412885E-04 -1.76898101E-04  3.96754613E-19 -1.08015641E-02  1.04183521E-01
  2.50953085E-01  5.11341996E-02 -7.36828061E-17 -1.05829622E-02  7.60031884E-01
 -8.84737337E-04 -1.01578782E-02 -7.24707698E-03  5.67540431E-03 -1.18591880E-17
 -9.70610738E-06 -7.88289926E-04 -9.38753413E-04  8.31651209E-04 -1.72487744E-18
 -8.81226261E-08 -5.72580172E-05 -9.87698138E-05  5.46473219E-05 -1.17229921E-19
 -1.25138450E-07 -6.96678475E-05 -1.31869064E-04  3.09429164E-05 -7.43433908E-20
 -1.89132732E-05 -1.14478105E-03 -1.75279952E-03  4.83103454E-05 -2.78300721E-19
 -1.13083202E-03 -1.16141880E-02 -9.18577139E-03  1.35928898E-03 -3.62165070E-18
 -2.46243056E-04 -3.50941700E-06 -4.51992677E-04 -9.39181474E-03  0.00000000E+00
 -4.20483719E-07 -1.07395234E-06  1.41392199E-07 -3.89144161E-22  0.00000000E+00
  0.00000000E+00  0.00000000E+00  0.00000000E+00  0.00000000E+00 -5.72277958E-07
  0.00000000E+00  0.00000000E+00 -2.39134080E-03 -1.48158827E-02  1.63626418E-04
 -4.88238122E-04  9.71987916E-19 -1.08014558E-02  1.04184618E-01 -5.78266776E-02
 -2.49498093E-01  4.81869002E-16 -5.65014282E-03 -7.44381857E-03  7.60031884E-01
Nuclear Attraction Matrix                  R   N=        1830
 -4.83153191E+01 -7.83386164E+00 -1.98164389E+01  5.20418715E-02  5.92088618E-01
 -2.01189065E+01  1.87116200E-02  2.15243360E-01  9.71127726E-03 -1.99867798E+01
 -3.11357603E-17 -3.58848501E-16 -1.15042821E-16  1.53376209E-15 -1.92030324E+01
 -1.93563513E-05 -1.17954655E+00  1.29976970E+00 -1.46261502E+00  2.99668926E-15
 -4.74206633E+01 -1.21004701E+00 -7.09040167E+00  5.18859501E+00 -5.50377755E+00
  1.13076643E-14 -7.61166280E+00 -1.89150363E+01 -1.32967009E+00 -4.92288595E+00
  6.42038818E-01 -4.97431282E+00  1.01941824E-14  2.06447639E-02  2.39505635E-01
 -1.92508130E+01  1.50373525E+00  5.94370095E+00 -5.49058654E+00  1.99315771E+00
 -1.19102079E-14  1.09729756E-01  1.27666874E+00  7.31754003E-02 -1.89798768E+01
 -3.08024220E-15 -1.21401392E-14  1.12038384E-14 -1.18560645E-14 -3.80252772E+00
 -2.12429026E-16 -2.47161243E-15 -2.34642955E-16  1.18477517E-15 -1.83779824E+01
  0.00000000E+00 -5.61770889E-02  1.23941865E-01 -4.13076116E-02  9.37818599E-17
 -1.91137697E-05 -1.18460610E+00  1.92476796E+00  3.96186650E-01 -5.72949431E-16
 -4.75882020E+01 -5.73430631E-02 -1.18080267E+00  1.65423386E+00 -5.53887681E-01
  1.25670126E-15 -1.17897169E+00 -6.93992357E+00  7.26651274E+00  1.83501767E+00
 -2.82660685E-15 -7.65327310E+00 -1.90825540E+01 -1.26488570E-01 -1.66185870E+00
  2.07385184E+00 -8.59624957E-01  1.94517232E-15 -1.91700894E+00 -7.37765224E+00
  6.02784300E+00  2.38185761E+00 -3.63529288E-15 -5.10278117E-02 -5.92649033E-01
 -1.93531561E+01  4.22989023E-02  5.55580778E-01 -8.56572412E-01 -1.97235034E-01
 -5.72089269E-16 -3.87417516E-01 -1.15446795E+00  1.65649446E+00 -3.43966748E+00
 -3.84236444E-16  9.15309161E-02  1.06510731E+00 -1.36420549E-01 -1.92208467E+01
 -9.59875694E-17 -1.26081203E-15  1.93920258E-15 -5.72409400E-16 -4.43830831E-01
  5.56613699E-16  1.48402727E-15 -2.21672906E-15 -3.08165121E-16 -3.72497201E+00
 -1.84354829E-16 -2.14514110E-15  1.81222221E-16  1.32263459E-15 -1.85372201E+01
  0.00000000E+00 -1.29604248E-02  3.40392434E-02  6.94029118E-03 -1.00030388E-17
  0.00000000E+00 -5.74533924E-02  9.99933226E-02  8.86048337E-02 -1.62794302E-16
 -1.95932492E-05 -1.21173637E+00  6.35277786E-01  1.90703539E+00 -3.66288941E-15
 -4.83153191E+01 -1.29604248E-02 -5.03724509E-01  7.95692006E-01  1.62397628E-01
 -2.34147621E-16 -5.59950124E-02 -1.18408015E+00  1.31752711E+00  1.16425641E+00
 -2.13871630E-15 -1.18678617E+00 -7.14872586E+00  2.25615639E+00  7.43331762E+00
 -1.43004324E-14 -7.83386164E+00 -1.98164389E+01 -3.40392434E-02 -7.95692006E-01
  1.15771091E+00  2.77215383E-01 -4.02249342E-16 -9.75170968E-02 -1.30553090E+00
  1.10840934E+00  1.41242507E+00 -2.59931818E-15 -6.26134828E-01 -2.60322561E+00
 -2.95848673E+00  3.39103529E+00 -6.53996126E-15 -5.20418715E-02 -5.92088618E-01
 -2.01189065E+01 -6.94029118E-03 -1.62397628E-01  2.77215383E-01 -1.42364394E-01
 -3.70597462E-17 -8.62606815E-02 -1.16226895E+00  1.42383855E+00  7.72985063E-01
 -2.23252855E-15 -1.86645619E+00 -7.18328079E+00  2.96083134E+00  5.61552017E+00
 -1.81682947E-14 -1.87116200E-02 -2.15243360E-01  9.71127726E-03 -1.99867798E+01
  1.00030388E-17  2.34147621E-16 -4.02249342E-16 -3.70597462E-17 -1.76180225E-01
  1.58469627E-16  2.13608759E-15 -2.62163906E-15 -2.23372552E-15 -4.44941967E-01
  3.58448914E-15  1.37750470E-14 -5.69862851E-15 -1.81231778E-14 -3.83336441E+00
  3.11357603E-17  3.58848501E-16 -1.15042821E-16  1.53376209E-15 -1.92030324E+01
  0.00000000E+00 -5.59950124E-02  9.75170968E-02  8.62606815E-02 -1.58469627E-16
  0.00000000E+00 -1.26705914E-02  1.07543853E-02  3.22026342E-02 -6.18495599E-17
  0.00000000E+00 -5.60099174E-02 -2.60949379E-02  1.27581340E-01 -2.52242411E-16
 -1.93563513E-05 -1.17954655E+00 -1.29976970E+00  1.46261502E+00 -2.99668926E-15
 -4.74206633E+01 -5.74533924E-02 -1.18408015E+00  1.30553090E+00  1.16226895E+00
 -2.13608759E-15 -1.26705914E-02 -5.03251420E-01  2.56502508E-01  7.69375163E-01
 -1.47773607E-15 -5.62983748E-02 -1.19128563E+00 -3.39567219E-01  1.72953332E+00
 -3.41799101E-15 -1.21004701E+00 -7.09040167E+00 -5.18859501E+00  5.50377755E+00
 -1.13076643E-14 -7.61166280E+00 -1.89150363E+01 -9.99933226E-02 -1.31752711E+00
  1.10840934E+00  1.42383855E+00 -2.62163906E-15 -1.07543853E-02 -2.56502508E-01
 -5.96717978E-02  4.23754191E-01 -8.16556185E-16  2.61454255E-02  3.65330376E-01
 -3.79741933E-01 -5.83033055E-01  1.14724438E-15  1.32967009E+00  4.92288595E+00
  6.42038818E-01 -4.97431282E+00  1.01941824E-14 -2.06447639E-02 -2.39505635E-01
 -1.92508130E+01 -8.86048337E-02 -1.16425641E+00  1.41242507E+00  7.72985063E-01
 -2.23372552E-15 -3.22026342E-02 -7.69375163E-01  4.23754191E-01  1.07323200E+00
 -2.39794783E-15 -1.28254839E-01 -1.72684530E+00 -5.44163412E-01  2.27302313E+00
 -5.37606661E-15 -1.50373525E+00 -5.94370095E+00 -5.49058654E+00  1.99315771E+00
 -1.19102079E-14 -1.09729756E-01 -1.27666874E+00  7.31754003E-02 -1.89798768E+01
  1.62794302E-16  2.13871630E-15 -2.59931818E-15 -2.23252855E-15 -4.44941967E-01
  6.18495599E-17  1.47773607E-15 -8.16556185E-16 -2.39794783E-15 -1.75649795E-01
  2.53564841E-16  3.41543604E-15  1.07122856E-15 -5.38014300E-15 -4.46773687E-01
  3.08024220E-15  1.21401392E-14  1.12038384E-14 -1.18560645E-14 -3.80252772E+00
  2.12429026E-16  2.47161243E-15 -2.34642955E-16  1.18477517E-15 -1.83779824E+01
 -1.95932492E-05 -1.18678617E+00  6.26134828E-01  1.86645619E+00 -3.58448914E-15
  0.00000000E+00 -5.62983748E-02 -2.61454255E-02  1.28254839E-01 -2.53564841E-16
  0.00000000E+00 -1.27118060E-02 -2.25920821E-02  2.54976622E-02 -5.22340718E-17
  0.00000000E+00 -5.61770889E-02 -1.23941865E-01  4.13076116E-02 -9.37818599E-17
 -1.91137697E-05 -1.18460610E+00 -1.92476796E+00 -3.96186650E-01  5.72949431E-16
 -4.75882020E+01 -1.21173637E+00 -7.14872586E+00  2.60322561E+00  7.18328079E+00
 -1.37750470E-14 -5.60099174E-02 -1.19128563E+00 -3.65330376E-01  1.72684530E+00
 -3.41543604E-15 -1.27118060E-02 -5.03026928E-01 -5.37257396E-01  6.07216780E-01
 -1.24385370E-15 -5.73430631E-02 -1.18080267E+00 -1.65423386E+00  5.53887681E-01
 -1.25670126E-15 -1.17897169E+00 -6.93992357E+00 -7.26651274E+00 -1.83501767E+00
  2.82660685E-15 -7.65327310E+00 -1.90825540E+01 -6.35277786E-01 -2.25615639E+00
 -2.95848673E+00  2.96083134E+00 -5.69862851E-15  2.60949379E-02  3.39567219E-01
 -3.79741933E-01 -5.44163412E-01  1.07122856E-15  2.25920821E-02  5.37257396E-01
  4.19407433E-01 -7.01463472E-01  1.43422917E-15  1.26488570E-01  1.66185870E+00
  2.07385184E+00 -8.59624957E-01  1.94517232E-15  1.91700894E+00  7.37765224E+00
  6.02784300E+00  2.38185761E+00 -3.63529288E-15  5.10278117E-02  5.92649033E-01
 -1.93531561E+01 -1.90703539E+00 -7.43331762E+00  3.39103529E+00  5.61552017E+00
 -1.81231778E-14 -1.27581340E-01 -1.72953332E+00 -5.83033055E-01  2.27302313E+00
 -5.38014300E-15 -2.54976622E-02 -6.07216780E-01 -7.01463472E-01  5.94091418E-01
 -1.57890394E-15 -4.22989023E-02 -5.55580778E-01 -8.56572412E-01 -1.97235034E-01
 -5.72089269E-16  3.87417516E-01  1.15446795E+00  1.65649446E+00 -3.43966748E+00
 -3.84236444E-16 -9.15309161E-02 -1.06510731E+00 -1.36420549E-01 -1.92208467E+01
  3.66288941E-15  1.43004324E-14 -6.53996126E-15 -1.81682947E-14 -3.83336441E+00
  2.52242411E-16  3.41799101E-15  1.14724438E-15 -5.37606661E-15 -4.46773687E-01
  5.22340718E-17  1.24385370E-15  1.43422917E-15 -1.57890394E-15 -1.75643057E-01
  9.59875694E-17  1.26081203E-15  1.93920258E-15 -5.72409400E-16 -4.43830831E-01
 -5.56613699E-16 -1.48402727E-15 -2.21672906E-15 -3.08165121E-16 -3.72497201E+00
  1.84354829E-16  2.14514110E-15  1.81222221E-16  1.32263459E-15 -1.85372201E+01
 -1.67493811E-01 -1.67125326E+00  6.51882628E-01 -1.99663488E+00  3.97310450E-15
 -1.87374129E+00 -7.92467341E+00 -2.26879617E+00 -6.53115523E+00  1.25347837E-14
 -1.63582885E-01 -1.61794524E+00 -1.69973114E+00 -1.14032416E+00  2.05182990E-15
 -2.83111987E-03 -1.20989991E-01 -1.27734951E-01 -1.53588578E-01  2.86971062E-16
 -3.60621284E-04 -3.49644711E-02 -2.00203532E-02 -5.97972497E-02  1.14843497E-16
 -2.77645905E-03 -1.22988506E-01  8.37947026E-03 -2.03261814E-01  3.98389818E-16
 -1.40919632E+01 -2.82437987E-03 -1.20625684E-01  1.77602712E-01 -9.07763502E-02
  1.96153499E-16 -1.62761580E-01 -1.62409007E+00  2.02781182E+00 -3.83379978E-01
  9.62424542E-16 -1.88477277E+00 -8.07121123E+00  4.80591706E+00 -5.22271763E+00
  1.07178739E-14 -1.67719091E-01 -1.70293517E+00  2.01853966E-01 -2.13929017E+00
  4.20489371E-15 -2.76041400E-03 -1.23340489E-01  7.23660129E-02 -1.91289340E-01
  3.81686216E-16 -3.61711698E-04 -3.49540420E-02  4.18791797E-02 -4.71795733E-02
  9.66592261E-17 -7.24744961E-01 -1.45151666E+01 -2.83111987E-03 -1.20989991E-01
  1.27734951E-01  1.53588578E-01 -2.86971062E-16 -3.60621284E-04 -3.49644711E-02
  2.00203532E-02  5.97972497E-02 -1.14843497E-16 -2.77645905E-03 -1.22988506E-01
 -8.37947026E-03  2.03261814E-01 -3.98389818E-16 -1.67493811E-01 -1.67125326E+00
 -6.51882628E-01  1.99663488E+00 -3.97310450E-15 -1.87374129E+00 -7.92467341E+00
  2.26879617E+00  6.53115523E+00 -1.25347837E-14 -1.63582885E-01 -1.61794524E+00
  1.69973114E+00  1.14032416E+00 -2.05182990E-15 -2.08925698E-03 -1.41321574E-02
 -1.40919632E+01 -1.67719091E-01 -1.70293517E+00 -2.01853966E-01  2.13929017E+00
 -4.20489371E-15 -2.76041400E-03 -1.23340489E-01 -7.23660129E-02  1.91289340E-01
 -3.81686216E-16 -3.61711698E-04 -3.49540420E-02 -4.18791797E-02  4.71795733E-02
 -9.66592261E-17 -2.82437987E-03 -1.20625684E-01 -1.77602712E-01  9.07763502E-02
 -1.96153499E-16 -1.62761580E-01 -1.62409007E+00 -2.02781182E+00  3.83379978E-01
 -9.62424542E-16 -1.88477277E+00 -8.07121123E+00 -4.80591706E+00  5.22271763E+00
 -1.07178739E-14 -1.41321574E-02 -2.08728724E-03 -7.24744961E-01 -1.45151666E+01
  0.00000000E+00 -2.76791564E-06  1.12391925E-05  2.28963502E-06 -3.29905532E-21
  0.00000000E+00 -6.28795215E-05  1.99967471E-04  1.15102646E-04 -2.04130387E-19
  0.00000000E+00 -3.27398319E-02  6.14588161E-02  5.13818693E-02 -9.40400786E-17
 -1.21099923E-06 -7.82837117E-01  1.28815927E+00  2.61921658E-01 -3.77136072E-16
  0.00000000E+00 -3.25738490E-02  7.63090520E-02 -2.31521276E-02  5.32804862E-17
  0.00000000E+00 -6.25110413E-05  2.27783015E-04 -2.75470502E-05  7.77610557E-20
 -5.54269226E-06 -2.94649670E-02 -2.92762599E-02 -5.50124094E-06 -4.58360672E+01
 -3.02041200E-06 -5.66594116E-03  1.22576382E-02  2.49209318E-03 -3.58818680E-18
 -6.65309383E-05 -2.90140354E-02  4.94952506E-02  2.93453741E-02 -5.21988426E-17
 -3.45343311E-02 -8.31575311E-01  9.36605970E-01  8.46153504E-01 -1.55656363E-15
 -8.42202729E-01 -5.40057432E+00  5.88053952E+00  1.14663096E+00 -1.62570814E-15
 -3.42910729E-02 -8.13449933E-01  1.16276672E+00 -4.13641063E-01  9.30884692E-16
 -6.67111094E-05 -2.87300340E-02  5.64084541E-02 -7.68543730E-03  2.09458519E-17
 -2.86582781E-03 -4.94836747E-01 -4.69411567E-01 -2.82332729E-03 -7.21810871E+00
 -1.73316767E+01 -1.22570263E-05 -1.21810993E-02  2.49231302E-02  5.43697884E-03
 -7.85275308E-18 -2.11527576E-04 -5.07510579E-02  7.99129363E-02  5.24537844E-02
 -9.33239203E-17 -6.48895821E-02 -1.00689296E+00  9.00100770E-01  1.10864285E+00
 -2.04181584E-15 -1.38606080E+00 -6.14554659E+00  5.41039276E+00  1.63796809E+00
 -2.35042113E-15 -8.03611860E-02 -1.21312379E+00  1.56396052E+00 -6.62363201E-01
  1.49065866E-15 -2.42948217E-04 -5.72883182E-02  1.06421718E-01 -1.53320225E-02
  4.20135575E-17 -4.75439439E-03 -3.43172404E-01 -5.43652399E-01 -5.72884814E-03
 -5.86573164E-02 -7.06677945E-01 -1.76699887E+01 -2.50003012E-06 -2.49438258E-03
  5.47610053E-03 -6.83324433E-04 -1.19152199E-18 -1.21619337E-04 -2.82787093E-02
  4.94181023E-02  1.99918402E-02 -5.02708386E-17 -5.41305199E-02 -7.86095736E-01
  9.72133486E-01  5.47314620E-01 -1.56357741E-15 -2.83120229E-01 -1.32584300E+00
  1.77528801E+00 -2.44979241E+00 -3.46461318E-16  2.42026249E-02  3.07993013E-01
 -4.88275761E-01 -1.46469330E-01 -3.48130232E-16  2.91089402E-05  5.90825540E-03
 -1.16489787E-02 -7.45550523E-03 -2.83724476E-18 -3.63645816E-03 -6.28995678E-01
  4.08677828E-01  1.44193145E-03 -6.17412322E-02 -7.11930924E-01  1.40626512E-01
 -1.73336167E+01  3.60377292E-21  3.60069097E-18 -7.92926181E-18 -1.19562482E-18
 -1.58625198E-03  2.15662470E-19  4.99811080E-17 -8.73871578E-17 -4.99524762E-17
 -8.36353832E-03  9.90557089E-17  1.43173980E-15 -1.77484991E-15 -1.54926121E-15
 -3.04330472E-01  4.08326003E-16  1.94839378E-15 -2.61897222E-15 -3.60862529E-16
 -2.72215152E+00 -5.57598632E-17 -7.29554126E-16  1.15020279E-15 -3.66387379E-16
 -2.98296871E-01 -8.24060088E-20 -1.75625624E-17  3.48107753E-17 -3.22349821E-18
 -8.28160804E-03  6.61306675E-18  1.19411213E-15 -8.56249648E-16 -3.42073188E-18
  1.14593275E-16  1.31818321E-15 -3.60363067E-16  9.48423683E-16 -1.68561944E+01
  0.00000000E+00  0.00000000E+00  0.00000000E+00  0.00000000E+00  0.00000000E+00
  0.00000000E+00 -2.26939274E-06  9.21850810E-06  2.09229146E-06 -3.12503450E-21
  0.00000000E+00 -5.41191934E-03  1.49629193E-02  3.55636138E-03 -5.38582161E-18
  0.00000000E+00 -3.40351719E-02  7.97449224E-02 -2.10078793E-02  4.94473968E-17
  0.00000000E+00 -8.83118506E-05  2.84482327E-04 -1.42798145E-04  3.09099283E-19
  0.00000000E+00 -1.03678614E-08  4.82809902E-08 -1.43788154E-08  3.31834698E-23
 -9.29947689E-07 -4.02961009E-02 -1.42030974E-04  0.00000000E+00 -5.59316707E-05
 -1.24377615E+00  1.44009879E+00 -1.48199414E+00  3.04930502E-15 -4.40525522E+01
  0.00000000E+00 -2.32731999E-04  5.97067315E-04 -5.98151286E-06  7.43143055E-20
 -2.56792593E-06 -4.66935115E-03  9.82999988E-03  2.48222400E-03 -3.82348078E-18
 -6.05448697E-03 -2.78242839E-01  4.44085537E-01  1.22879655E-01 -1.93738073E-16
 -3.88132763E-02 -8.40011138E-01  1.21922925E+00 -3.00591493E-01  7.15719569E-16
 -9.86995583E-05 -3.34911939E-02  5.80219277E-02 -3.03132549E-02  6.53673842E-17
 -1.13954261E-08 -6.02910887E-04  1.41553548E-03 -4.33154064E-04  9.95554219E-19
 -8.90831271E-04 -5.61912838E-01 -1.85627067E-02 -3.82285444E-05 -1.31520983E+00
 -6.64785164E+00  4.55648773E+00 -5.06070512E+00  1.03748740E-14 -6.77515066E+00
 -1.55413311E+01  0.00000000E+00 -6.07018404E-04  1.49256426E-03 -1.78305875E-05
  1.98020872E-19 -1.04234477E-05 -1.03122982E-02  2.05129396E-02  5.52071648E-03
 -8.50596860E-18 -1.67452111E-02 -4.61553569E-01  6.80334246E-01  2.15081946E-01
 -3.39234644E-16 -9.09744496E-02 -1.24574535E+00  1.63355749E+00 -4.92061880E-01
  1.16596738E-15 -3.17974073E-04 -5.96574544E-02  9.51419869E-02 -5.57554468E-02
  1.20041041E-16 -5.30521839E-08 -1.44425788E-03  3.22352381E-03 -1.04134000E-03
  2.39169764E-18 -1.84323226E-03 -6.77965561E-01 -2.61071881E-02 -9.12415570E-05
 -1.52663136E+00 -5.16562182E+00  8.22216268E-01 -5.00806490E+00  1.02645354E-14
 -1.02089480E-01 -1.18093414E+00 -1.57435502E+01  0.00000000E+00  1.37642551E-05
 -3.75592561E-05 -7.13057149E-05  1.20629448E-20 -2.35068261E-06 -2.07322840E-03
  4.40669491E-03 -3.41701098E-04 -1.46937682E-18 -3.94801407E-03 -9.18188707E-02
  1.58068328E-01 -6.02316177E-02 -5.29207596E-17  2.39687860E-02  3.54687379E-01
 -5.60820302E-01 -1.90142923E-01 -2.90119534E-16  1.59278782E-04  2.89841182E-02
 -5.20113907E-02  1.68385532E-02 -5.74891708E-17  1.57957916E-08  4.18712785E-04
 -9.87931728E-04  1.25767923E-04 -6.68975554E-19 -7.22483383E-04 -4.23289167E-01
  2.22671669E-02  3.55948722E-05  1.56297557E+00  4.96848546E+00 -4.49643375E+00
  1.18505420E+00 -9.95423755E-15  4.52465222E-02  5.17119227E-01  2.21026196E-01
 -1.55869437E+01  0.00000000E+00 -9.05783095E-20  2.36603443E-19  1.41319580E-20
 -6.31233563E-05  3.50399363E-21  2.97304411E-18 -6.32732097E-18 -1.35254556E-18
 -1.32935840E-03  5.96484612E-18  1.31161801E-16 -2.27735383E-16 -4.69415458E-17
 -9.57684296E-02 -5.64156031E-17 -8.24293574E-16  1.30043549E-15 -2.82908602E-16
 -3.08417246E-01 -3.44842204E-19 -6.29395677E-17  1.12718939E-16 -5.78818228E-17
 -9.76860395E-03 -3.64549653E-23 -9.70324201E-19  2.28724921E-18 -6.74576663E-19
 -1.63325126E-04  1.21962589E-18  7.56709191E-16 -4.62849621E-17 -7.91802894E-20
 -3.21675215E-15 -1.02584057E-14  9.26395873E-15 -1.00078941E-14 -3.66378469E+00
 -9.91932957E-17 -1.13515810E-15 -4.93196049E-16  8.53381493E-16 -1.51624314E+01
 -2.16275321E-06 -1.63514033E-03  3.22493075E-03  1.37574834E-03 -2.35228668E-18
 -8.18374418E-06 -3.66413867E-03  5.74584024E-03  4.85283059E-03 -8.88790153E-18
 -2.08155284E-03 -9.73746669E-02  9.96358001E-02  1.28473810E-01 -2.40801965E-16
 -1.40099819E-01 -1.40931390E+00  1.42843898E+00  1.06661360E+00 -1.93612844E-15
 -3.48286955E-02 -5.16453825E-01  7.29023992E-01  4.71462937E-02 -1.57468802E-17
 -1.37611332E-04 -1.81905584E-02  3.31934663E-02  3.97568758E-03 -4.29398110E-18
 -2.75562010E-04 -4.63982758E-02 -7.29998666E-01 -3.26091441E-03 -1.78712222E+00
 -7.39188173E+00  1.24951752E+00  6.41143505E+00 -1.24075470E-14 -1.59406053E-01
 -1.53673155E+00 -7.60455830E-01  1.82082224E+00 -3.64066115E-15 -1.32696003E+01
  0.00000000E+00 -8.99172225E-06  2.39232444E-05  6.81906349E-07  1.17533567E-21
 -7.20403616E-08 -1.95002992E-04  4.39706361E-04  1.09838708E-04 -1.68693671E-19
 -1.66227537E-04 -1.79945108E-02  3.21138222E-02  8.52988285E-03 -1.33136654E-17
 -1.70056392E-03 -7.84044061E-02  1.30379175E-01 -1.48019321E-02  4.26208609E-17
 -7.06763905E-06 -2.98912565E-03  5.79246576E-03 -2.07323566E-03  4.66202019E-18
  0.00000000E+00 -3.38368288E-05  8.38049899E-05 -1.83606144E-05  4.46960395E-20
 -4.10565565E-05 -5.72718041E-02 -2.93855718E-03 -2.61285616E-06 -1.68496589E-01
 -1.49059812E+00  1.69444202E+00 -7.28853015E-01  1.60309077E-15 -1.67643653E+00
 -6.46865331E+00  5.47448689E+00  1.32189254E+00 -2.01104436E-15 -6.13825125E-01
 -1.14069886E+01 -8.36336672E-07 -9.20307469E-04  1.96959664E-03 -4.43378897E-04
  1.07365681E-18 -2.17991069E-04 -2.26147300E-02  4.06398647E-02  6.06042019E-04
  3.07682989E-18 -4.04186162E-02 -5.47951370E-01  7.56398523E-01 -7.91628363E-02
  2.34141716E-16 -2.82981822E-02 -4.60705922E-01  5.21203644E-01 -4.00601509E-01
  8.38100833E-16 -1.01865295E-04 -1.56984600E-02  2.16296372E-02 -1.96506481E-02
  4.06983642E-17 -5.60562365E-07 -7.50468080E-04  1.46221843E-03 -8.07687486E-04
  1.73291012E-18 -7.70429363E-03 -1.68138197E+00 -4.51711561E-03 -3.91862959E-05
 -1.69300713E-01 -1.60784450E+00  6.29576654E-01 -1.91760951E+00  3.81621842E-15
 -1.68401149E+00 -6.89390946E+00 -1.85970013E+00 -6.01968134E+00  1.15774179E-14
 -2.18415048E-01 -1.93238369E+00 -1.28573192E+01 -1.21099923E-06 -7.82837117E-01
 -1.28815927E+00 -2.61921658E-01  3.77136072E-16  0.00000000E+00 -3.25738490E-02
 -7.63090520E-02  2.31521276E-02 -5.32804862E-17  0.00000000E+00 -6.25110413E-05
 -2.27783015E-04  2.75470502E-05 -7.77610557E-20  0.00000000E+00 -2.76791564E-06
 -1.12391925E-05 -2.28963502E-06  3.29905532E-21  0.00000000E+00 -6.28795215E-05
 -1.99967471E-04 -1.15102646E-04  2.04130387E-19  0.00000000E+00 -3.27398319E-02
 -6.14588161E-02 -5.13818693E-02  9.40400786E-17 -2.92762599E-02 -5.50124094E-06
 -5.54269226E-06 -2.94649670E-02  0.00000000E+00  0.00000000E+00  0.00000000E+00
  0.00000000E+00  0.00000000E+00  0.00000000E+00  0.00000000E+00  0.00000000E+00
  0.00000000E+00  0.00000000E+00  0.00000000E+00  0.00000000E+00  0.00000000E+00
 -4.58360672E+01 -8.42202729E-01 -5.40057432E+00 -5.88053952E+00 -1.14663096E+00
  1.62570814E-15 -3.42910729E-02 -8.13449933E-01 -1.16276672E+00  4.13641063E-01
 -9.30884692E-16 -6.67111094E-05 -2.87300340E-02 -5.64084541E-02  7.68543730E-03
 -2.09458519E-17 -3.02041200E-06 -5.66594116E-03 -1.22576382E-02 -2.49209318E-03
  3.58818680E-18 -6.65309383E-05 -2.90140354E-02 -4.94952506E-02 -2.93453741E-02
  5.21988426E-17 -3.45343311E-02 -8.31575311E-01 -9.36605970E-01 -8.46153504E-01
  1.55656363E-15 -4.69411567E-01 -2.82332729E-03 -2.86582781E-03 -4.94836747E-01
  0.00000000E+00 -1.06652877E-05 -3.05983733E-05 -6.24318854E-06  9.00059876E-21
  0.00000000E+00  0.00000000E+00  0.00000000E+00  0.00000000E+00  0.00000000E+00
 -4.54410509E-06  0.00000000E+00 -3.16687954E-06 -7.21810871E+00 -1.73316767E+01
  1.38606080E+00  6.14554659E+00  5.41039276E+00  1.63796809E+00 -2.35042113E-15
  8.03611860E-02  1.21312379E+00  1.56396052E+00 -6.62363201E-01  1.49065866E-15
  2.42948217E-04  5.72883182E-02  1.06421718E-01 -1.53320225E-02  4.20135575E-17
  1.22570263E-05  1.21810993E-02  2.49231302E-02  5.43697884E-03 -7.85275308E-18
  2.11527576E-04  5.07510579E-02  7.99129363E-02  5.24537844E-02 -9.33239203E-17
  6.48895821E-02  1.00689296E+00  9.00100770E-01  1.10864285E+00 -2.04181584E-15
  5.43652399E-01  5.72884814E-03  4.75439439E-03  3.43172404E-01  0.00000000E+00
  3.05983733E-05  8.43352040E-05  1.79068517E-05 -2.58645222E-20  0.00000000E+00
  0.00000000E+00  0.00000000E+00  0.00000000E+00  0.00000000E+00  1.17216911E-05
  0.00000000E+00  8.76163392E-06  5.86573164E-02  7.06677945E-01 -1.76699887E+01
  2.83120229E-01  1.32584300E+00  1.77528801E+00 -2.44979241E+00 -3.46461318E-16
 -2.42026249E-02 -3.07993013E-01 -4.88275761E-01 -1.46469330E-01 -3.48130232E-16
 -2.91089402E-05 -5.90825540E-03 -1.16489787E-02 -7.45550523E-03 -2.83724476E-18
  2.50003012E-06  2.49438258E-03  5.47610053E-03 -6.83324433E-04 -1.19152199E-18
  1.21619337E-04  2.82787093E-02  4.94181023E-02  1.99918402E-02 -5.02708386E-17
  5.41305199E-02  7.86095736E-01  9.72133486E-01  5.47314620E-01 -1.56357741E-15
 -4.08677828E-01 -1.44193145E-03  3.63645816E-03  6.28995678E-01  0.00000000E+00
  6.24318854E-06  1.79068517E-05  2.56732681E-07 -4.41748786E-21  0.00000000E+00
  0.00000000E+00  0.00000000E+00  0.00000000E+00  0.00000000E+00  4.38711716E-06
  0.00000000E+00 -1.08277910E-06  6.17412322E-02  7.11930924E-01  1.40626512E-01
 -1.73336167E+01 -4.08326003E-16 -1.94839378E-15 -2.61897222E-15 -3.60862529E-16
 -2.72215152E+00  5.57598632E-17  7.29554126E-16  1.15020279E-15 -3.66387379E-16
 -2.98296871E-01  8.24060088E-20  1.75625624E-17  3.48107753E-17 -3.22349821E-18
 -8.28160804E-03 -3.60377292E-21 -3.60069097E-18 -7.92926181E-18 -1.19562482E-18
 -1.58625198E-03 -2.15662470E-19 -4.99811080E-17 -8.73871578E-17 -4.99524762E-17
 -8.36353832E-03 -9.90557089E-17 -1.43173980E-15 -1.77484991E-15 -1.54926121E-15
 -3.04330472E-01  8.56249648E-16  3.42073188E-18 -6.61306675E-18 -1.19411213E-15
  0.00000000E+00 -9.00059876E-21 -2.58645222E-20 -4.41748786E-21 -2.96235464E-06
  0.00000000E+00  0.00000000E+00  0.00000000E+00  0.00000000E+00  0.00000000E+00
 -7.35041634E-21  0.00000000E+00  3.03641059E-21 -1.14593275E-16 -1.31818321E-15
 -3.60363067E-16  9.48423683E-16 -1.68561944E+01  0.00000000E+00 -3.40351719E-02
 -7.97449224E-02  2.10078793E-02 -4.94473968E-17  0.00000000E+00 -8.83118506E-05
 -2.84482327E-04  1.42798145E-04 -3.09099283E-19  0.00000000E+00 -1.03678614E-08
 -4.82809902E-08  1.43788154E-08 -3.31834698E-23  0.00000000E+00  0.00000000E+00
  0.00000000E+00  0.00000000E+00  0.00000000E+00  0.00000000E+00 -2.26939274E-06
 -9.21850810E-06 -2.09229146E-06  3.12503450E-21  0.00000000E+00 -5.41191934E-03
 -1.49629193E-02 -3.55636138E-03  5.38582161E-18 -1.42030974E-04  0.00000000E+00
 -9.29947689E-07 -4.02961009E-02  0.00000000E+00  0.00000000E+00  0.00000000E+00
  0.00000000E+00  0.00000000E+00  0.00000000E+00  0.00000000E+00  0.00000000E+00
  0.00000000E+00  0.00000000E+00  0.00000000E+00  0.00000000E+00  0.00000000E+00
 -5.59316707E-05 -1.24377615E+00 -1.44009879E+00  1.48199414E+00 -3.04930502E-15
 -4.40525522E+01 -3.88132763E-02 -8.40011138E-01 -1.21922925E+00  3.00591493E-01
 -7.15719569E-16 -9.86995583E-05 -3.34911939E-02 -5.80219277E-02  3.03132549E-02
 -6.53673842E-17 -1.13954261E-08 -6.02910887E-04 -1.41553548E-03  4.33154064E-04
 -9.95554219E-19  0.00000000E+00 -2.32731999E-04 -5.97067315E-04  5.98151286E-06
 -7.43143055E-20 -2.56792593E-06 -4.66935115E-03 -9.82999988E-03 -2.48222400E-03
  3.82348078E-18 -6.05448697E-03 -2.78242839E-01 -4.44085537E-01 -1.22879655E-01
  1.93738073E-16 -1.85627067E-02 -3.82285444E-05 -8.90831271E-04 -5.61912838E-01
  0.00000000E+00  0.00000000E+00  0.00000000E+00  0.00000000E+00  0.00000000E+00
  0.00000000E+00  0.00000000E+00  0.00000000E+00  0.00000000E+00  0.00000000E+00
  0.00000000E+00  0.00000000E+00  0.00000000E+00 -1.31520983E+00 -6.64785164E+00
 -4.55648773E+00  5.06070512E+00 -1.03748740E-14 -6.77515066E+00 -1.55413311E+01
  9.09744496E-02  1.24574535E+00  1.63355749E+00 -4.92061880E-01  1.16596738E-15
  3.17974073E-04  5.96574544E-02  9.51419869E-02 -5.57554468E-02  1.20041041E-16
  5.30521839E-08  1.44425788E-03  3.22352381E-03 -1.04134000E-03  2.39169764E-18
  0.00000000E+00  6.07018404E-04  1.49256426E-03 -1.78305875E-05  1.98020872E-19
  1.04234477E-05  1.03122982E-02  2.05129396E-02  5.52071648E-03 -8.50596860E-18
  1.67452111E-02  4.61553569E-01  6.80334246E-01  2.15081946E-01 -3.39234644E-16
  2.61071881E-02  9.12415570E-05  1.84323226E-03  6.77965561E-01  0.00000000E+00
  0.00000000E+00  0.00000000E+00  0.00000000E+00  0.00000000E+00  0.00000000E+00
  0.00000000E+00  0.00000000E+00  0.00000000E+00  0.00000000E+00  0.00000000E+00
  0.00000000E+00  0.00000000E+00  1.52663136E+00  5.16562182E+00  8.22216268E-01
 -5.00806490E+00  1.02645354E-14  1.02089480E-01  1.18093414E+00 -1.57435502E+01
 -2.39687860E-02 -3.54687379E-01 -5.60820302E-01 -1.90142923E-01 -2.90119534E-16
 -1.59278782E-04 -2.89841182E-02 -5.20113907E-02  1.68385532E-02 -5.74891708E-17
 -1.57957916E-08 -4.18712785E-04 -9.87931728E-04  1.25767923E-04 -6.68975554E-19
  0.00000000E+00 -1.37642551E-05 -3.75592561E-05 -7.13057149E-05  1.20629448E-20
  2.35068261E-06  2.07322840E-03  4.40669491E-03 -3.41701098E-04 -1.46937682E-18
  3.94801407E-03  9.18188707E-02  1.58068328E-01 -6.02316177E-02 -5.29207596E-17
 -2.22671669E-02 -3.55948722E-05  7.22483383E-04  4.23289167E-01  0.00000000E+00
  0.00000000E+00  0.00000000E+00  0.00000000E+00  0.00000000E+00  0.00000000E+00
  0.00000000E+00  0.00000000E+00  0.00000000E+00  0.00000000E+00  0.00000000E+00
  0.00000000E+00  0.00000000E+00 -1.56297557E+00 -4.96848546E+00 -4.49643375E+00
  1.18505420E+00 -9.95423755E-15 -4.52465222E-02 -5.17119227E-01  2.21026196E-01
 -1.55869437E+01  5.64156031E-17  8.24293574E-16  1.30043549E-15 -2.82908602E-16
 -3.08417246E-01  3.44842204E-19  6.29395677E-17  1.12718939E-16 -5.78818228E-17
 -9.76860395E-03  3.64549653E-23  9.70324201E-19  2.28724921E-18 -6.74576663E-19
 -1.63325126E-04  0.00000000E+00  9.05783095E-20  2.36603443E-19  1.41319580E-20
 -6.31233563E-05 -3.50399363E-21 -2.97304411E-18 -6.32732097E-18 -1.35254556E-18
 -1.32935840E-03 -5.96484612E-18 -1.31161801E-16 -2.27735383E-16 -4.69415458E-17
 -9.57684296E-02  4.62849621E-17  7.91802894E-20 -1.21962589E-18 -7.56709191E-16
  0.00000000E+00  0.00000000E+00  0.00000000E+00  0.00000000E+00  0.00000000E+00
  0.00000000E+00  0.00000000E+00  0.00000000E+00  0.00000000E+00  0.00000000E+00
  0.00000000E+00  0.00000000E+00  0.00000000E+00  3.21675215E-15  1.02584057E-14
  9.26395873E-15 -1.00078941E-14 -3.66378469E+00  9.91932957E-17  1.13515810E-15
 -4.93196049E-16  8.53381493E-16 -1.51624314E+01 -1.40099819E-01 -1.40931390E+00
 -1.42843898E+00 -1.06661360E+00  1.93612844E-15 -3.48286955E-02 -5.16453825E-01
 -7.29023992E-01 -4.71462937E-02  1.57468802E-17 -1.37611332E-04 -1.81905584E-02
 -3.31934663E-02 -3.97568758E-03  4.29398110E-18 -2.16275321E-06 -1.63514033E-03
 -3.22493075E-03 -1.37574834E-03  2.35228668E-18 -8.18374418E-06 -3.66413867E-03
 -5.74584024E-03 -4.85283059E-03  8.88790153E-18 -2.08155284E-03 -9.73746669E-02
 -9.96358001E-02 -1.28473810E-01  2.40801965E-16 -7.29998666E-01 -3.26091441E-03
 -2.75562010E-04 -4.63982758E-02  0.00000000E+00 -4.54410509E-06 -1.17216911E-05
 -4.38711716E-06  7.35041634E-21  0.00000000E+00  0.00000000E+00  0.00000000E+00
  0.00000000E+00  0.00000000E+00 -1.04626974E-06  0.00000000E+00 -4.76084059E-06
 -1.78712222E+00 -7.39188173E+00 -1.24951752E+00 -6.41143505E+00  1.24075470E-14
 -1.59406053E-01 -1.53673155E+00  7.60455830E-01 -1.82082224E+00  3.64066115E-15
 -1.32696003E+01 -1.70056392E-03 -7.84044061E-02 -1.30379175E-01  1.48019321E-02
 -4.26208609E-17 -7.06763905E-06 -2.98912565E-03 -5.79246576E-03  2.07323566E-03
 -4.66202019E-18  0.00000000E+00 -3.38368288E-05 -8.38049899E-05  1.83606144E-05
 -4.46960395E-20  0.00000000E+00 -8.99172225E-06 -2.39232444E-05 -6.81906349E-07
 -1.17533567E-21 -7.20403616E-08 -1.95002992E-04 -4.39706361E-04 -1.09838708E-04
  1.68693671E-19 -1.66227537E-04 -1.79945108E-02 -3.21138222E-02 -8.52988285E-03
  1.33136654E-17 -2.93855718E-03 -2.61285616E-06 -4.10565565E-05 -5.72718041E-02
  0.00000000E+00  0.00000000E+00  0.00000000E+00  0.00000000E+00  0.00000000E+00
  0.00000000E+00  0.00000000E+00  0.00000000E+00  0.00000000E+00  0.00000000E+00
  0.00000000E+00  0.00000000E+00  0.00000000E+00 -1.68496589E-01 -1.49059812E+00
 -1.69444202E+00  7.28853015E-01 -1.60309077E-15 -1.67643653E+00 -6.46865331E+00
 -5.47448689E+00 -1.32189254E+00  2.01104436E-15 -6.13825125E-01 -1.14069886E+01
 -2.82981822E-02 -4.60705922E-01 -5.21203644E-01  4.00601509E-01 -8.38100833E-16
 -1.01865295E-04 -1.56984600E-02 -2.16296372E-02  1.96506481E-02 -4.06983642E-17
 -5.60562365E-07 -7.50468080E-04 -1.46221843E-03  8.07687486E-04 -1.73291012E-18
 -8.36336672E-07 -9.20307469E-04 -1.96959664E-03  4.43378897E-04 -1.07365681E-18
 -2.17991069E-04 -2.26147300E-02 -4.06398647E-02 -6.06042019E-04 -3.07682989E-18
 -4.04186162E-02 -5.47951370E-01 -7.56398523E-01  7.91628363E-02 -2.34141716E-16
 -4.51711561E-03 -3.91862959E-05 -7.70429363E-03 -1.68138197E+00  0.00000000E+00
 -3.16687954E-06 -8.76163392E-06  1.08277910E-06 -3.03641059E-21  0.00000000E+00
  0.00000000E+00  0.00000000E+00  0.00000000E+00  0.00000000E+00 -4.76084059E-06
  0.00000000E+00  0.00000000E+00 -1.69300713E-01 -1.60784450E+00 -6.29576654E-01
  1.91760951E+00 -3.81621842E-15 -1.68401149E+00 -6.89390946E+00  1.85970013E+00
  6.01968134E+00 -1.15774179E-14 -2.18415048E-01 -1.93238369E+00 -1.28573192E+01
Core Hamiltonian Matrix                    R   N=        1830
 -3.24241974E+01 -7.91975165E+00 -1.93441889E+01  5.20418715E-02  5.92088618E-01
 -1.86411784E+01  1.87116200E-02  2.15243360E-01  9.71127726E-03 -1.85090517E+01
 -3.11357603E-17 -3.58848501E-16 -1.15042821E-16  1.53376209E-15 -1.77253043E+01
 -5.47500325E-05 -1.18797766E+00  1.30748687E+00 -1.47132586E+00  3.01453403E-15
 -3.15295416E+01 -1.21847811E+00 -7.04434834E+00  5.08931173E+00 -5.39171042E+00
  1.10780869E-14 -7.69755281E+00 -1.84427863E+01 -1.33738726E+00 -4.82360267E+00
  5.47904308E-01 -4.78348311E+00  9.80325435E-15  2.06447639E-02  2.39505635E-01
 -1.77730849E+01  1.51244609E+00  5.83163382E+00 -5.29975684E+00  1.85268315E+00
 -1.14689433E-14  1.09729756E-01  1.27666874E+00  7.31754003E-02 -1.75021488E+01
 -3.09808698E-15 -1.19105618E-14  1.08129103E-14 -1.14147999E-14 -3.72760107E+00
 -2.12429026E-16 -2.47161243E-15 -2.34642955E-16  1.18477517E-15 -1.69002543E+01
  0.00000000E+00 -5.84691583E-02  1.27304824E-01 -4.24309518E-02  9.63314166E-17
 -5.47619445E-05 -1.19303722E+00  1.93616401E+00  3.98511407E-01 -5.76300722E-16
 -3.16970803E+01 -5.96351325E-02 -1.19833007E+00  1.66401206E+00 -5.57153926E-01
  1.26411440E-15 -1.18740282E+00 -6.89377915E+00  7.11965025E+00  1.80505820E+00
 -2.78341828E-15 -7.73916312E+00 -1.86103040E+01 -1.29851528E-01 -1.67163690E+00
  2.06372953E+00 -8.57539832E-01  1.94043988E-15 -1.92840499E+00 -7.23078975E+00
  5.73340235E+00  2.30648269E+00 -3.52663492E-15 -5.10278117E-02 -5.92649033E-01
 -1.78754280E+01  4.34222425E-02  5.58847024E-01 -8.54487288E-01 -2.01811582E-01
 -5.70508475E-16 -3.89742273E-01 -1.12450848E+00  1.58111954E+00 -3.37999355E+00
 -3.62070573E-16  9.15309161E-02  1.06510731E+00 -1.36420549E-01 -1.77431187E+01
 -9.85371260E-17 -1.26822517E-15  1.93447014E-15 -5.70828606E-16 -4.47710878E-01
  5.59964990E-16  1.44083871E-15 -2.10807109E-15 -2.85999250E-16 -3.64992184E+00
 -1.84354829E-16 -2.14514110E-15  1.81222221E-16  1.32263459E-15 -1.70594920E+01
  0.00000000E+00 -1.37467939E-02  3.56217681E-02  7.26305615E-03 -1.04682926E-17
  0.00000000E+00 -5.97473797E-02  1.02648887E-01  9.09569762E-02 -1.67115795E-16
 -5.51352392E-05 -1.22016749E+00  6.38963238E-01  1.91806981E+00 -3.68408247E-15
 -3.24241974E+01 -1.37467939E-02 -5.15862575E-01  8.08011745E-01  1.64910309E-01
 -2.37769558E-16 -5.82889997E-02 -1.20161092E+00  1.32523844E+00  1.17108666E+00
 -2.15126523E-15 -1.19521729E+00 -7.10261938E+00  2.20869511E+00  7.29121633E+00
 -1.40275080E-14 -7.91975165E+00 -1.93441889E+01 -3.56217681E-02 -8.08011745E-01
  1.16415123E+00  2.79220299E-01 -4.05139355E-16 -1.00172662E-01 -1.31324224E+00
  1.10062636E+00  1.40896722E+00 -2.59296521E-15 -6.29820280E-01 -2.55576432E+00
 -2.92209564E+00  3.27544227E+00 -6.31794950E-15 -5.20418715E-02 -5.92088618E-01
 -1.86411784E+01 -7.26305615E-03 -1.64910309E-01  2.79220299E-01 -1.45345315E-01
 -3.76491809E-17 -8.86128240E-02 -1.16909920E+00  1.42038069E+00  7.66043240E-01
 -2.22690147E-15 -1.87749061E+00 -7.04117950E+00  2.84523832E+00  5.34442800E+00
 -1.75035812E-14 -1.87116200E-02 -2.15243360E-01  9.71127726E-03 -1.85090517E+01
  1.04682926E-17  2.37769558E-16 -4.05139355E-16 -3.76491809E-17 -1.79570060E-01
  1.62791120E-16  2.14863652E-15 -2.61528609E-15 -2.22809844E-15 -4.48821027E-01
  3.60568220E-15  1.35021226E-14 -5.47661676E-15 -1.74584642E-14 -3.75836569E+00
  3.11357603E-17  3.58848501E-16 -1.15042821E-16  1.53376209E-15 -1.77253043E+01
  0.00000000E+00 -5.82889997E-02  1.00172662E-01  8.86128240E-02 -1.62791120E-16
  0.00000000E+00 -1.34576071E-02  1.12661209E-02  3.37356550E-02 -6.47939602E-17
  0.00000000E+00 -5.83021970E-02 -2.68041548E-02  1.31055507E-01 -2.59111080E-16
 -5.47500325E-05 -1.18797766E+00 -1.30748687E+00  1.47132586E+00 -3.01453403E-15
 -3.15295416E+01 -5.97473797E-02 -1.20161092E+00  1.31324224E+00  1.16909920E+00
 -2.14863652E-15 -1.34576071E-02 -5.15393559E-01  2.60484131E-01  7.81303023E-01
 -1.50064534E-15 -5.85906543E-02 -1.20881339E+00 -3.41629058E-01  1.73963343E+00
 -3.43795964E-15 -1.21847811E+00 -7.04434834E+00 -5.08931173E+00  5.39171042E+00
 -1.10780869E-14 -7.69755281E+00 -1.84427863E+01 -1.02648887E-01 -1.32523844E+00
  1.10062636E+00  1.42038069E+00 -2.61528609E-15 -1.12661209E-02 -2.60484131E-01
 -6.20364747E-02  4.26828052E-01 -8.22460004E-16  2.68546425E-02  3.67392215E-01
 -3.83899587E-01 -5.81672643E-01  1.14455475E-15  1.33738726E+00  4.82360267E+00
  5.47904308E-01 -4.78348311E+00  9.80325435E-15 -2.06447639E-02 -2.39505635E-01
 -1.77730849E+01 -9.09569762E-02 -1.17108666E+00  1.40896722E+00  7.66043240E-01
 -2.22809844E-15 -3.37356550E-02 -7.81303023E-01  4.26828052E-01  1.07904969E+00
 -2.41563407E-15 -1.31729007E-01 -1.73694542E+00 -5.42803000E-01  2.26247908E+00
 -5.36289120E-15 -1.51244609E+00 -5.83163382E+00 -5.29975684E+00  1.85268315E+00
 -1.14689433E-14 -1.09729756E-01 -1.27666874E+00  7.31754003E-02 -1.75021488E+01
  1.67115795E-16  2.15126523E-15 -2.59296521E-15 -2.22690147E-15 -4.48821027E-01
  6.47939602E-17  1.50064534E-15 -8.22460004E-16 -2.41563407E-15 -1.79040553E-01
  2.60433511E-16  3.43540467E-15  1.06853894E-15 -5.36696759E-15 -4.50653626E-01
  3.09808698E-15  1.19105618E-14  1.08129103E-14 -1.14147999E-14 -3.72760107E+00
  2.12429026E-16  2.47161243E-15 -2.34642955E-16  1.18477517E-15 -1.69002543E+01
 -5.51352392E-05 -1.19521729E+00  6.29820280E-01  1.87749061E+00 -3.60568220E-15
  0.00000000E+00 -5.85906543E-02 -2.68546425E-02  1.31729007E-01 -2.60433511E-16
  0.00000000E+00 -1.34979674E-02 -2.36627124E-02  2.67064632E-02 -5.47103564E-17
  0.00000000E+00 -5.84691583E-02 -1.27304824E-01  4.24309518E-02 -9.63314166E-17
 -5.47619445E-05 -1.19303722E+00 -1.93616401E+00 -3.98511407E-01  5.76300722E-16
 -3.16970803E+01 -1.22016749E+00 -7.10261938E+00  2.55576432E+00  7.04117950E+00
 -1.35021226E-14 -5.83021970E-02 -1.20881339E+00 -3.67392215E-01  1.73694542E+00
 -3.43540467E-15 -1.34979674E-02 -5.15163685E-01 -5.45593566E-01  6.16628777E-01
 -1.26313461E-15 -5.96351325E-02 -1.19833007E+00 -1.66401206E+00  5.57153926E-01
 -1.26411440E-15 -1.18740282E+00 -6.89377915E+00 -7.11965025E+00 -1.80505820E+00
  2.78341828E-15 -7.73916312E+00 -1.86103040E+01 -6.38963238E-01 -2.20869511E+00
 -2.92209564E+00  2.84523832E+00 -5.47661676E-15  2.68041548E-02  3.41629058E-01
 -3.83899587E-01 -5.42803000E-01  1.06853894E-15  2.36627124E-02  5.45593566E-01
  4.20519688E-01 -7.06546246E-01  1.44464146E-15  1.29851528E-01  1.67163690E+00
  2.06372953E+00 -8.57539832E-01  1.94043988E-15  1.92840499E+00  7.23078975E+00
  5.73340235E+00  2.30648269E+00 -3.52663492E-15  5.10278117E-02  5.92649033E-01
 -1.78754280E+01 -1.91806981E+00 -7.29121633E+00  3.27544227E+00  5.34442800E+00
 -1.74584642E-14 -1.31055507E-01 -1.73963343E+00 -5.81672643E-01  2.26247908E+00
 -5.36696759E-15 -2.67064632E-02 -6.16628777E-01 -7.06546246E-01  5.96440612E-01
 -1.59066000E-15 -4.34222425E-02 -5.58847024E-01 -8.54487288E-01 -2.01811582E-01
 -5.70508475E-16  3.89742273E-01  1.12450848E+00  1.58111954E+00 -3.37999355E+00
 -3.62070573E-16 -9.15309161E-02 -1.06510731E+00 -1.36420549E-01 -1.77431187E+01
  3.68408247E-15  1.40275080E-14 -6.31794950E-15 -1.75035812E-14 -3.75836569E+00
  2.59111080E-16  3.43795964E-15  1.14455475E-15 -5.36289120E-15 -4.50653626E-01
  5.47103564E-17  1.26313461E-15  1.44464146E-15 -1.59066000E-15 -1.79032595E-01
  9.85371260E-17  1.26822517E-15  1.93447014E-15 -5.70828606E-16 -4.47710878E-01
 -5.59964990E-16 -1.44083871E-15 -2.10807109E-15 -2.85999250E-16 -3.64992184E+00
  1.84354829E-16  2.14514110E-15  1.81222221E-16  1.32263459E-15 -1.70594920E+01
 -1.69799627E-01 -1.68622828E+00  6.52135345E-01 -1.99754971E+00  3.97492009E-15
 -1.88458653E+00 -7.82093570E+00 -2.18788166E+00 -6.28905509E+00  1.20698039E-14
 -1.65888903E-01 -1.63291999E+00 -1.70048030E+00 -1.14090147E+00  2.05288037E-15
 -2.98906684E-03 -1.24789599E-01 -1.30852295E-01 -1.57410804E-01  2.94119112E-16
 -3.89523959E-04 -3.64167450E-02 -2.07066574E-02 -6.18525162E-02  1.18790924E-16
 -2.93436234E-03 -1.26787514E-01  8.57410430E-03 -2.08189609E-01  4.08047323E-16
 -1.33319314E+01 -2.98214120E-03 -1.24422741E-01  1.81965847E-01 -9.30706782E-02
  2.01098002E-16 -1.65067490E-01 -1.63906497E+00  2.02872895E+00 -3.83618157E-01
  9.62986523E-16 -1.89561879E+00 -7.96748154E+00  4.63664163E+00 -5.03167393E+00
  1.03265049E-14 -1.70025234E-01 -1.71790974E+00  2.01979227E-01 -2.14022557E+00
  4.20673617E-15 -2.91825864E-03 -1.27138691E-01  7.41177678E-02 -1.95898469E-01
  3.90883820E-16 -3.90574076E-04 -3.64051780E-02  4.33149405E-02 -4.88004406E-02
  9.99796648E-17 -7.35438496E-01 -1.37551347E+01 -2.98906684E-03 -1.24789599E-01
  1.30852295E-01  1.57410804E-01 -2.94119112E-16 -3.89523959E-04 -3.64167450E-02
  2.07066574E-02  6.18525162E-02 -1.18790924E-16 -2.93436234E-03 -1.26787514E-01
 -8.57410430E-03  2.08189609E-01 -4.08047323E-16 -1.69799627E-01 -1.68622828E+00
 -6.52135345E-01  1.99754971E+00 -3.97492009E-15 -1.88458653E+00 -7.82093570E+00
  2.18788166E+00  6.28905509E+00 -1.20698039E-14 -1.65888903E-01 -1.63291999E+00
  1.70048030E+00  1.14090147E+00 -2.05288037E-15 -2.20691897E-03 -1.47280609E-02
 -1.33319314E+01 -1.70025234E-01 -1.71790974E+00 -2.01979227E-01  2.14022557E+00
 -4.20673617E-15 -2.91825864E-03 -1.27138691E-01 -7.41177678E-02  1.95898469E-01
 -3.90883820E-16 -3.90574076E-04 -3.64051780E-02 -4.33149405E-02  4.88004406E-02
 -9.99796648E-17 -2.98214120E-03 -1.24422741E-01 -1.81965847E-01  9.30706782E-02
 -2.01098002E-16 -1.65067490E-01 -1.63906497E+00 -2.02872895E+00  3.83618157E-01
 -9.62986523E-16 -1.89561879E+00 -7.96748154E+00 -4.63664163E+00  5.03167393E+00
 -1.03265049E-14 -1.47280609E-02 -2.20483147E-03 -7.35438496E-01 -1.37551347E+01
  0.00000000E+00 -3.33807450E-06  1.33522931E-05  2.72072985E-06 -3.92052220E-21
  0.00000000E+00 -7.23803115E-05  2.26773165E-04  1.30534282E-04 -2.31498217E-19
  0.00000000E+00 -3.43910603E-02  6.36423119E-02  5.32073584E-02 -9.73811242E-17
 -4.22074603E-06 -7.90837694E-01  1.29870948E+00  2.64075060E-01 -3.80240956E-16
  0.00000000E+00 -3.42242388E-02  7.90322462E-02 -2.39758149E-02  5.51769294E-17
  0.00000000E+00 -7.19997975E-05  2.58455171E-04 -3.12390861E-05  8.81981176E-20
 -6.30063627E-06 -3.04183830E-02 -3.02295604E-02 -6.25829188E-06 -2.99449455E+01
 -3.59057085E-06 -6.06455595E-03  1.29961660E-02  2.64276065E-03 -3.80538922E-18
 -7.60317283E-05 -3.05793862E-02  5.17372783E-02  3.06360758E-02 -5.44878873E-17
 -3.61855596E-02 -8.47566205E-01  9.46087052E-01  8.54080065E-01 -1.57107097E-15
 -8.50203306E-01 -5.37968563E+00  5.78131551E+00  1.12637836E+00 -1.59650690E-15
 -3.59414627E-02 -8.29438228E-01  1.17459724E+00 -4.17219453E-01  9.39123513E-16
 -7.61998656E-05 -3.02944270E-02  5.89755267E-02 -7.99443822E-03  2.18193704E-17
 -3.05620116E-03 -5.05423455E-01 -4.79997570E-01 -3.01357562E-03 -7.30399872E+00
 -1.68594268E+01 -1.43701269E-05 -1.29196271E-02  2.61842772E-02  5.71706525E-03
 -8.25652602E-18 -2.38333270E-04 -5.29930856E-02  8.27288779E-02  5.43312591E-02
 -9.66536003E-17 -6.70730779E-02 -1.01637404E+00  8.97052847E-01  1.10944171E+00
 -2.04327792E-15 -1.39661100E+00 -6.04632258E+00  5.19584192E+00  1.58543730E+00
 -2.27467953E-15 -8.30843801E-02 -1.22495431E+00  1.56145384E+00 -6.62815894E-01
  1.49170093E-15 -2.73620373E-04 -5.98553909E-02  1.10254716E-01 -1.58469775E-02
  4.34692900E-17 -5.02157358E-03 -3.47307247E-01 -5.50711269E-01 -6.05877707E-03
 -5.86573164E-02 -7.06677945E-01 -1.61922606E+01 -2.93112495E-06 -2.64505005E-03
  5.75618693E-03 -7.37938393E-04 -1.27389593E-18 -1.37050972E-04 -2.95694110E-02
  5.12955771E-02  2.06273275E-02 -5.21876854E-17 -5.59560090E-02 -7.94022297E-01
  9.72932341E-01  5.43979048E-01 -1.56479977E-15 -2.85273630E-01 -1.30559040E+00
  1.72275722E+00 -2.41770007E+00 -3.31001711E-16  2.50263122E-02  3.11571403E-01
 -4.88728453E-01 -1.50335731E-01 -3.48445489E-16  3.28009761E-05  6.21725633E-03
 -1.21639336E-02 -7.83858899E-03 -3.01247263E-18 -3.85165337E-03 -6.37301976E-01
  4.14699638E-01  1.53519669E-03 -6.17412322E-02 -7.11930924E-01  1.40626512E-01
 -1.58558886E+01  4.22523980E-21  3.81789339E-18 -8.33303474E-18 -1.27799876E-18
 -1.69800653E-03  2.43030300E-19  5.22701528E-17 -9.07168378E-17 -5.18693230E-17
 -8.80888508E-03  1.02396754E-16  1.44624715E-15 -1.77631199E-15 -1.55048357E-15
 -3.08333919E-01  4.11430887E-16  1.91919254E-15 -2.54323063E-15 -3.45402922E-16
 -2.67933713E+00 -5.76563063E-17 -7.37792948E-16  1.15124506E-15 -3.66702636E-16
 -3.02300199E-01 -9.28430707E-20 -1.84360809E-17  3.62665078E-17 -3.39872608E-18
 -8.72667740E-03  7.00589545E-18  1.20992279E-15 -8.68766549E-16 -3.63772779E-18
  1.14593275E-16  1.31818321E-15 -3.60363067E-16  9.48423683E-16 -1.53784664E+01
  0.00000000E+00  0.00000000E+00  0.00000000E+00  0.00000000E+00  0.00000000E+00
  0.00000000E+00 -2.77596777E-06  1.10973710E-05  2.51736485E-06 -3.75929079E-21
  0.00000000E+00 -5.85729280E-03  1.59436033E-02  3.78859638E-03 -5.73714665E-18
  0.00000000E+00 -3.58053011E-02  8.26341154E-02 -2.17699757E-02  5.12407978E-17
  0.00000000E+00 -1.01862171E-04  3.23004742E-04 -1.62136665E-04  3.50958835E-19
  0.00000000E+00 -1.26415511E-08  5.82263521E-08 -1.73410084E-08  4.00195170E-23
 -1.08899622E-06 -4.15053479E-02 -1.56373702E-04  0.00000000E+00 -1.59627713E-04
 -1.25202959E+00  1.44658385E+00 -1.48865523E+00  3.06301196E-15 -2.81614305E+01
  0.00000000E+00 -2.57640586E-04  6.54785714E-04 -6.92512102E-06  8.22128091E-20
 -3.07450096E-06 -5.04556425E-03  1.05273368E-02  2.63998929E-03 -4.05888397E-18
 -6.49986043E-03 -2.87778225E-01  4.54940338E-01  1.25450172E-01 -1.97626750E-16
 -4.05834055E-02 -8.56353510E-01  1.23090616E+00 -3.03671568E-01  7.22967748E-16
 -1.12249878E-04 -3.53489528E-02  6.07114866E-02 -3.16634322E-02  6.82899354E-17
 -1.36691158E-08 -6.61034267E-04  1.53770519E-03 -4.69541908E-04  1.07952883E-18
 -9.70491978E-04 -5.73946157E-01 -1.95432443E-02 -4.24065523E-05 -1.32346326E+00
 -6.58668188E+00  4.43325914E+00 -4.93413174E+00  1.01144160E-14 -6.86104067E+00
 -1.50690811E+01  0.00000000E+00 -6.64736803E-04  1.61832027E-03 -2.00017303E-05
  2.16194495E-19 -1.23023107E-05 -1.10096351E-02  2.17038085E-02  5.81399577E-03
 -8.94357358E-18 -1.77258951E-02 -4.72408370E-01  6.88826642E-01  2.17742187E-01
 -3.43259056E-16 -9.38636426E-02 -1.25742226E+00  1.62968716E+00 -4.92099397E-01
  1.16605567E-15 -3.56496489E-04 -6.23470134E-02  9.85699880E-02 -5.77425105E-02
  1.24342176E-16 -6.29975458E-08 -1.56642759E-03  3.46246283E-03 -1.11737949E-03
  2.56717895E-18 -1.98382746E-03 -6.85504903E-01 -2.72379849E-02 -1.00184450E-04
 -1.53311643E+00 -5.04239323E+00  6.99392376E-01 -4.78314158E+00  9.80169669E-15
 -1.02089480E-01 -1.18093414E+00 -1.42658221E+01  0.00000000E+00  1.47078633E-05
 -3.97303989E-05 -7.83181633E-05  1.17658336E-20 -2.77575600E-06 -2.23099370E-03
  4.69997420E-03 -3.80801830E-04 -1.56838044E-18 -4.18024907E-03 -9.43893874E-02
  1.60728569E-01 -6.23429420E-02 -5.38737773E-17  2.47308823E-02  3.57767454E-01
 -5.60857818E-01 -1.94145591E-01 -2.90142822E-16  1.78617302E-04  3.03342954E-02
 -5.39984545E-02  1.73058345E-02 -5.96483707E-17  1.87579847E-08  4.55100629E-04
 -1.06397122E-03  1.32057635E-04 -7.21242083E-19 -7.83815793E-04 -4.28571941E-01
  2.32923018E-02  3.92517167E-05  1.56963666E+00  4.84191208E+00 -4.27151042E+00
  1.05018144E+00 -9.47883599E-15  4.52465222E-02  5.17119227E-01  2.21026196E-01
 -1.41092156E+01  0.00000000E+00 -9.84768130E-20  2.54777066E-19  1.38348469E-20
 -7.01712996E-05  4.13824991E-21  3.20844730E-18 -6.76492595E-18 -1.45154918E-18
 -1.43481055E-03  6.31617116E-18  1.35050478E-16 -2.31759794E-16 -4.78945635E-17
 -9.85097234E-02 -5.82090041E-17 -8.31541752E-16  1.30052377E-15 -2.82931890E-16
 -3.12429810E-01 -3.86701756E-19 -6.58621189E-17  1.17020075E-16 -6.00410228E-17
 -1.02988425E-02 -4.32910125E-23 -1.05429881E-18  2.46273053E-18 -7.26843191E-19
 -1.79683524E-04  1.32482654E-18  7.66249826E-16 -4.84083680E-17 -8.72697065E-20
 -3.23045909E-15 -9.99794771E-15  8.80112001E-15 -9.53249250E-15 -3.56762902E+00
 -9.91932957E-17 -1.13515810E-15 -4.93196049E-16  8.53381493E-16 -1.36847033E+01
 -2.46118902E-06 -1.74834755E-03  3.41997643E-03  1.45981231E-03 -2.49623213E-18
 -9.20708033E-06 -3.88917089E-03  6.05283692E-03  5.10939362E-03 -9.35745585E-18
 -2.20717918E-03 -1.00708981E-01  1.02434777E-01  1.31911843E-01 -2.47232051E-16
 -1.42242927E-01 -1.42436683E+00  1.43105972E+00  1.06866887E+00 -1.93987301E-15
 -3.58607010E-02 -5.27509531E-01  7.38266728E-01  4.82959518E-02 -1.70259032E-17
 -1.50204288E-04 -1.91022901E-02  3.46071300E-02  4.18951299E-03 -4.56389517E-18
 -2.95997829E-04 -4.81124749E-02 -7.40991878E-01 -3.46032128E-03 -1.79792367E+00
 -7.28769711E+00  1.19169084E+00  6.16193695E+00 -1.19256780E-14 -1.61797394E-01
 -1.55154743E+00 -7.60292203E-01  1.82033400E+00 -3.63968916E-15 -1.25095684E+01
  0.00000000E+00 -1.00878155E-05  2.66221774E-05  7.40172843E-07  1.34443258E-21
 -8.53895283E-08 -2.14818365E-04  4.80540853E-04  1.18891355E-04 -1.82115120E-19
 -1.81191874E-04 -1.89986001E-02  3.36340254E-02  8.87619997E-03 -1.38315151E-17
 -1.80582954E-03 -8.14193782E-02  1.34427272E-01 -1.52894668E-02  4.39988508E-17
 -7.97265928E-06 -3.19927078E-03  6.14916132E-03 -2.19121762E-03  4.93016070E-18
  0.00000000E+00 -3.75946584E-05  9.23668188E-05 -2.01141330E-05  4.90232344E-20
 -4.55981867E-05 -5.96132490E-02 -3.13144467E-03 -2.93512669E-06 -1.70887973E-01
 -1.50541390E+00  1.69395760E+00 -7.28676116E-01  1.60269401E-15 -1.68723810E+00
 -6.36446979E+00  5.22353381E+00  1.27075834E+00 -1.93736155E-15 -6.24408087E-01
 -1.06469567E+01 -9.61475121E-07 -9.89975317E-04  2.10146571E-03 -4.74321814E-04
  1.14800021E-18 -2.36904342E-04 -2.37595110E-02  4.23926642E-02  5.57731674E-04
  3.35513061E-18 -4.15494483E-02 -5.59565558E-01  7.65584294E-01 -8.05221253E-02
  2.37763367E-16 -2.91829195E-02 -4.70863801E-01  5.28450721E-01 -4.06276913E-01
  8.49960021E-16 -1.11571403E-04 -1.64867500E-02  2.25683906E-02 -2.04822993E-02
  4.24232416E-17 -6.48684991E-07 -8.07726097E-04  1.56098824E-03 -8.62334808E-04
  1.85014004E-18 -8.15628630E-03 -1.69077379E+00 -4.76335867E-03 -4.26957129E-05
 -1.71692054E-01 -1.62266039E+00  6.29413028E-01 -1.91712127E+00  3.81524643E-15
 -1.69481295E+00 -6.78972485E+00 -1.80187346E+00 -5.77018325E+00  1.10955489E-14
 -2.24065190E-01 -1.93982751E+00 -1.20972873E+01 -4.22074603E-06 -7.90837694E-01
 -1.29870948E+00 -2.64075060E-01  3.80240956E-16  0.00000000E+00 -3.42242388E-02
 -7.90322462E-02  2.39758149E-02 -5.51769294E-17  0.00000000E+00 -7.19997975E-05
 -2.58455171E-04  3.12390861E-05 -8.81981176E-20  0.00000000E+00 -3.33807450E-06
 -1.33522931E-05 -2.72072985E-06  3.92052220E-21  0.00000000E+00 -7.23803115E-05
 -2.26773165E-04 -1.30534282E-04  2.31498217E-19  0.00000000E+00 -3.43910603E-02
 -6.36423119E-02 -5.32073584E-02  9.73811242E-17 -3.02295604E-02 -6.25829188E-06
 -6.30063627E-06 -3.04183830E-02  0.00000000E+00  0.00000000E+00  0.00000000E+00
  0.00000000E+00  0.00000000E+00  0.00000000E+00  0.00000000E+00  0.00000000E+00
  0.00000000E+00  0.00000000E+00  0.00000000E+00  0.00000000E+00  0.00000000E+00
 -2.99449455E+01 -8.50203306E-01 -5.37968563E+00 -5.78131551E+00 -1.12637836E+00
  1.59650690E-15 -3.59414627E-02 -8.29438228E-01 -1.17459724E+00  4.17219453E-01
 -9.39123513E-16 -7.61998656E-05 -3.02944270E-02 -5.89755267E-02  7.99443822E-03
 -2.18193704E-17 -3.59057085E-06 -6.06455595E-03 -1.29961660E-02 -2.64276065E-03
  3.80538922E-18 -7.60317283E-05 -3.05793862E-02 -5.17372783E-02 -3.06360758E-02
  5.44878873E-17 -3.61855596E-02 -8.47566205E-01 -9.46087052E-01 -8.54080065E-01
  1.57107097E-15 -4.79997570E-01 -3.01357562E-03 -3.05620116E-03 -5.05423455E-01
  0.00000000E+00 -1.21889059E-05 -3.46106187E-05 -7.06183352E-06  1.01808122E-20
  0.00000000E+00  0.00000000E+00  0.00000000E+00  0.00000000E+00  0.00000000E+00
 -5.12341280E-06  0.00000000E+00 -3.58736326E-06 -7.30399872E+00 -1.68594268E+01
  1.39661100E+00  6.04632258E+00  5.19584192E+00  1.58543730E+00 -2.27467953E-15
  8.30843801E-02  1.22495431E+00  1.56145384E+00 -6.62815894E-01  1.49170093E-15
  2.73620373E-04  5.98553909E-02  1.10254716E-01 -1.58469775E-02  4.34692900E-17
  1.43701269E-05  1.29196271E-02  2.61842772E-02  5.71706525E-03 -8.25652602E-18
  2.38333270E-04  5.29930856E-02  8.27288779E-02  5.43312591E-02 -9.66536003E-17
  6.70730779E-02  1.01637404E+00  8.97052847E-01  1.10944171E+00 -2.04327792E-15
  5.50711269E-01  6.05877707E-03  5.02157358E-03  3.47307247E-01  0.00000000E+00
  3.46106187E-05  9.43780151E-05  2.00453881E-05 -2.89475794E-20  0.00000000E+00
  0.00000000E+00  0.00000000E+00  0.00000000E+00  0.00000000E+00  1.30993506E-05
  0.00000000E+00  9.83558626E-06  5.86573164E-02  7.06677945E-01 -1.61922606E+01
  2.85273630E-01  1.30559040E+00  1.72275722E+00 -2.41770007E+00 -3.31001711E-16
 -2.50263122E-02 -3.11571403E-01 -4.88728453E-01 -1.50335731E-01 -3.48445489E-16
 -3.28009761E-05 -6.21725633E-03 -1.21639336E-02 -7.83858899E-03 -3.01247263E-18
  2.93112495E-06  2.64505005E-03  5.75618693E-03 -7.37938393E-04 -1.27389593E-18
  1.37050972E-04  2.95694110E-02  5.12955771E-02  2.06273275E-02 -5.21876854E-17
  5.59560090E-02  7.94022297E-01  9.72932341E-01  5.43979048E-01 -1.56479977E-15
 -4.14699638E-01 -1.53519669E-03  3.85165337E-03  6.37301976E-01  0.00000000E+00
  7.06183352E-06  2.00453881E-05  2.54743501E-07 -5.04654443E-21  0.00000000E+00
  0.00000000E+00  0.00000000E+00  0.00000000E+00  0.00000000E+00  4.90226497E-06
  0.00000000E+00 -1.22417130E-06  6.17412322E-02  7.11930924E-01  1.40626512E-01
 -1.58558886E+01 -4.11430887E-16 -1.91919254E-15 -2.54323063E-15 -3.45402922E-16
 -2.67933713E+00  5.76563063E-17  7.37792948E-16  1.15124506E-15 -3.66702636E-16
 -3.02300199E-01  9.28430707E-20  1.84360809E-17  3.62665078E-17 -3.39872608E-18
 -8.72667740E-03 -4.22523980E-21 -3.81789339E-18 -8.33303474E-18 -1.27799876E-18
 -1.69800653E-03 -2.43030300E-19 -5.22701528E-17 -9.07168378E-17 -5.18693230E-17
 -8.80888508E-03 -1.02396754E-16 -1.44624715E-15 -1.77631199E-15 -1.55048357E-15
 -3.08333919E-01  8.68766549E-16  3.63772779E-18 -7.00589545E-18 -1.20992279E-15
  0.00000000E+00 -1.01808122E-20 -2.89475794E-20 -5.04654443E-21 -3.40068354E-06
  0.00000000E+00  0.00000000E+00  0.00000000E+00  0.00000000E+00  0.00000000E+00
 -8.21339052E-21  0.00000000E+00  3.42555475E-21 -1.14593275E-16 -1.31818321E-15
 -3.60363067E-16  9.48423683E-16 -1.53784664E+01  0.00000000E+00 -3.58053011E-02
 -8.26341154E-02  2.17699757E-02 -5.12407978E-17  0.00000000E+00 -1.01862171E-04
 -3.23004742E-04  1.62136665E-04 -3.50958835E-19  0.00000000E+00 -1.26415511E-08
 -5.82263521E-08  1.73410084E-08 -4.00195170E-23  0.00000000E+00  0.00000000E+00
  0.00000000E+00  0.00000000E+00  0.00000000E+00  0.00000000E+00 -2.77596777E-06
 -1.10973710E-05 -2.51736485E-06  3.75929079E-21  0.00000000E+00 -5.85729280E-03
 -1.59436033E-02 -3.78859638E-03  5.73714665E-18 -1.56373702E-04  0.00000000E+00
 -1.08899622E-06 -4.15053479E-02  0.00000000E+00  0.00000000E+00  0.00000000E+00
  0.00000000E+00  0.00000000E+00  0.00000000E+00  0.00000000E+00  0.00000000E+00
  0.00000000E+00  0.00000000E+00  0.00000000E+00  0.00000000E+00  0.00000000E+00
 -1.59627713E-04 -1.25202959E+00 -1.44658385E+00  1.48865523E+00 -3.06301196E-15
 -2.81614305E+01 -4.05834055E-02 -8.56353510E-01 -1.23090616E+00  3.03671568E-01
 -7.22967748E-16 -1.12249878E-04 -3.53489528E-02 -6.07114866E-02  3.16634322E-02
 -6.82899354E-17 -1.36691158E-08 -6.61034267E-04 -1.53770519E-03  4.69541908E-04
 -1.07952883E-18  0.00000000E+00 -2.57640586E-04 -6.54785714E-04  6.92512102E-06
 -8.22128091E-20 -3.07450096E-06 -5.04556425E-03 -1.05273368E-02 -2.63998929E-03
  4.05888397E-18 -6.49986043E-03 -2.87778225E-01 -4.54940338E-01 -1.25450172E-01
  1.97626750E-16 -1.95432443E-02 -4.24065523E-05 -9.70491978E-04 -5.73946157E-01
  0.00000000E+00  0.00000000E+00  0.00000000E+00  0.00000000E+00  0.00000000E+00
  0.00000000E+00  0.00000000E+00  0.00000000E+00  0.00000000E+00  0.00000000E+00
  0.00000000E+00  0.00000000E+00  0.00000000E+00 -1.32346326E+00 -6.58668188E+00
 -4.43325914E+00  4.93413174E+00 -1.01144160E-14 -6.86104067E+00 -1.50690811E+01
  9.38636426E-02  1.25742226E+00  1.62968716E+00 -4.92099397E-01  1.16605567E-15
  3.56496489E-04  6.23470134E-02  9.85699880E-02 -5.77425105E-02  1.24342176E-16
  6.29975458E-08  1.56642759E-03  3.46246283E-03 -1.11737949E-03  2.56717895E-18
  0.00000000E+00  6.64736803E-04  1.61832027E-03 -2.00017303E-05  2.16194495E-19
  1.23023107E-05  1.10096351E-02  2.17038085E-02  5.81399577E-03 -8.94357358E-18
  1.77258951E-02  4.72408370E-01  6.88826642E-01  2.17742187E-01 -3.43259056E-16
  2.72379849E-02  1.00184450E-04  1.98382746E-03  6.85504903E-01  0.00000000E+00
  0.00000000E+00  0.00000000E+00  0.00000000E+00  0.00000000E+00  0.00000000E+00
  0.00000000E+00  0.00000000E+00  0.00000000E+00  0.00000000E+00  0.00000000E+00
  0.00000000E+00  0.00000000E+00  1.53311643E+00  5.04239323E+00  6.99392376E-01
 -4.78314158E+00  9.80169669E-15  1.02089480E-01  1.18093414E+00 -1.42658221E+01
 -2.47308823E-02 -3.57767454E-01 -5.60857818E-01 -1.94145591E-01 -2.90142822E-16
 -1.78617302E-04 -3.03342954E-02 -5.39984545E-02  1.73058345E-02 -5.96483707E-17
 -1.87579847E-08 -4.55100629E-04 -1.06397122E-03  1.32057635E-04 -7.21242083E-19
  0.00000000E+00 -1.47078633E-05 -3.97303989E-05 -7.83181633E-05  1.17658336E-20
  2.77575600E-06  2.23099370E-03  4.69997420E-03 -3.80801830E-04 -1.56838044E-18
  4.18024907E-03  9.43893874E-02  1.60728569E-01 -6.23429420E-02 -5.38737773E-17
 -2.32923018E-02 -3.92517167E-05  7.83815793E-04  4.28571941E-01  0.00000000E+00
  0.00000000E+00  0.00000000E+00  0.00000000E+00  0.00000000E+00  0.00000000E+00
  0.00000000E+00  0.00000000E+00  0.00000000E+00  0.00000000E+00  0.00000000E+00
  0.00000000E+00  0.00000000E+00 -1.56963666E+00 -4.84191208E+00 -4.27151042E+00
  1.05018144E+00 -9.47883599E-15 -4.52465222E-02 -5.17119227E-01  2.21026196E-01
 -1.41092156E+01  5.82090041E-17  8.31541752E-16  1.30052377E-15 -2.82931890E-16
 -3.12429810E-01  3.86701756E-19  6.58621189E-17  1.17020075E-16 -6.00410228E-17
 -1.02988425E-02  4.32910125E-23  1.05429881E-18  2.46273053E-18 -7.26843191E-19
 -1.79683524E-04  0.00000000E+00  9.84768130E-20  2.54777066E-19  1.38348469E-20
 -7.01712996E-05 -4.13824991E-21 -3.20844730E-18 -6.76492595E-18 -1.45154918E-18
 -1.43481055E-03 -6.31617116E-18 -1.35050478E-16 -2.31759794E-16 -4.78945635E-17
 -9.85097234E-02  4.84083680E-17  8.72697065E-20 -1.32482654E-18 -7.66249826E-16
  0.00000000E+00  0.00000000E+00  0.00000000E+00  0.00000000E+00  0.00000000E+00
  0.00000000E+00  0.00000000E+00  0.00000000E+00  0.00000000E+00  0.00000000E+00
  0.00000000E+00  0.00000000E+00  0.00000000E+00  3.23045909E-15  9.99794771E-15
  8.80112001E-15 -9.53249250E-15 -3.56762902E+00  9.91932957E-17  1.13515810E-15
 -4.93196049E-16  8.53381493E-16 -1.36847033E+01 -1.42242927E-01 -1.42436683E+00
 -1.43105972E+00 -1.06866887E+00  1.93987301E-15 -3.58607010E-02 -5.27509531E-01
 -7.38266728E-01 -4.82959518E-02  1.70259032E-17 -1.50204288E-04 -1.91022901E-02
 -3.46071300E-02 -4.18951299E-03  4.56389517E-18 -2.46118902E-06 -1.74834755E-03
 -3.41997643E-03 -1.45981231E-03  2.49623213E-18 -9.20708033E-06 -3.88917089E-03
 -6.05283692E-03 -5.10939362E-03  9.35745585E-18 -2.20717918E-03 -1.00708981E-01
 -1.02434777E-01 -1.31911843E-01  2.47232051E-16 -7.40991878E-01 -3.46032128E-03
 -2.95997829E-04 -4.81124749E-02  0.00000000E+00 -5.12341280E-06 -1.30993506E-05
 -4.90226497E-06  8.21339052E-21  0.00000000E+00  0.00000000E+00  0.00000000E+00
  0.00000000E+00  0.00000000E+00 -1.17447639E-06  0.00000000E+00 -5.33311854E-06
 -1.79792367E+00 -7.28769711E+00 -1.19169084E+00 -6.16193695E+00  1.19256780E-14
 -1.61797394E-01 -1.55154743E+00  7.60292203E-01 -1.82033400E+00  3.63968916E-15
 -1.25095684E+01 -1.80582954E-03 -8.14193782E-02 -1.34427272E-01  1.52894668E-02
 -4.39988508E-17 -7.97265928E-06 -3.19927078E-03 -6.14916132E-03  2.19121762E-03
 -4.93016070E-18  0.00000000E+00 -3.75946584E-05 -9.23668188E-05  2.01141330E-05
 -4.90232344E-20  0.00000000E+00 -1.00878155E-05 -2.66221774E-05 -7.40172843E-07
 -1.34443258E-21 -8.53895283E-08 -2.14818365E-04 -4.80540853E-04 -1.18891355E-04
  1.82115120E-19 -1.81191874E-04 -1.89986001E-02 -3.36340254E-02 -8.87619997E-03
  1.38315151E-17 -3.13144467E-03 -2.93512669E-06 -4.55981867E-05 -5.96132490E-02
  0.00000000E+00  0.00000000E+00  0.00000000E+00  0.00000000E+00  0.00000000E+00
  0.00000000E+00  0.00000000E+00  0.00000000E+00  0.00000000E+00  0.00000000E+00
  0.00000000E+00  0.00000000E+00  0.00000000E+00 -1.70887973E-01 -1.50541390E+00
 -1.69395760E+00  7.28676116E-01 -1.60269401E-15 -1.68723810E+00 -6.36446979E+00
 -5.22353381E+00 -1.27075834E+00  1.93736155E-15 -6.24408087E-01 -1.06469567E+01
 -2.91829195E-02 -4.70863801E-01 -5.28450721E-01  4.06276913E-01 -8.49960021E-16
 -1.11571403E-04 -1.64867500E-02 -2.25683906E-02  2.04822993E-02 -4.24232416E-17
 -6.48684991E-07 -8.07726097E-04 -1.56098824E-03  8.62334808E-04 -1.85014004E-18
 -9.61475121E-07 -9.89975317E-04 -2.10146571E-03  4.74321814E-04 -1.14800021E-18
 -2.36904342E-04 -2.37595110E-02 -4.23926642E-02 -5.57731674E-04 -3.35513061E-18
 -4.15494483E-02 -5.59565558E-01 -7.65584294E-01  8.05221253E-02 -2.37763367E-16
 -4.76335867E-03 -4.26957129E-05 -8.15628630E-03 -1.69077379E+00  0.00000000E+00
 -3.58736326E-06 -9.83558626E-06  1.22417130E-06 -3.42555475E-21  0.00000000E+00
  0.00000000E+00  0.00000000E+00  0.00000000E+00  0.00000000E+00 -5.33311854E-06
  0.00000000E+00  0.00000000E+00 -1.71692054E-01 -1.62266039E+00 -6.29413028E-01
  1.91712127E+00 -3.81524643E-15 -1.69481295E+00 -6.78972485E+00  1.80187346E+00
  5.77018325E+00 -1.10955489E-14 -2.24065190E-01 -1.93982751E+00 -1.20972873E+01
Multipole Matrix (1,0,0)                   R   N=        1830
  2.58290277E+00  6.41495906E-01  2.58290277E+00  7.18554879E-02  8.38743577E-01
  2.58290277E+00  0.00000000E+00  0.00000000E+00  0.00000000E+00  2.58290277E+00
  0.00000000E+00  0.00000000E+00  0.00000000E+00  0.00000000E+00  2.58290277E+00
  1.58656742E-06  3.50872644E-02 -3.71090837E-02  4.47825422E-02 -9.17401888E-17
  8.34595104E-01  9.46010014E-02  6.27232808E-01 -1.92166282E-01  5.21471936E-01
 -1.06827195E-15  2.07282035E-01  8.34595104E-01  1.05468915E-01  6.90854566E-01
 -4.07874774E-02  6.72585448E-01 -1.37783861E-15  7.18554879E-02  8.38743577E-01
  8.34595104E-01 -1.16154001E-01 -4.75247920E-01  2.48490746E-01 -1.52622059E-01
  1.06492396E-15  0.00000000E+00  0.00000000E+00  0.00000000E+00  8.34595104E-01
  2.37949643E-16  9.73578804E-16 -5.09050778E-16  1.06492396E-15  3.67215572E-01
  0.00000000E+00  0.00000000E+00  0.00000000E+00  0.00000000E+00  8.34595104E-01
  0.00000000E+00 -2.85125773E-03  6.33232273E-03 -2.08135908E-03  4.72389660E-18
 -4.27329792E-07 -6.13470994E-02  9.98176832E-02  1.98385127E-02 -2.85985355E-17
 -1.74784262E+00  4.38991924E-03  2.55845094E-02 -4.75242710E-03  1.50903675E-02
 -3.42494172E-17  2.66536745E-02 -1.67716281E-01  3.99685289E-01  2.64554594E-02
 -3.81373043E-17 -4.34098371E-01 -1.74784262E+00  9.69228676E-03  6.66448194E-02
 -4.42840727E-02  3.69326577E-02 -8.38231411E-17  4.34607042E-02  5.08799536E-02
  1.39911272E-01 -8.07651988E-03  1.16428406E-17  7.18554879E-02  8.38743577E-01
 -1.74784262E+00 -3.20369909E-03 -8.75869313E-03 -1.89919193E-04  4.57788726E-03
  1.39278702E-17  8.34187262E-03 -4.46996925E-02  1.05228255E-01 -8.83002104E-02
 -1.42849419E-17  0.00000000E+00  0.00000000E+00  0.00000000E+00 -1.74784262E+00
  7.27118321E-18  1.98789152E-17  4.31044618E-19  1.39278702E-17  1.07145371E-02
 -1.20253642E-17  6.44375796E-17 -1.51693528E-16 -1.42849419E-17 -9.82095291E-02
  0.00000000E+00  0.00000000E+00  0.00000000E+00  0.00000000E+00 -1.74784262E+00
  0.00000000E+00 -9.88857714E-04  2.59640750E-03  5.24759722E-04 -7.56421793E-19
  0.00000000E+00 -4.47340542E-03  7.81302411E-03  6.83045071E-03 -1.25493020E-17
 -2.01981449E-06 -9.64455135E-02  5.29698219E-02  1.50908274E-01 -2.89839390E-16
 -2.58290277E+00  9.88857714E-04  0.00000000E+00  1.29168224E-02 -8.05640677E-04
  1.16130133E-18  1.24796945E-03 -5.36035304E-02  9.35716652E-02  4.70480353E-02
 -8.64393912E-17 -6.80019513E-02 -7.95130716E-01  5.32601897E-01  7.86467854E-01
 -1.51051600E-15 -6.41495906E-01 -2.58290277E+00  2.59640750E-03  1.29168224E-02
  1.73472348E-18 -5.36680554E-03  7.73605234E-18  2.25491362E-03 -2.44788076E-02
  4.93156320E-02  2.46954703E-02 -4.53719566E-17 -3.33993338E-02 -2.10029019E-03
 -3.47542352E-01  8.45891186E-02 -1.62464640E-16  7.18554879E-02  8.38743577E-01
 -2.58290277E+00  5.24759722E-04 -8.05640677E-04  5.36680554E-03  2.16840434E-19
 -3.85185989E-34  1.90740457E-03 -5.75141042E-02  1.02436858E-01  3.38526993E-02
 -1.03443437E-16 -1.07685001E-01 -8.14455400E-01  6.22146390E-01  5.92433699E-01
 -2.03202863E-15  0.00000000E+00  0.00000000E+00  0.00000000E+00 -2.58290277E+00
 -7.56421793E-19  1.16130133E-18 -7.73605234E-18  5.77778983E-34  0.00000000E+00
 -3.50439479E-18  1.05668263E-16 -1.88202963E-16 -1.03443437E-16 -2.24504562E-02
  2.06823351E-16  1.56426980E-15 -1.19491480E-15 -2.03202863E-15 -4.65565818E-01
  0.00000000E+00  0.00000000E+00  0.00000000E+00  0.00000000E+00 -2.58290277E+00
  0.00000000E+00 -1.24796945E-03  2.25491362E-03  1.90740457E-03 -3.50439479E-18
  0.00000000E+00 -3.19862524E-04  2.92441775E-04  8.05609511E-04 -1.54729593E-18
  0.00000000E+00 -1.61589783E-03 -6.42545799E-04  3.64401864E-03 -7.20447647E-18
 -1.58656742E-06 -3.50872644E-02 -3.71090837E-02  4.47825422E-02 -9.17401888E-17
 -8.34595104E-01  4.47340542E-03  5.36035304E-02 -2.44788076E-02 -5.75141042E-02
  1.05668263E-16  3.19862524E-04  2.80443751E-18  1.64645639E-02 -1.23659119E-03
  2.37506198E-18 -3.14309400E-03 -7.91268459E-02  1.67233206E-02  1.16115596E-01
 -2.29568552E-16 -9.46010014E-02 -6.27232808E-01 -1.92166282E-01  5.21471936E-01
 -1.06827195E-15 -2.07282035E-01 -8.34595104E-01  7.81302411E-03  9.35716652E-02
 -4.93156320E-02 -1.02436858E-01  1.88202963E-16  2.92441775E-04  1.64645639E-02
  1.59867358E-18 -2.54878022E-02  4.89532115E-17  1.54890903E-03  6.32880136E-02
 -2.55737384E-02 -9.44590472E-02  1.86752059E-16  1.05468915E-01  6.90854566E-01
  4.07874774E-02 -6.72585448E-01  1.37783861E-15  7.18554879E-02  8.38743577E-01
 -8.34595104E-01  6.83045071E-03  4.70480353E-02 -2.46954703E-02 -3.38526993E-02
  1.03443437E-16  8.05609511E-04 -1.23659119E-03  2.54878022E-02 -5.27666773E-18
  1.75397403E-32 -7.09103458E-03 -1.11986051E-01  2.03521846E-02  1.48371984E-01
 -3.58857434E-16 -1.16154001E-01 -4.75247920E-01 -2.48490746E-01  1.52622059E-01
 -1.06492396E-15  0.00000000E+00  0.00000000E+00  0.00000000E+00 -8.34595104E-01
 -1.25493020E-17 -8.64393912E-17  4.53719566E-17  1.03443437E-16  2.24504562E-02
 -1.54729593E-18  2.37506198E-18 -4.89532115E-17  1.44582524E-32  1.10230514E-18
  1.40194650E-17  2.21404156E-16 -4.02376743E-17 -3.58857434E-16 -3.31378296E-02
  2.37949643E-16  9.73578804E-16  5.09050778E-16 -1.06492396E-15 -3.67215572E-01
  0.00000000E+00  0.00000000E+00  0.00000000E+00  0.00000000E+00 -8.34595104E-01
  2.01981449E-06  6.80019513E-02 -3.33993338E-02 -1.07685001E-01  2.06823351E-16
  0.00000000E+00  3.14309400E-03  1.54890903E-03 -7.09103458E-03  1.40194650E-17
  0.00000000E+00  6.68928473E-04  1.20127088E-03 -1.32978029E-03  2.72411633E-18
  0.00000000E+00  2.85125773E-03  6.33232273E-03 -2.08135908E-03  4.72389660E-18
  4.27329792E-07  6.13470994E-02  9.98176832E-02  1.98385127E-02 -2.85985355E-17
  1.74784262E+00  9.64455135E-02  7.95130716E-01 -2.10029019E-03 -8.14455400E-01
  1.56426980E-15  1.61589783E-03  7.91268459E-02  6.32880136E-02 -1.11986051E-01
  2.21404156E-16 -6.68928473E-04  1.18609723E-17  1.50552396E-02  2.04167344E-03
 -4.18246230E-18 -4.38991924E-03 -2.55845094E-02 -4.75242710E-03  1.50903675E-02
 -3.42494172E-17 -2.66536745E-02  1.67716281E-01  3.99685289E-01  2.64554594E-02
 -3.81373043E-17  4.34098371E-01  1.74784262E+00  5.29698219E-02  5.32601897E-01
  3.47542352E-01 -6.22146390E-01  1.19491480E-15 -6.42545799E-04  1.67233206E-02
  2.55737384E-02 -2.03521846E-02  4.02376743E-17  1.20127088E-03  1.50552396E-02
 -3.76606084E-18 -2.01001255E-02  4.11760350E-17  9.69228676E-03  6.66448194E-02
  4.42840727E-02 -3.69326577E-02  8.38231411E-17  4.34607042E-02  5.08799536E-02
 -1.39911272E-01  8.07651988E-03 -1.16428406E-17  7.18554879E-02  8.38743577E-01
  1.74784262E+00  1.50908274E-01  7.86467854E-01 -8.45891186E-02 -5.92433699E-01
  2.03202863E-15  3.64401864E-03  1.16115596E-01  9.44590472E-02 -1.48371984E-01
  3.58857434E-16 -1.32978029E-03  2.04167344E-03  2.01001255E-02 -1.54551319E-17
  4.05205631E-32 -3.20369909E-03 -8.75869313E-03  1.89919193E-04 -4.57788726E-03
 -1.39278702E-17  8.34187262E-03 -4.46996925E-02 -1.05228255E-01  8.83002104E-02
  1.42849419E-17  0.00000000E+00  0.00000000E+00  0.00000000E+00  1.74784262E+00
 -2.89839390E-16 -1.51051600E-15  1.62464640E-16  2.03202863E-15  4.65565818E-01
 -7.20447647E-18 -2.29568552E-16 -1.86752059E-16  3.58857434E-16  3.31378296E-02
  2.72411633E-18 -4.18246230E-18 -4.11760350E-17  4.05205631E-32  4.62377327E-18
  7.27118321E-18  1.98789152E-17 -4.31044618E-19 -1.39278702E-17 -1.07145371E-02
 -1.20253642E-17  6.44375796E-17  1.51693528E-16  1.42849419E-17  9.82095291E-02
  0.00000000E+00  0.00000000E+00  0.00000000E+00  0.00000000E+00  1.74784262E+00
  1.34612954E-02  1.97612727E-01  5.56946589E-04  2.47114221E-01 -4.90430563E-16
  5.33542400E-02  5.72445131E-01  5.21623737E-01  5.15250144E-01 -9.89594301E-16
 -8.64246305E-03 -2.04664052E-02  4.58651770E-02 -1.76985075E-02  3.22036838E-17
 -2.24169493E-04 -5.27903625E-03 -1.16062552E-03 -7.08245782E-03  1.32450967E-17
 -9.13385376E-06  3.03064580E-04  1.45548463E-03  4.61022675E-04 -8.85458748E-19
  1.59920382E-04  1.05607024E-02  3.92274422E-03  1.75193182E-02 -3.43344015E-17
  1.49330241E+00  2.18452977E-04  7.20097021E-04  3.07513898E-03  8.07863005E-04
 -1.74102438E-18  3.67468347E-03 -9.93845514E-02  1.90211925E-01 -3.15238752E-02
  7.43801258E-17 -1.11724777E-01 -1.19845986E+00  1.10369859E+00 -8.51291550E-01
  1.74394218E-15 -1.37715980E-02 -2.71534488E-01  1.15380865E-01 -3.47563790E-01
  6.84597751E-16 -8.43002803E-05 -1.17747889E-02  1.14716351E-02 -1.80451376E-02
  3.60094073E-17  1.90981704E-05 -6.32988556E-04  1.97330730E-03 -7.59844535E-04
  1.55658472E-18 -4.08226103E-02 -3.12599029E+00  2.24169493E-04  5.27903625E-03
 -1.16062552E-03 -7.08245782E-03  1.32450967E-17  9.13385376E-06 -3.03064580E-04
  1.45548463E-03  4.61022675E-04 -8.85458748E-19 -1.59920382E-04 -1.05607024E-02
  3.92274422E-03  1.75193182E-02 -3.43344015E-17 -1.34612954E-02 -1.97612727E-01
  5.56946589E-04  2.47114221E-01 -4.90430563E-16 -5.33542400E-02 -5.72445131E-01
  5.21623737E-01  5.15250144E-01 -9.89594301E-16  8.64246305E-03  2.04664052E-02
  4.58651770E-02 -1.76985075E-02  3.22036838E-17  2.50251936E-20 -1.75911235E-03
 -1.49330241E+00  1.37715980E-02  2.71534488E-01  1.15380865E-01 -3.47563790E-01
  6.84597751E-16  8.43002803E-05  1.17747889E-02  1.14716351E-02 -1.80451376E-02
  3.60094073E-17 -1.90981704E-05  6.32988556E-04  1.97330730E-03 -7.59844535E-04
  1.55658472E-18 -2.18452977E-04 -7.20097021E-04  3.07513898E-03  8.07863005E-04
 -1.74102438E-18 -3.67468347E-03  9.93845514E-02  1.90211925E-01 -3.15238752E-02
  7.43801258E-17  1.11724777E-01  1.19845986E+00  1.10369859E+00 -8.51291550E-01
  1.74394218E-15  1.75911235E-03 -3.38813179E-21  4.08226103E-02  3.12599029E+00
  0.00000000E+00 -5.37393433E-07  2.16845810E-06  4.41097438E-07 -6.35886652E-22
  0.00000000E+00 -1.20423679E-05  3.80614021E-05  2.18329798E-05 -3.87205410E-20
  0.00000000E+00 -6.02479246E-03  1.12543790E-02  9.35630558E-03 -1.71240923E-17
 -2.54022020E-07 -1.40781812E-01  2.31715442E-01  4.69589659E-02 -6.77078539E-17
  0.00000000E+00 -5.97195831E-03  1.39049300E-02 -4.18674872E-03  9.63949671E-18
  0.00000000E+00 -1.19207539E-05  4.31500265E-05 -5.17763945E-06  1.46367328E-20
 -1.06172068E-06 -5.44597488E-03 -5.38624638E-03 -1.04785515E-06 -5.43458912E+00
  2.32988997E-07 -4.18096537E-04  1.06581924E-03  1.81614001E-04 -2.61814985E-19
  1.24078639E-06 -3.51502941E-03  6.90421525E-03  3.44196088E-03 -6.10427843E-18
 -2.19672518E-03 -1.67183604E-01  2.20387244E-01  1.58864938E-01 -2.90757697E-16
 -7.23903487E-02 -1.19658586E+00  1.49702117E+00  2.61528188E-01 -3.77084802E-16
 -1.19905720E-03 -1.45866174E-01  2.35052151E-01 -6.19154222E-02  1.42552980E-16
  3.27586861E-06 -2.81504229E-03  6.37765524E-03 -6.56388227E-04  1.85555198E-18
 -3.89218618E-04 -1.34106401E-01 -1.11751180E-01 -2.78267160E-04 -1.34974754E+00
 -5.43458912E+00  9.44382576E-07 -7.37026842E-04  1.83461768E-03  3.24523533E-04
 -4.67833555E-19  4.05890769E-06 -5.21945657E-03  9.57616844E-03  5.26845325E-03
 -9.34354184E-18 -4.01358518E-03 -1.68878987E-01  1.79965022E-01  1.78126058E-01
 -3.26009773E-16 -1.18538110E-01 -1.14527881E+00  1.18249716E+00  3.27980633E-01
 -4.72899357E-16 -2.71094879E-03 -1.88697364E-01  2.77454086E-01 -8.86994659E-02
  2.04220092E-16  1.19724103E-05 -4.74591473E-03  1.03587263E-02 -1.13995189E-03
  3.22254406E-18 -5.28211435E-04 -6.59167846E-02 -1.03659837E-01 -4.58591855E-04
  7.18554879E-02  8.38743577E-01 -5.43458912E+00  1.91373107E-07 -1.86185635E-04
  4.78974992E-04 -5.26784441E-05 -1.18155218E-19  2.25825432E-06 -3.53745493E-03
  7.10432335E-03  2.39144472E-03 -6.31612158E-18 -3.40831820E-03 -1.66577075E-01
  2.36486855E-01  1.05318981E-01 -3.17207084E-16 -2.45312443E-02 -2.77791341E-01
  4.23615949E-01 -5.81955493E-01 -1.10595982E-16  8.39073036E-04  6.62565244E-02
 -1.15032168E-01 -2.85132266E-02 -7.09397578E-17 -1.42476080E-06  6.82566231E-04
 -1.57939205E-03 -7.73292542E-04 -4.62666548E-19 -5.13013612E-04 -1.76780991E-01
  1.07267826E-01  1.60348077E-04  0.00000000E+00  0.00000000E+00  0.00000000E+00
 -5.43458912E+00 -2.75883725E-22  2.68405458E-19 -6.90490983E-19 -1.18155218E-19
 -1.34639535E-04 -4.00498831E-21  6.27363604E-18 -1.25994366E-17 -6.31612158E-18
 -1.16996612E-03  6.23797022E-18  3.04872600E-16 -4.32822839E-16 -3.17207084E-16
 -6.79974404E-02  3.53704106E-17  4.00533853E-16 -6.10791278E-16 -1.10595982E-16
 -6.58659637E-01 -1.93186702E-18 -1.52547858E-16  2.64848043E-16 -7.09397578E-17
 -5.93246838E-02  4.02767390E-21 -1.92955490E-18  4.46480287E-18 -4.62666548E-19
 -9.36957521E-04  9.36482144E-19  3.36494589E-16 -2.22966329E-16 -3.73074407E-19
  0.00000000E+00  0.00000000E+00  0.00000000E+00  0.00000000E+00 -5.43458912E+00
  0.00000000E+00  0.00000000E+00  0.00000000E+00  0.00000000E+00  0.00000000E+00
  0.00000000E+00 -6.36804337E-07  2.56705207E-06  5.79508737E-07 -8.64690833E-22
  0.00000000E+00 -1.42505021E-03  3.90860699E-03  9.22867321E-04 -1.39611341E-18
  0.00000000E+00 -8.80325476E-03  2.04734316E-02 -5.38200458E-03  1.26651871E-17
  0.00000000E+00 -2.40080792E-05  7.67633812E-05 -3.84343597E-05  8.31938045E-20
  0.00000000E+00 -2.09160368E-09  9.70914916E-09 -2.89016251E-09  6.66981762E-24
 -2.56883589E-07 -1.04241352E-02 -3.79823498E-05  0.00000000E+00 -1.92401648E-05
 -3.17084201E-01  3.68591062E-01 -3.75330158E-01  7.72340230E-16 -7.18244858E+00
  0.00000000E+00 -2.81505994E-05  7.99827500E-05 -1.18858244E-06  9.94906894E-21
  4.07545240E-08 -8.69358437E-04  2.02697232E-03  4.21482303E-04 -6.28897996E-19
 -4.12307618E-04 -7.86371470E-02  1.36136466E-01  2.96041113E-02 -4.47850909E-17
 -3.53240312E-03 -2.40559184E-01  3.75202811E-01 -9.04730739E-02  2.12905506E-16
 -3.99488962E-06 -7.58523421E-03  1.43338770E-02 -6.61930846E-03  1.43279466E-17
  4.76980731E-10 -8.63684480E-05  2.23283672E-04 -6.08678825E-05  1.40468805E-19
 -1.98499481E-04 -2.09883853E-01 -5.37179796E-03 -5.71467817E-06 -2.47203985E-01
 -2.54090222E+00  2.09775069E+00 -1.84803893E+00  3.80282475E-15 -1.78385010E+00
 -7.18244858E+00  0.00000000E+00 -6.56901994E-05  1.80105106E-04 -2.78155027E-06
  2.32830593E-20  1.70450415E-07 -1.71921893E-03  3.80783583E-03  8.44843603E-04
 -1.26059966E-18 -1.11445710E-03 -1.18709151E-01  1.91316440E-01  4.80332171E-02
 -7.26646367E-17 -8.11121856E-03 -3.26374163E-01  4.62325814E-01 -1.35681359E-01
  3.19291774E-16 -1.25074415E-05 -1.22721496E-02  2.15037470E-02 -1.10605929E-02
  2.39414112E-17  2.21857019E-09 -1.86399610E-04  4.60696133E-04 -1.31984118E-04
  3.04588407E-19 -3.62306307E-04 -2.18932687E-01 -6.64965175E-03 -1.21045757E-05
 -2.84534062E-01 -1.54801727E+00  2.17717089E-01 -1.58159196E+00  3.25454023E-15
  7.18554879E-02  8.38743577E-01 -7.18244858E+00  0.00000000E+00  1.19294903E-06
 -3.39741690E-06 -8.82118141E-06 -4.22781946E-22  3.73022977E-08 -4.26054885E-04
  1.00468624E-03 -7.04904851E-05 -3.12177093E-19 -2.66640457E-04 -3.07456748E-02
  5.65145911E-02 -1.70473283E-02 -1.87268588E-17  2.15790594E-03  9.45852556E-02
 -1.60133873E-01 -5.93943161E-02 -9.18102973E-17  6.38021322E-06  6.73710161E-03
 -1.30804379E-02  3.51871074E-03 -1.31161651E-17 -6.59118391E-10  6.11549257E-05
 -1.58719661E-04  1.59796246E-05 -9.99091235E-20 -1.75187599E-04 -1.73337203E-01
  6.74723008E-03  5.52736296E-06  2.95522759E-01  1.89668621E+00 -2.01833751E+00
  3.14139006E-01 -3.80443453E-15  0.00000000E+00  0.00000000E+00  0.00000000E+00
 -7.18244858E+00  0.00000000E+00 -9.98561960E-21  2.84381915E-20 -4.22781946E-22
 -8.87168977E-06 -5.56591347E-23  6.35720792E-19 -1.49910248E-18 -3.12177093E-19
 -2.79709024E-04  4.03373605E-19  4.65120478E-17 -8.54952568E-17 -1.87268588E-17
 -2.94262696E-02 -5.07808606E-18 -2.22582486E-16  3.76834584E-16 -9.18102973E-17
 -9.84086187E-02 -1.38104086E-20 -1.45829180E-17  2.83135039E-17 -1.31161651E-17
 -2.54077181E-03  1.52109075E-24 -1.41131234E-19  3.66287772E-19 -9.99091235E-20
 -2.73129540E-05  3.00491198E-19  3.13045162E-16 -1.39758282E-17 -1.22272480E-20
 -6.08115578E-16 -3.90292928E-15  4.15325873E-15 -3.80443453E-15 -1.53468222E+00
  0.00000000E+00  0.00000000E+00  0.00000000E+00  0.00000000E+00 -7.18244858E+00
  1.67919452E-07 -9.15111824E-05  2.34723168E-04  7.56988888E-05 -1.29621651E-19
  1.66375648E-07 -3.95529047E-04  7.47700567E-04  5.14102034E-04 -9.40894810E-19
 -1.31860856E-04 -1.91671676E-02  2.39597120E-02  2.46848386E-02 -4.61675712E-17
 -1.20014537E-02 -3.49632034E-01  4.20367459E-01  2.81957191E-01 -5.13707052E-16
 -1.16518780E-03 -1.03126731E-01  1.70968271E-01  1.82841930E-02 -2.03416166E-17
  6.89134414E-06 -1.58437374E-03  3.54629483E-03  4.26858160E-04 -5.38827571E-19
 -3.29542248E-05 -1.26232279E-02 -2.05139155E-01 -2.87208395E-04 -3.33788628E-01
 -2.76062520E+00  9.44985035E-01  2.56704973E+00 -4.95788034E-15 -4.12606637E-02
 -6.69923381E-01 -2.00015102E-01  8.15543748E-01 -1.62359028E-15 -5.90319098E+00
  0.00000000E+00 -1.20842307E-06  3.57417806E-06  7.01497939E-08  2.03583787E-22
  1.17682345E-09 -4.12790897E-05  1.02824383E-04  2.10122964E-05 -3.11528160E-20
 -1.15536373E-05 -5.76975443E-03  1.11222146E-02  2.34764841E-03 -3.51045005E-18
 -1.58232983E-04 -2.57637358E-02  4.62255141E-02 -5.16090013E-03  1.45870008E-17
 -2.85886262E-07 -7.86491450E-04  1.65184562E-03 -5.05948227E-04  1.14988100E-18
  0.00000000E+00 -5.52514042E-06  1.50686422E-05 -2.82881636E-06  6.98072989E-21
 -1.07383421E-05 -2.57101871E-02 -1.06505768E-03 -4.61964992E-07 -3.21945363E-02
 -7.36744987E-01  9.57834628E-01 -3.23012653E-01  7.24466568E-16 -4.46610969E-01
 -4.00872575E+00  4.09118532E+00  7.62301203E-01 -1.09845255E-15 -3.65227423E-01
 -9.21608439E+00  6.45249676E-08 -6.95664638E-05  1.80592374E-04 -3.44800813E-05
  8.28417764E-20  4.17547576E-06 -3.29418990E-03  6.86178741E-03 -1.62581111E-04
  9.36578697E-19 -2.55432571E-03 -1.45626153E-01  2.32071874E-01 -3.04309624E-02
  8.10793865E-17 -2.48006482E-03 -1.25306630E-01  1.65047583E-01 -1.13218224E-01
  2.36578071E-16 -3.67117401E-06 -2.90321648E-03  4.65409551E-03 -3.58756810E-03
  7.44075788E-18  2.82664689E-08 -7.43317464E-05  1.70514060E-04 -7.94884888E-05
  1.70519413E-19 -1.42596405E-03 -6.38790737E-01 -1.08848691E-03 -3.74384704E-06
 -3.16803363E-02 -6.15638415E-01  3.23835239E-01 -7.47551688E-01  1.48823120E-15
 -4.36930525E-01 -3.37138126E+00 -3.78045554E-01 -3.14127764E+00  6.06691740E-15
 -8.92302137E-02 -1.21232123E+00 -6.71384672E+00  2.54022020E-07  1.40781812E-01
  2.31715442E-01  4.69589659E-02 -6.77078539E-17  0.00000000E+00  5.97195831E-03
  1.39049300E-02 -4.18674872E-03  9.63949671E-18  0.00000000E+00  1.19207539E-05
  4.31500265E-05 -5.17763945E-06  1.46367328E-20  0.00000000E+00  5.37393433E-07
  2.16845810E-06  4.41097438E-07 -6.35886652E-22  0.00000000E+00  1.20423679E-05
  3.80614021E-05  2.18329798E-05 -3.87205410E-20  0.00000000E+00  6.02479246E-03
  1.12543790E-02  9.35630558E-03 -1.71240923E-17  5.38624638E-03  1.04785515E-06
  1.06172068E-06  5.44597488E-03  0.00000000E+00  0.00000000E+00  0.00000000E+00
  0.00000000E+00  0.00000000E+00  0.00000000E+00  0.00000000E+00  0.00000000E+00
  0.00000000E+00  0.00000000E+00  0.00000000E+00  0.00000000E+00  0.00000000E+00
  5.43458912E+00  7.23903487E-02  1.19658586E+00  1.49702117E+00  2.61528188E-01
 -3.77084802E-16  1.19905720E-03  1.45866174E-01  2.35052151E-01 -6.19154222E-02
  1.42552980E-16 -3.27586861E-06  2.81504229E-03  6.37765524E-03 -6.56388227E-04
  1.85555198E-18 -2.32988997E-07  4.18096537E-04  1.06581924E-03  1.81614001E-04
 -2.61814985E-19 -1.24078639E-06  3.51502941E-03  6.90421525E-03  3.44196088E-03
 -6.10427843E-18  2.19672518E-03  1.67183604E-01  2.20387244E-01  1.58864938E-01
 -2.90757697E-16  1.11751180E-01  2.78267160E-04  3.89218618E-04  1.34106401E-01
  0.00000000E+00  0.00000000E+00  3.34186198E-07  0.00000000E+00  0.00000000E+00
  0.00000000E+00  0.00000000E+00  0.00000000E+00  0.00000000E+00  0.00000000E+00
  1.29802926E-07  0.00000000E+00  3.22785800E-08  1.34974754E+00  5.43458912E+00
 -1.18538110E-01 -1.14527881E+00 -1.18249716E+00 -3.27980633E-01  4.72899357E-16
 -2.71094879E-03 -1.88697364E-01 -2.77454086E-01  8.86994659E-02 -2.04220092E-16
  1.19724103E-05 -4.74591473E-03 -1.03587263E-02  1.13995189E-03 -3.22254406E-18
  9.44382576E-07 -7.37026842E-04 -1.83461768E-03 -3.24523533E-04  4.67833555E-19
  4.05890769E-06 -5.21945657E-03 -9.57616844E-03 -5.26845325E-03  9.34354184E-18
 -4.01358518E-03 -1.68878987E-01 -1.79965022E-01 -1.78126058E-01  3.26009773E-16
 -1.03659837E-01 -4.58591855E-04 -5.28211435E-04 -6.59167846E-02  0.00000000E+00
  3.34186198E-07  0.00000000E+00  1.95624113E-07 -2.82024824E-22  0.00000000E+00
  0.00000000E+00  0.00000000E+00  0.00000000E+00  0.00000000E+00 -1.73215666E-07
  0.00000000E+00  2.51745861E-08  7.18554879E-02  8.38743577E-01  5.43458912E+00
 -2.45312443E-02 -2.77791341E-01 -4.23615949E-01  5.81955493E-01  1.10595982E-16
  8.39073036E-04  6.62565244E-02  1.15032168E-01  2.85132266E-02  7.09397578E-17
 -1.42476080E-06  6.82566231E-04  1.57939205E-03  7.73292542E-04  4.62666548E-19
  1.91373107E-07 -1.86185635E-04 -4.78974992E-04  5.26784441E-05  1.18155218E-19
  2.25825432E-06 -3.53745493E-03 -7.10432335E-03 -2.39144472E-03  6.31612158E-18
 -3.40831820E-03 -1.66577075E-01 -2.36486855E-01 -1.05318981E-01  3.17207084E-16
  1.07267826E-01  1.60348077E-04 -5.13013612E-04 -1.76780991E-01  0.00000000E+00
  0.00000000E+00 -1.95624113E-07  0.00000000E+00  0.00000000E+00  0.00000000E+00
  0.00000000E+00  0.00000000E+00  0.00000000E+00  0.00000000E+00 -1.25411787E-07
  0.00000000E+00  1.17655196E-08  0.00000000E+00  0.00000000E+00  0.00000000E+00
  5.43458912E+00  3.53704106E-17  4.00533853E-16  6.10791278E-16  1.10595982E-16
  6.58659637E-01 -1.93186702E-18 -1.52547858E-16 -2.64848043E-16  7.09397578E-17
  5.93246838E-02  4.02767390E-21 -1.92955490E-18 -4.46480287E-18  4.62666548E-19
  9.36957521E-04 -2.75883725E-22  2.68405458E-19  6.90490983E-19  1.18155218E-19
  1.34639535E-04 -4.00498831E-21  6.27363604E-18  1.25994366E-17  6.31612158E-18
  1.16996612E-03  6.23797022E-18  3.04872600E-16  4.32822839E-16  3.17207084E-16
  6.79974404E-02 -2.22966329E-16 -3.73074407E-19  9.36482144E-19  3.36494589E-16
  0.00000000E+00  0.00000000E+00  2.82024824E-22  0.00000000E+00  0.00000000E+00
  0.00000000E+00  0.00000000E+00  0.00000000E+00  0.00000000E+00  0.00000000E+00
  2.10089476E-22  0.00000000E+00 -3.23814417E-23  0.00000000E+00  0.00000000E+00
  0.00000000E+00  0.00000000E+00  5.43458912E+00  0.00000000E+00  8.80325476E-03
  2.04734316E-02 -5.38200458E-03  1.26651871E-17  0.00000000E+00  2.40080792E-05
  7.67633812E-05 -3.84343597E-05  8.31938045E-20  0.00000000E+00  2.09160368E-09
  9.70914916E-09 -2.89016251E-09  6.66981762E-24  0.00000000E+00  0.00000000E+00
  0.00000000E+00  0.00000000E+00  0.00000000E+00  0.00000000E+00  6.36804337E-07
  2.56705207E-06  5.79508737E-07 -8.64690833E-22  0.00000000E+00  1.42505021E-03
  3.90860699E-03  9.22867321E-04 -1.39611341E-18  3.79823498E-05  0.00000000E+00
  2.56883589E-07  1.04241352E-02  0.00000000E+00  0.00000000E+00  0.00000000E+00
  0.00000000E+00  0.00000000E+00  0.00000000E+00  0.00000000E+00  0.00000000E+00
  0.00000000E+00  0.00000000E+00  0.00000000E+00  0.00000000E+00  0.00000000E+00
  1.92401648E-05  3.17084201E-01  3.68591062E-01 -3.75330158E-01  7.72340230E-16
  7.18244858E+00  3.53240312E-03  2.40559184E-01  3.75202811E-01 -9.04730739E-02
  2.12905506E-16  3.99488962E-06  7.58523421E-03  1.43338770E-02 -6.61930846E-03
  1.43279466E-17 -4.76980731E-10  8.63684480E-05  2.23283672E-04 -6.08678825E-05
  1.40468805E-19  0.00000000E+00  2.81505994E-05  7.99827500E-05 -1.18858244E-06
  9.94906894E-21 -4.07545240E-08  8.69358437E-04  2.02697232E-03  4.21482303E-04
 -6.28897996E-19  4.12307618E-04  7.86371470E-02  1.36136466E-01  2.96041113E-02
 -4.47850909E-17  5.37179796E-03  5.71467817E-06  1.98499481E-04  2.09883853E-01
  0.00000000E+00  0.00000000E+00  0.00000000E+00  0.00000000E+00  0.00000000E+00
  0.00000000E+00  0.00000000E+00  0.00000000E+00  0.00000000E+00  0.00000000E+00
  0.00000000E+00  0.00000000E+00  0.00000000E+00  2.47203985E-01  2.54090222E+00
  2.09775069E+00 -1.84803893E+00  3.80282475E-15  1.78385010E+00  7.18244858E+00
 -8.11121856E-03 -3.26374163E-01 -4.62325814E-01  1.35681359E-01 -3.19291774E-16
 -1.25074415E-05 -1.22721496E-02 -2.15037470E-02  1.10605929E-02 -2.39414112E-17
  2.21857019E-09 -1.86399610E-04 -4.60696133E-04  1.31984118E-04 -3.04588407E-19
  0.00000000E+00 -6.56901994E-05 -1.80105106E-04  2.78155027E-06 -2.32830593E-20
  1.70450415E-07 -1.71921893E-03 -3.80783583E-03 -8.44843603E-04  1.26059966E-18
 -1.11445710E-03 -1.18709151E-01 -1.91316440E-01 -4.80332171E-02  7.26646367E-17
 -6.64965175E-03 -1.21045757E-05 -3.62306307E-04 -2.18932687E-01  0.00000000E+00
  0.00000000E+00  0.00000000E+00  0.00000000E+00  0.00000000E+00  0.00000000E+00
  0.00000000E+00  0.00000000E+00  0.00000000E+00  0.00000000E+00  0.00000000E+00
  0.00000000E+00  0.00000000E+00 -2.84534062E-01 -1.54801727E+00 -2.17717089E-01
  1.58159196E+00 -3.25454023E-15  7.18554879E-02  8.38743577E-01  7.18244858E+00
  2.15790594E-03  9.45852556E-02  1.60133873E-01  5.93943161E-02  9.18102973E-17
  6.38021322E-06  6.73710161E-03  1.30804379E-02 -3.51871074E-03  1.31161651E-17
 -6.59118391E-10  6.11549257E-05  1.58719661E-04 -1.59796246E-05  9.99091235E-20
  0.00000000E+00  1.19294903E-06  3.39741690E-06  8.82118141E-06  4.22781946E-22
  3.73022977E-08 -4.26054885E-04 -1.00468624E-03  7.04904851E-05  3.12177093E-19
 -2.66640457E-04 -3.07456748E-02 -5.65145911E-02  1.70473283E-02  1.87268588E-17
  6.74723008E-03  5.52736296E-06 -1.75187599E-04 -1.73337203E-01  0.00000000E+00
  0.00000000E+00  0.00000000E+00  0.00000000E+00  0.00000000E+00  0.00000000E+00
  0.00000000E+00  0.00000000E+00  0.00000000E+00  0.00000000E+00  0.00000000E+00
  0.00000000E+00  0.00000000E+00  2.95522759E-01  1.89668621E+00  2.01833751E+00
 -3.14139006E-01  3.80443453E-15  0.00000000E+00  0.00000000E+00  0.00000000E+00
  7.18244858E+00 -5.07808606E-18 -2.22582486E-16 -3.76834584E-16  9.18102973E-17
  9.84086187E-02 -1.38104086E-20 -1.45829180E-17 -2.83135039E-17  1.31161651E-17
  2.54077181E-03  1.52109075E-24 -1.41131234E-19 -3.66287772E-19  9.99091235E-20
  2.73129540E-05  0.00000000E+00 -9.98561960E-21 -2.84381915E-20  4.22781946E-22
  8.87168977E-06 -5.56591347E-23  6.35720792E-19  1.49910248E-18  3.12177093E-19
  2.79709024E-04  4.03373605E-19  4.65120478E-17  8.54952568E-17  1.87268588E-17
  2.94262696E-02 -1.39758282E-17 -1.22272480E-20  3.00491198E-19  3.13045162E-16
  0.00000000E+00  0.00000000E+00  0.00000000E+00  0.00000000E+00  0.00000000E+00
  0.00000000E+00  0.00000000E+00  0.00000000E+00  0.00000000E+00  0.00000000E+00
  0.00000000E+00  0.00000000E+00  0.00000000E+00 -6.08115578E-16 -3.90292928E-15
 -4.15325873E-15  3.80443453E-15  1.53468222E+00  0.00000000E+00  0.00000000E+00
  0.00000000E+00  0.00000000E+00  7.18244858E+00  1.20014537E-02  3.49632034E-01
  4.20367459E-01  2.81957191E-01 -5.13707052E-16  1.16518780E-03  1.03126731E-01
  1.70968271E-01  1.82841930E-02 -2.03416166E-17 -6.89134414E-06  1.58437374E-03
  3.54629483E-03  4.26858160E-04 -5.38827571E-19 -1.67919452E-07  9.15111824E-05
  2.34723168E-04  7.56988888E-05 -1.29621651E-19 -1.66375648E-07  3.95529047E-04
  7.47700567E-04  5.14102034E-04 -9.40894810E-19  1.31860856E-04  1.91671676E-02
  2.39597120E-02  2.46848386E-02 -4.61675712E-17  2.05139155E-01  2.87208395E-04
  3.29542248E-05  1.26232279E-02  0.00000000E+00 -1.29802926E-07 -1.73215666E-07
 -1.25411787E-07  2.10089476E-22  0.00000000E+00  0.00000000E+00  0.00000000E+00
  0.00000000E+00  0.00000000E+00  0.00000000E+00  0.00000000E+00 -1.14906888E-07
  3.33788628E-01  2.76062520E+00  9.44985035E-01  2.56704973E+00 -4.95788034E-15
  4.12606637E-02  6.69923381E-01 -2.00015102E-01  8.15543748E-01 -1.62359028E-15
  5.90319098E+00  1.58232983E-04  2.57637358E-02  4.62255141E-02 -5.16090013E-03
  1.45870008E-17  2.85886262E-07  7.86491450E-04  1.65184562E-03 -5.05948227E-04
  1.14988100E-18  0.00000000E+00  5.52514042E-06  1.50686422E-05 -2.82881636E-06
  6.98072989E-21  0.00000000E+00  1.20842307E-06  3.57417806E-06  7.01497939E-08
  2.03583787E-22 -1.17682345E-09  4.12790897E-05  1.02824383E-04  2.10122964E-05
 -3.11528160E-20  1.15536373E-05  5.76975443E-03  1.11222146E-02  2.34764841E-03
 -3.51045005E-18  1.06505768E-03  4.61964992E-07  1.07383421E-05  2.57101871E-02
  0.00000000E+00  0.00000000E+00  0.00000000E+00  0.00000000E+00  0.00000000E+00
  0.00000000E+00  0.00000000E+00  0.00000000E+00  0.00000000E+00  0.00000000E+00
  0.00000000E+00  0.00000000E+00  0.00000000E+00  3.21945363E-02  7.36744987E-01
  9.57834628E-01 -3.23012653E-01  7.24466568E-16  4.46610969E-01  4.00872575E+00
  4.09118532E+00  7.62301203E-01 -1.09845255E-15  3.65227423E-01  9.21608439E+00
  2.48006482E-03  1.25306630E-01  1.65047583E-01 -1.13218224E-01  2.36578071E-16
  3.67117401E-06  2.90321648E-03  4.65409551E-03 -3.58756810E-03  7.44075788E-18
 -2.82664689E-08  7.43317464E-05  1.70514060E-04 -7.94884888E-05  1.70519413E-19
 -6.45249676E-08  6.95664638E-05  1.80592374E-04 -3.44800813E-05  8.28417764E-20
 -4.17547576E-06  3.29418990E-03  6.86178741E-03 -1.62581111E-04  9.36578697E-19
  2.55432571E-03  1.45626153E-01  2.32071874E-01 -3.04309624E-02  8.10793865E-17
  1.08848691E-03  3.74384704E-06  1.42596405E-03  6.38790737E-01  0.00000000E+00
 -3.22785800E-08  2.51745861E-08  1.17655196E-08 -3.23814417E-23  0.00000000E+00
  0.00000000E+00  0.00000000E+00  0.00000000E+00  0.00000000E+00  1.14906888E-07
  0.00000000E+00  0.00000000E+00  3.16803363E-02  6.15638415E-01  3.23835239E-01
 -7.47551688E-01  1.48823120E-15  4.36930525E-01  3.37138126E+00 -3.78045554E-01
 -3.14127764E+00  6.06691740E-15  8.92302137E-02  1.21232123E+00  6.71384672E+00
Multipole Matrix (0,1,0)                   R   N=        1830
  5.26797819E-01  1.30836766E-01  5.26797819E-01  0.00000000E+00  0.00000000E+00
  5.26797819E-01  7.18554879E-02  8.38743577E-01  0.00000000E+00  5.26797819E-01
  0.00000000E+00  0.00000000E+00  0.00000000E+00  0.00000000E+00  5.26797819E-01
  1.40528775E-06  9.10235096E-02 -9.88293163E-02  1.14119690E-01 -2.28527690E-16
  2.50022004E+00  2.38467000E-02  5.55565792E-01 -3.67951860E-01  6.85149550E-01
 -8.50832442E-16  6.20960626E-01  2.50022004E+00  2.74578579E-02  4.14175877E-01
 -3.61271396E-02  5.95775892E-01 -8.35647615E-16  0.00000000E+00  0.00000000E+00
  2.50022004E+00 -2.84283990E-02 -1.97686056E-01  2.20059024E-01 -1.35183610E-01
  5.08852860E-16  7.18554879E-02  8.38743577E-01  0.00000000E+00  2.50022004E+00
  6.34920999E-17  9.57718416E-16 -8.35647615E-16  1.37764070E-15  3.25257875E-01
  0.00000000E+00  0.00000000E+00  0.00000000E+00  0.00000000E+00  2.50022004E+00
  0.00000000E+00  3.51280937E-03 -7.67247349E-03  2.66419260E-03 -5.81672566E-18
  2.09331627E-06  7.59986114E-02 -1.23944861E-01 -2.27158292E-02  3.64490689E-17
  1.97341116E+00  1.09401485E-03  7.66012128E-02 -1.03717504E-01  7.50689085E-02
 -7.86312609E-17  9.39504825E-02  8.21574410E-01 -8.63450436E-01  9.38585178E-02
  2.53919075E-16  4.90121113E-01  1.97341116E+00  2.38741533E-03  1.10049178E-01
 -1.32588576E-01  1.10571909E-01 -1.24839911E-16  1.52125246E-01  8.45206203E-01
 -6.85368885E-01  3.97586368E-02  3.43025912E-16  0.00000000E+00  0.00000000E+00
  1.97341116E+00 -6.96145649E-04  3.66371020E-03 -5.62438119E-04  1.37064077E-02
 -4.26400722E-19  3.36015731E-02  4.42418905E-01 -5.15665798E-01  4.32547112E-01
  1.51644353E-16  7.18554879E-02  8.38743577E-01  0.00000000E+00  1.97341116E+00
  1.80996911E-18  8.34314877E-17 -1.24839911E-16  8.38277849E-17  3.20798230E-02
 -4.47362121E-17 -2.48553905E-16  3.43025912E-16 -1.16920160E-17  4.81088867E-01
  0.00000000E+00  0.00000000E+00  0.00000000E+00  0.00000000E+00  1.97341116E+00
  0.00000000E+00 -2.01683197E-04  5.24759722E-04  1.30525330E-04 -1.54276559E-19
  0.00000000E+00 -7.13454218E-04  1.23203733E-03  1.19272313E-03 -2.00493734E-18
  6.74685379E-07 -1.51152072E-02  7.18654800E-03  2.40839003E-02 -4.13259872E-17
 -5.26797819E-01  2.01683197E-04  0.00000000E+00 -8.05640677E-04  1.67025836E-02
  2.36854061E-19  4.35420187E-03  6.05055965E-02 -7.18584434E-02 -2.31934514E-02
  1.16937753E-16  7.00461429E-02  2.65600168E-01 -1.03297951E-01 -3.93542081E-02
  5.94011173E-16 -1.30836766E-01 -5.26797819E-01  5.24759722E-04 -8.05640677E-04
 -8.67361738E-19  2.63135807E-02  0.00000000E+00  7.50581796E-03  6.13923745E-02
 -5.56655822E-02 -2.78660876E-02  1.31825178E-16  3.60367254E-02  7.53104054E-02
  1.16090732E-01 -2.82655839E-02  2.26704993E-16  0.00000000E+00  0.00000000E+00
 -5.26797819E-01  1.30525330E-04  1.67025836E-02 -2.63135807E-02  0.00000000E+00
  7.73605234E-18  6.74966763E-03  9.48322566E-02 -1.15635978E-01 -3.82116205E-02
  1.88178463E-16  1.10462675E-01  4.95407531E-01 -2.07807638E-01 -1.97892606E-01
  1.19499039E-15  7.18554879E-02  8.38743577E-01  0.00000000E+00 -5.26797819E-01
 -1.54276559E-19  2.36854061E-19  5.77778983E-34 -7.73605234E-18  5.42101086E-20
 -1.22144795E-17 -9.99059535E-17  1.31825178E-16  4.53474567E-17  2.53412086E-02
 -2.07227901E-16 -4.33069792E-16  2.26704993E-16  1.62540229E-16  1.55514504E-01
  0.00000000E+00  0.00000000E+00  0.00000000E+00  0.00000000E+00 -5.26797819E-01
  0.00000000E+00 -4.35420187E-03  7.50581796E-03  6.74966763E-03 -1.22144795E-17
  0.00000000E+00 -9.58221166E-04  8.05609511E-04  2.43690943E-03 -4.63527798E-18
  0.00000000E+00 -4.22596840E-03 -1.94703279E-03  9.63907279E-03 -1.88567473E-17
 -1.40528775E-06 -9.10235096E-02 -9.88293163E-02  1.14119690E-01 -2.28527690E-16
 -2.50022004E+00  7.13454218E-04 -6.05055965E-02  6.13923745E-02  9.48322566E-02
 -9.99059535E-17  9.58221166E-04 -4.33680869E-19 -1.23659119E-03  1.31728577E-02
  7.11504002E-18  3.25514958E-03 -1.61416187E-02 -2.68475025E-03  5.35786785E-02
 -2.60014404E-17 -2.38467000E-02 -5.55565792E-01 -3.67951860E-01  6.85149550E-01
 -8.50832442E-16 -6.20960626E-01 -2.50022004E+00  1.23203733E-03 -7.18584434E-02
  5.56655822E-02  1.15635978E-01 -1.31825178E-16  8.05609511E-04 -1.23659119E-03
  0.00000000E+00  8.50804914E-03  6.16297582E-33 -1.49998315E-03  6.81429539E-03
 -5.21695930E-03 -1.92775674E-02  1.49442285E-17  2.74578579E-02  4.14175877E-01
  3.61271396E-02 -5.95775892E-01  8.35647615E-16  0.00000000E+00  0.00000000E+00
 -2.50022004E+00  1.19272313E-03 -2.31934514E-02  2.78660876E-02  3.82116205E-02
 -4.53474567E-17  2.43690943E-03  1.31728577E-02 -8.50804914E-03  0.00000000E+00
  4.89532115E-17  7.44915691E-03  7.04668562E-03  4.16000888E-03  3.02674012E-02
  4.02891193E-17 -2.84283990E-02 -1.97686056E-01 -2.20059024E-01  1.35183610E-01
 -5.08852860E-16  7.18554879E-02  8.38743577E-01  0.00000000E+00 -2.50022004E+00
 -2.00493734E-18  1.16937753E-16 -1.31825178E-16 -1.88178463E-16 -2.53412086E-02
 -4.63527798E-18  7.11504002E-18 -3.08148791E-33 -4.89532115E-17  0.00000000E+00
 -1.45271324E-17  6.59955225E-17  1.49442285E-17 -1.86700614E-16 -6.76000925E-03
  6.34920999E-17  9.57718416E-16  8.35647615E-16 -1.37764070E-15 -3.25257875E-01
  0.00000000E+00  0.00000000E+00  0.00000000E+00  0.00000000E+00 -2.50022004E+00
 -6.74685379E-07 -7.00461429E-02  3.60367254E-02  1.10462675E-01 -2.07227901E-16
  0.00000000E+00 -3.25514958E-03 -1.49998315E-03  7.44915691E-03 -1.45271324E-17
  0.00000000E+00 -7.55257309E-04 -1.32978029E-03  1.52488526E-03 -3.07567827E-18
  0.00000000E+00 -3.51280937E-03 -7.67247349E-03  2.66419260E-03 -5.81672566E-18
 -2.09331627E-06 -7.59986114E-02 -1.23944861E-01 -2.27158292E-02  3.64490689E-17
 -1.97341116E+00  1.51152072E-02 -2.65600168E-01  7.53104054E-02  4.95407531E-01
 -4.33069792E-16  4.22596840E-03  1.61416187E-02  6.81429539E-03  7.04668562E-03
  6.59955225E-17  7.55257309E-04  4.33680869E-19  2.04167344E-03  1.45583795E-02
  4.72223167E-18 -1.09401485E-03 -7.66012128E-02 -1.03717504E-01  7.50689085E-02
 -7.86312609E-17 -9.39504825E-02 -8.21574410E-01 -8.63450436E-01  9.38585178E-02
  2.53919075E-16 -4.90121113E-01 -1.97341116E+00  7.18654800E-03 -1.03297951E-01
 -1.16090732E-01  2.07807638E-01 -2.26704993E-16 -1.94703279E-03 -2.68475025E-03
  5.21695930E-03 -4.16000888E-03 -1.49442285E-17 -1.32978029E-03  2.04167344E-03
 -3.46944695E-18 -1.78026033E-02 -3.08148791E-33  2.38741533E-03  1.10049178E-01
  1.32588576E-01 -1.10571909E-01  1.24839911E-16  1.52125246E-01  8.45206203E-01
  6.85368885E-01 -3.97586368E-02 -3.43025912E-16  0.00000000E+00  0.00000000E+00
 -1.97341116E+00  2.40839003E-02 -3.93542081E-02  2.82655839E-02  1.97892606E-01
 -1.62540229E-16  9.63907279E-03  5.35786785E-02  1.92775674E-02 -3.02674012E-02
  1.86700614E-16  1.52488526E-03  1.45583795E-02  1.78026033E-02  2.60208521E-18
  4.11760350E-17 -6.96145649E-04  3.66371020E-03  5.62438119E-04 -1.37064077E-02
  4.26400722E-19  3.36015731E-02  4.42418905E-01  5.15665798E-01 -4.32547112E-01
 -1.51644353E-16  7.18554879E-02  8.38743577E-01  0.00000000E+00 -1.97341116E+00
 -4.13259872E-17  5.94011173E-16 -2.26704993E-16 -1.19499039E-15 -1.55514504E-01
 -1.88567473E-17 -2.60014404E-17 -1.49442285E-17 -4.02891193E-17  6.76000925E-03
 -3.07567827E-18  4.72223167E-18  0.00000000E+00 -4.11760350E-17  2.16840434E-19
  1.80996911E-18  8.34314877E-17  1.24839911E-16 -8.38277849E-17 -3.20798230E-02
 -4.47362121E-17 -2.48553905E-16 -3.43025912E-16  1.16920160E-17 -4.81088867E-01
  0.00000000E+00  0.00000000E+00  0.00000000E+00  0.00000000E+00 -1.97341116E+00
  3.52527437E-03  2.28776380E-01 -7.79471258E-02  3.50986593E-01 -5.59993899E-16
  1.59825459E-01  1.71427366E+00  5.15701792E-01  1.89242193E+00 -2.96350940E-15
  1.09103736E-02  3.01668462E-01  3.07416394E-01  3.05733135E-01 -4.31058806E-16
 -3.19419200E-05  1.05562831E-02  1.07612236E-02  1.78102211E-02 -2.46754162E-17
 -2.73636183E-05  9.05978026E-04  4.60107643E-04  2.67941609E-03 -2.64640870E-18
 -1.60204262E-04  5.26335089E-03 -3.20235423E-04  1.27225119E-02 -1.58896934E-17
  4.47110415E+00  5.83130121E-05  1.17685902E-02 -1.70179812E-02  1.35602569E-02
 -1.92855472E-17  1.34215924E-02  2.85544122E-01 -3.56581298E-01  1.61430357E-01
 -2.18498181E-16  1.26141028E-01  1.35296685E+00 -8.51538219E-01  1.31044975E+00
 -1.96877771E-15 -2.02879132E-03  1.33131860E-01 -2.24267233E-02  2.36312895E-01
 -3.29875545E-16 -2.09936092E-04  7.06025075E-04 -2.12483039E-04  5.17243923E-03
 -1.11564399E-18 -2.15631726E-05  7.14178636E-04 -7.59345275E-04  2.15748301E-03
 -1.75611388E-18  2.00023730E-01  3.52878408E+00  3.19419200E-05 -1.05562831E-02
  1.07612236E-02  1.78102211E-02 -2.46754162E-17  2.73636183E-05 -9.05978026E-04
  4.60107643E-04  2.67941609E-03 -2.64640870E-18  1.60204262E-04 -5.26335089E-03
 -3.20235423E-04  1.27225119E-02 -1.58896934E-17 -3.52527437E-03 -2.28776380E-01
 -7.79471258E-02  3.50986593E-01 -5.59993899E-16 -1.59825459E-01 -1.71427366E+00
  5.15701792E-01  1.89242193E+00 -2.96350940E-15 -1.09103736E-02 -3.01668462E-01
  3.07416394E-01  3.05733135E-01 -4.31058806E-16  9.92537416E-20 -3.58852963E-04
 -4.47110415E+00  2.02879132E-03 -1.33131860E-01 -2.24267233E-02  2.36312895E-01
 -3.29875545E-16  2.09936092E-04 -7.06025075E-04 -2.12483039E-04  5.17243923E-03
 -1.11564399E-18  2.15631726E-05 -7.14178636E-04 -7.59345275E-04  2.15748301E-03
 -1.75611388E-18 -5.83130121E-05 -1.17685902E-02 -1.70179812E-02  1.35602569E-02
 -1.92855472E-17 -1.34215924E-02 -2.85544122E-01 -3.56581298E-01  1.61430357E-01
 -2.18498181E-16 -1.26141028E-01 -1.35296685E+00 -8.51538219E-01  1.31044975E+00
 -1.96877771E-15  3.58852963E-04  4.65868121E-21 -2.00023730E-01 -3.52878408E+00
  0.00000000E+00 -1.09649051E-07  4.41158226E-07  9.63285932E-08 -1.29745468E-22
  0.00000000E+00 -2.18987355E-06  6.90323250E-06  4.11026922E-06 -7.04799856E-21
  0.00000000E+00 -1.10539220E-03  2.05508417E-03  1.78128890E-03 -3.14455839E-18
 -5.18231740E-08 -2.87243724E-02  4.69415721E-02  1.12295906E-02 -1.38147229E-17
  0.00000000E+00 -1.34229085E-03  3.10891812E-03 -8.77245465E-04  2.16506287E-18
  0.00000000E+00 -2.69911773E-06  9.73166188E-06 -1.03541826E-06  3.31147109E-21
 -1.84705194E-07 -9.61289066E-04 -1.24884658E-03 -2.45685955E-07 -1.10885517E+00
  4.75170984E-08 -8.53376334E-05  1.81703531E-04  2.12670045E-04 -5.34393521E-20
  5.45703888E-06  1.06319452E-03 -1.88127670E-03 -1.57703903E-04  1.92072850E-18
  2.09502392E-03  2.01240458E-02 -2.72842375E-02  7.55572701E-03  4.17485956E-17
 -1.47649991E-02 -2.44116148E-01  2.61396970E-01  2.69064095E-01 -7.69281164E-17
 -2.78595510E-03 -8.39729662E-02  1.24143667E-01 -7.19640502E-03  8.64541409E-17
 -4.52834930E-06 -2.35348704E-03  4.66296190E-03  3.63324086E-04  1.58670366E-18
  2.03170355E-04  2.96530155E-02 -7.98071366E-02 -3.39157031E-04 -2.75397922E-01
 -1.10885517E+00  1.91312319E-07 -1.86275165E-04  3.74463592E-04  4.60538900E-04
 -1.18212741E-19  1.71880016E-05  1.78578265E-03 -2.89651340E-03 -2.76693874E-04
  3.31855749E-18  3.89290321E-03  1.95721007E-02 -2.16625571E-02  9.94945587E-03
  4.56706935E-17 -2.45138505E-02 -2.77660123E-01  2.41241905E-01  3.10940919E-01
 -1.10542165E-16 -6.45659380E-03 -1.19802565E-01  1.59726151E-01 -1.51133228E-02
  1.35017741E-16 -1.63340621E-05 -4.63678389E-03  8.66030618E-03  6.88618625E-04
  3.21346351E-18  3.23068357E-04  1.86366768E-02 -8.81151570E-02 -6.75119935E-04
  0.00000000E+00  0.00000000E+00 -1.10885517E+00  4.53573903E-08  1.37598506E-04
 -2.96536913E-04 -1.07521908E-05  8.72120669E-20  1.00310563E-05  1.95336709E-03
 -3.46571244E-03 -7.23342716E-04  3.53839108E-18  3.31777853E-03  4.67294846E-02
 -5.98567976E-02 -1.26773437E-02  9.15890444E-17 -3.35516702E-03  1.59037217E-01
 -1.57607281E-01 -1.18725065E-01  4.63832126E-17  2.01604465E-03  6.65902599E-02
 -1.02171920E-01 -1.64146364E-02 -7.11529288E-17  2.10213717E-06  1.48274313E-03
 -2.96209804E-03 -6.46503244E-04 -1.00793699E-18  3.68939406E-04  5.95224800E-02
  9.72510126E-02  2.99489650E-04  7.18554879E-02  8.38743577E-01  0.00000000E+00
 -1.10885517E+00 -5.62653148E-23  5.47838782E-20 -1.18212741E-19 -1.35445361E-19
 -2.74812592E-05 -1.75484471E-20 -1.82323187E-18  3.31855749E-18  2.82496356E-19
  3.53880843E-04 -5.95667158E-18 -2.99479770E-17  4.56706935E-17 -1.52240212E-17
  8.18491511E-03  7.21433130E-18  8.17142993E-17 -1.10542165E-16 -9.15087086E-17
 -1.34373520E-01 -4.49639746E-18 -8.34309802E-17  1.35017741E-16 -1.05249778E-17
 -3.41523296E-02 -5.55812308E-21 -1.57779586E-18  3.21346351E-18  2.34321814E-19
 -7.83333659E-04 -4.75001509E-19 -7.12622427E-17 -1.56247207E-16 -4.44029761E-19
  0.00000000E+00  0.00000000E+00  0.00000000E+00  0.00000000E+00 -1.10885517E+00
  0.00000000E+00  0.00000000E+00  0.00000000E+00  0.00000000E+00  0.00000000E+00
  0.00000000E+00  7.29652158E-08 -2.93149818E-07 -6.07512521E-08  9.89599147E-23
  0.00000000E+00  1.53712090E-04 -4.19938064E-04 -8.79305879E-05  1.50440664E-19
  0.00000000E+00  7.95993567E-04 -1.84570713E-03  5.56496979E-04 -1.14568083E-18
  0.00000000E+00  1.85568843E-06 -5.92877113E-06  3.17825510E-06 -6.44237121E-21
  0.00000000E+00  1.91343395E-10 -8.87721453E-10  2.70029900E-10 -6.10184516E-25
  3.10727293E-08  1.16501035E-03  2.71007111E-06  0.00000000E+00 -6.44145881E-07
  2.64425215E-02 -2.89706365E-02  3.29362737E-02 -6.12328052E-17  6.86446481E-01
  0.00000000E+00  7.42541888E-06 -1.92102436E-05  7.59388081E-06 -2.62883552E-21
  2.26255929E-07  4.36423972E-04 -9.42593303E-04 -4.92697171E-05  3.18195500E-19
  3.93538850E-04  2.34218137E-02 -3.85232430E-02  2.00130179E-03  1.38007548E-17
 -5.94324297E-04  3.93277728E-03 -3.67876810E-03  3.31795626E-02 -2.28351184E-18
 -8.19107170E-06 -1.71608111E-03  3.06856631E-03 -3.92255669E-04  3.33439137E-18
 -5.73700960E-10 -2.04528429E-05  4.86519065E-05  4.43308582E-06  3.34413908E-20
  1.32875592E-04  7.75489747E-02 -1.72535915E-03 -2.35742311E-06 -4.53344549E-02
 -8.50674470E-02  8.53523880E-02  2.10878466E-01  1.80402186E-16  1.70487489E-01
  6.86446481E-01  0.00000000E+00  1.92146102E-05 -4.75071894E-05  1.96505198E-05
 -6.82138143E-21  9.09960853E-07  9.38020721E-04 -1.91156003E-03 -1.10978925E-04
  6.92694819E-19  1.07616493E-03  3.73816795E-02 -5.69829678E-02  2.33800179E-03
  2.35537001E-17 -1.37839151E-03  7.79094982E-03 -7.55832485E-03  4.87691826E-02
 -5.69030432E-18 -2.61253753E-05 -2.95077316E-03  4.86500127E-03 -7.19059886E-04
  5.91106816E-18 -2.66155945E-09 -4.83648632E-05  1.09097082E-04  1.04607188E-05
  7.94348251E-20  2.65677529E-04  8.98802502E-02 -2.31511568E-03 -5.54083334E-06
 -5.08367621E-02 -3.67051120E-02  7.28900026E-03  1.52340679E-01  1.24003699E-16
  0.00000000E+00  0.00000000E+00  6.86446481E-01  0.00000000E+00  6.96569281E-06
 -1.80206639E-05  2.32680541E-06 -2.46604689E-21  2.11440145E-07  3.76199836E-04
 -8.17497900E-04  3.53867130E-05  2.75966477E-19  2.66360362E-04  1.99762856E-02
 -3.34772200E-02  5.07749024E-03  1.19930428E-17  4.33230894E-04  3.01541400E-02
 -4.39330528E-02  9.71006857E-04 -2.72704459E-17  1.33170906E-05  2.62949454E-03
 -4.74259969E-03  7.96072062E-04 -5.15344361E-18  7.98361670E-10  3.33292092E-05
 -7.93020476E-05  3.78412209E-06 -5.45090821E-20  1.55182144E-04  9.14250769E-02
  2.89181479E-03  3.67841757E-06  5.53959121E-02  3.36248976E-01 -2.72863541E-01
  1.05171317E-02 -5.76728787E-16  7.18554879E-02  8.38743577E-01  0.00000000E+00
  6.86446481E-01  0.00000000E+00  2.62943307E-21 -6.82138143E-21  2.68908534E-21
  2.34012824E-06 -3.07179616E-22 -3.16651913E-19  6.92694819E-19  3.74636596E-20
  1.40415872E-04 -3.85530581E-19 -1.33917955E-17  2.35537001E-17 -8.37577182E-19
  8.76451689E-03 -8.55605263E-19  4.83605537E-18 -5.69030432E-18  3.02723638E-17
  1.60883145E-03 -2.83885753E-20 -3.20639398E-18  5.91106816E-18 -7.81350909E-19
 -5.74823453E-04 -1.82945040E-24 -3.32440887E-20  7.94348251E-20  7.19028321E-21
 -6.46795873E-06 -1.98793756E-19 -1.13738666E-16 -4.34731527E-18 -5.01203687E-21
 -1.07449401E-16 -7.75805174E-17  1.24003699E-16  3.21989718E-16 -5.13799774E-02
  0.00000000E+00  0.00000000E+00  0.00000000E+00  0.00000000E+00  6.86446481E-01
  2.88787661E-08 -9.00097073E-05  1.75364476E-04  1.34667650E-04 -1.29420551E-19
  6.53148996E-07  1.63431699E-05 -3.30601756E-05  1.04910372E-04  5.05658504E-20
  1.24364977E-04 -1.25217777E-03  1.06925836E-03  5.17664322E-03 -2.45640608E-18
 -2.74986349E-03 -1.47719365E-01  1.51227197E-01  1.79432414E-01 -2.16076425E-16
 -2.89951500E-03 -9.21309994E-02  1.32792837E-01  4.04889857E-02 -1.83760621E-17
 -9.46657662E-06 -2.55587180E-03  4.69763447E-03  1.43475440E-03 -8.96930226E-19
  1.00167430E-05  5.56572050E-04 -2.10832753E-01 -6.88698258E-04 -7.55598187E-02
 -1.05390586E+00  2.24553390E-01  1.31886931E+00 -1.87120065E-15  3.18621290E-03
 -1.14767259E-01 -4.57723315E-02  2.09881552E-01 -2.71900794E-16 -3.13067751E+00
  0.00000000E+00  2.00629515E-07 -5.39480111E-07  3.13157967E-07 -3.38001793E-23
  6.31645618E-09  1.82346883E-05 -4.21885125E-05 -1.31026412E-06  1.38664872E-20
  1.09245217E-05  1.45077716E-03 -2.64381724E-03  2.14624723E-04  9.00603194E-19
 -2.79217755E-05 -8.62046519E-04  1.50451942E-03  3.19233942E-03  5.12145004E-19
 -5.97226773E-07 -2.32738242E-04  4.60240656E-04 -3.00215353E-05  3.45978984E-19
  0.00000000E+00 -1.86587302E-06  4.68682652E-06  2.96611036E-07  2.36874761E-21
  6.59527324E-06  7.91769177E-03 -4.17597253E-04 -2.47038313E-07 -6.12773720E-03
 -4.61607839E-02  5.66654596E-02  5.26125654E-02  4.64114049E-17  4.03279828E-02
  2.28071239E-01 -2.16075217E-01  3.05985767E-01  6.34422499E-17 -6.90536276E-02
  2.72072857E-01  1.76137931E-08  7.21191695E-05 -1.54461238E-04  6.98931579E-05
 -8.70801067E-20  1.87397734E-05  3.55233682E-03 -6.50517333E-03  1.14230197E-03
 -1.03285881E-18  2.65553869E-03  8.41071677E-02 -1.19630534E-01  4.41288718E-02
 -4.71664263E-17 -3.74701266E-04  2.60473481E-02 -2.94177846E-02  4.35141300E-02
 -4.81395519E-17 -8.06952047E-06 -2.32510092E-04  3.69538087E-04  2.77133510E-04
  6.78993974E-19 -3.55663950E-08  1.54172370E-06 -2.11933020E-06  2.80187926E-05
 -2.51543363E-21  1.96100773E-03  4.04902198E-01 -2.33798987E-04 -8.56189096E-07
 -5.62822122E-03  7.17276409E-02 -2.82342255E-02  1.57550321E-01 -1.67719409E-16
  4.97567342E-02  8.48611001E-01  1.80259344E-01  1.12775891E+00 -1.50209892E-15
 -2.98735862E-03  2.26814007E-01  2.70826884E+00  5.18231740E-08  2.87243724E-02
  4.69415721E-02  1.12295906E-02 -1.38147229E-17  0.00000000E+00  1.34229085E-03
  3.10891812E-03 -8.77245465E-04  2.16506287E-18  0.00000000E+00  2.69911773E-06
  9.73166188E-06 -1.03541826E-06  3.31147109E-21  0.00000000E+00  1.09649051E-07
  4.41158226E-07  9.63285932E-08 -1.29745468E-22  0.00000000E+00  2.18987355E-06
  6.90323250E-06  4.11026922E-06 -7.04799856E-21  0.00000000E+00  1.10539220E-03
  2.05508417E-03  1.78128890E-03 -3.14455839E-18  1.24884658E-03  2.45685955E-07
  1.84705194E-07  9.61289066E-04  0.00000000E+00  0.00000000E+00  0.00000000E+00
  0.00000000E+00  0.00000000E+00  0.00000000E+00  0.00000000E+00  0.00000000E+00
  0.00000000E+00  0.00000000E+00  0.00000000E+00  0.00000000E+00  0.00000000E+00
  1.10885517E+00  1.47649991E-02  2.44116148E-01  2.61396970E-01  2.69064095E-01
 -7.69281164E-17  2.78595510E-03  8.39729662E-02  1.24143667E-01 -7.19640502E-03
  8.64541409E-17  4.52834930E-06  2.35348704E-03  4.66296190E-03  3.63324086E-04
  1.58670366E-18 -4.75170984E-08  8.53376334E-05  1.81703531E-04  2.12670045E-04
 -5.34393521E-20 -5.45703888E-06 -1.06319452E-03 -1.88127670E-03 -1.57703903E-04
  1.92072850E-18 -2.09502392E-03 -2.01240458E-02 -2.72842375E-02  7.55572701E-03
  4.17485956E-17  7.98071366E-02  3.39157031E-04 -2.03170355E-04 -2.96530155E-02
  0.00000000E+00  0.00000000E+00  0.00000000E+00  3.34186198E-07  0.00000000E+00
  0.00000000E+00  0.00000000E+00  0.00000000E+00  0.00000000E+00  0.00000000E+00
 -1.73348910E-07  0.00000000E+00  3.05403551E-07  2.75397922E-01  1.10885517E+00
 -2.45138505E-02 -2.77660123E-01 -2.41241905E-01 -3.10940919E-01  1.10542165E-16
 -6.45659380E-03 -1.19802565E-01 -1.59726151E-01  1.51133228E-02 -1.35017741E-16
 -1.63340621E-05 -4.63678389E-03 -8.66030618E-03 -6.88618625E-04 -3.21346351E-18
  1.91312319E-07 -1.86275165E-04 -3.74463592E-04 -4.60538900E-04  1.18212741E-19
  1.71880016E-05  1.78578265E-03  2.89651340E-03  2.76693874E-04 -3.31855749E-18
  3.89290321E-03  1.95721007E-02  2.16625571E-02 -9.94945587E-03 -4.56706935E-17
 -8.81151570E-02 -6.75119935E-04  3.23068357E-04  1.86366768E-02  0.00000000E+00
  0.00000000E+00  0.00000000E+00 -9.58769641E-07  0.00000000E+00  0.00000000E+00
  0.00000000E+00  0.00000000E+00  0.00000000E+00  0.00000000E+00  4.47904095E-07
  0.00000000E+00 -8.45532555E-07  0.00000000E+00  0.00000000E+00  1.10885517E+00
 -3.35516702E-03  1.59037217E-01  1.57607281E-01  1.18725065E-01 -4.63832126E-17
  2.01604465E-03  6.65902599E-02  1.02171920E-01  1.64146364E-02  7.11529288E-17
  2.10213717E-06  1.48274313E-03  2.96209804E-03  6.46503244E-04  1.00793699E-18
  4.53573903E-08  1.37598506E-04  2.96536913E-04  1.07521908E-05 -8.72120669E-20
  1.00310563E-05  1.95336709E-03  3.46571244E-03  7.23342716E-04 -3.53839108E-18
  3.31777853E-03  4.67294846E-02  5.98567976E-02  1.26773437E-02 -9.15890444E-17
  9.72510126E-02  2.99489650E-04  3.68939406E-04  5.95224800E-02  0.00000000E+00
  3.34186198E-07  9.58769641E-07  0.00000000E+00 -2.82024824E-22  0.00000000E+00
  0.00000000E+00  0.00000000E+00  0.00000000E+00  0.00000000E+00  3.29657655E-07
  0.00000000E+00  2.25859625E-07  7.18554879E-02  8.38743577E-01  0.00000000E+00
  1.10885517E+00  7.21433130E-18  8.17142993E-17  1.10542165E-16  9.15087086E-17
  1.34373520E-01 -4.49639746E-18 -8.34309802E-17 -1.35017741E-16  1.05249778E-17
  3.41523296E-02 -5.55812308E-21 -1.57779586E-18 -3.21346351E-18 -2.34321814E-19
  7.83333659E-04 -5.62653148E-23  5.47838782E-20  1.18212741E-19  1.35445361E-19
  2.74812592E-05 -1.75484471E-20 -1.82323187E-18 -3.31855749E-18 -2.82496356E-19
 -3.53880843E-04 -5.95667158E-18 -2.99479770E-17 -4.56706935E-17  1.52240212E-17
 -8.18491511E-03 -1.56247207E-16 -4.44029761E-19 -4.75001509E-19 -7.12622427E-17
  0.00000000E+00  0.00000000E+00  0.00000000E+00  2.82024824E-22  0.00000000E+00
  0.00000000E+00  0.00000000E+00  0.00000000E+00  0.00000000E+00  0.00000000E+00
 -2.80569806E-22  0.00000000E+00 -3.06376776E-22  0.00000000E+00  0.00000000E+00
  0.00000000E+00  0.00000000E+00  1.10885517E+00  0.00000000E+00 -7.95993567E-04
 -1.84570713E-03  5.56496979E-04 -1.14568083E-18  0.00000000E+00 -1.85568843E-06
 -5.92877113E-06  3.17825510E-06 -6.44237121E-21  0.00000000E+00 -1.91343395E-10
 -8.87721453E-10  2.70029900E-10 -6.10184516E-25  0.00000000E+00  0.00000000E+00
  0.00000000E+00  0.00000000E+00  0.00000000E+00  0.00000000E+00 -7.29652158E-08
 -2.93149818E-07 -6.07512521E-08  9.89599147E-23  0.00000000E+00 -1.53712090E-04
 -4.19938064E-04 -8.79305879E-05  1.50440664E-19 -2.71007111E-06  0.00000000E+00
 -3.10727293E-08 -1.16501035E-03  0.00000000E+00  0.00000000E+00  0.00000000E+00
  0.00000000E+00  0.00000000E+00  0.00000000E+00  0.00000000E+00  0.00000000E+00
  0.00000000E+00  0.00000000E+00  0.00000000E+00  0.00000000E+00  0.00000000E+00
  6.44145881E-07 -2.64425215E-02 -2.89706365E-02  3.29362737E-02 -6.12328052E-17
 -6.86446481E-01  5.94324297E-04 -3.93277728E-03 -3.67876810E-03  3.31795626E-02
 -2.28351184E-18  8.19107170E-06  1.71608111E-03  3.06856631E-03 -3.92255669E-04
  3.33439137E-18  5.73700960E-10  2.04528429E-05  4.86519065E-05  4.43308582E-06
  3.34413908E-20  0.00000000E+00 -7.42541888E-06 -1.92102436E-05  7.59388081E-06
 -2.62883552E-21 -2.26255929E-07 -4.36423972E-04 -9.42593303E-04 -4.92697171E-05
  3.18195500E-19 -3.93538850E-04 -2.34218137E-02 -3.85232430E-02  2.00130179E-03
  1.38007548E-17  1.72535915E-03  2.35742311E-06 -1.32875592E-04 -7.75489747E-02
  0.00000000E+00  0.00000000E+00  0.00000000E+00  0.00000000E+00  0.00000000E+00
  0.00000000E+00  0.00000000E+00  0.00000000E+00  0.00000000E+00  0.00000000E+00
  0.00000000E+00  0.00000000E+00  0.00000000E+00  4.53344549E-02  8.50674470E-02
  8.53523880E-02  2.10878466E-01  1.80402186E-16 -1.70487489E-01 -6.86446481E-01
 -1.37839151E-03  7.79094982E-03  7.55832485E-03 -4.87691826E-02  5.69030432E-18
 -2.61253753E-05 -2.95077316E-03 -4.86500127E-03  7.19059886E-04 -5.91106816E-18
 -2.66155945E-09 -4.83648632E-05 -1.09097082E-04 -1.04607188E-05 -7.94348251E-20
  0.00000000E+00  1.92146102E-05  4.75071894E-05 -1.96505198E-05  6.82138143E-21
  9.09960853E-07  9.38020721E-04  1.91156003E-03  1.10978925E-04 -6.92694819E-19
  1.07616493E-03  3.73816795E-02  5.69829678E-02 -2.33800179E-03 -2.35537001E-17
 -2.31511568E-03 -5.54083334E-06  2.65677529E-04  8.98802502E-02  0.00000000E+00
  0.00000000E+00  0.00000000E+00  0.00000000E+00  0.00000000E+00  0.00000000E+00
  0.00000000E+00  0.00000000E+00  0.00000000E+00  0.00000000E+00  0.00000000E+00
  0.00000000E+00  0.00000000E+00 -5.08367621E-02 -3.67051120E-02 -7.28900026E-03
 -1.52340679E-01 -1.24003699E-16  0.00000000E+00  0.00000000E+00 -6.86446481E-01
  4.33230894E-04  3.01541400E-02  4.39330528E-02 -9.71006857E-04  2.72704459E-17
  1.33170906E-05  2.62949454E-03  4.74259969E-03 -7.96072062E-04  5.15344361E-18
  7.98361670E-10  3.33292092E-05  7.93020476E-05 -3.78412209E-06  5.45090821E-20
  0.00000000E+00  6.96569281E-06  1.80206639E-05 -2.32680541E-06  2.46604689E-21
  2.11440145E-07  3.76199836E-04  8.17497900E-04 -3.53867130E-05 -2.75966477E-19
  2.66360362E-04  1.99762856E-02  3.34772200E-02 -5.07749024E-03 -1.19930428E-17
  2.89181479E-03  3.67841757E-06  1.55182144E-04  9.14250769E-02  0.00000000E+00
  0.00000000E+00  0.00000000E+00  0.00000000E+00  0.00000000E+00  0.00000000E+00
  0.00000000E+00  0.00000000E+00  0.00000000E+00  0.00000000E+00  0.00000000E+00
  0.00000000E+00  0.00000000E+00  5.53959121E-02  3.36248976E-01  2.72863541E-01
 -1.05171317E-02  5.76728787E-16  7.18554879E-02  8.38743577E-01  0.00000000E+00
 -6.86446481E-01 -8.55605263E-19  4.83605537E-18  5.69030432E-18 -3.02723638E-17
 -1.60883145E-03 -2.83885753E-20 -3.20639398E-18 -5.91106816E-18  7.81350909E-19
  5.74823453E-04 -1.82945040E-24 -3.32440887E-20 -7.94348251E-20 -7.19028321E-21
  6.46795873E-06  0.00000000E+00  2.62943307E-21  6.82138143E-21 -2.68908534E-21
 -2.34012824E-06 -3.07179616E-22 -3.16651913E-19 -6.92694819E-19 -3.74636596E-20
 -1.40415872E-04 -3.85530581E-19 -1.33917955E-17 -2.35537001E-17  8.37577182E-19
 -8.76451689E-03 -4.34731527E-18 -5.01203687E-21 -1.98793756E-19 -1.13738666E-16
  0.00000000E+00  0.00000000E+00  0.00000000E+00  0.00000000E+00  0.00000000E+00
  0.00000000E+00  0.00000000E+00  0.00000000E+00  0.00000000E+00  0.00000000E+00
  0.00000000E+00  0.00000000E+00  0.00000000E+00 -1.07449401E-16 -7.75805174E-17
 -1.24003699E-16 -3.21989718E-16  5.13799774E-02  0.00000000E+00  0.00000000E+00
  0.00000000E+00  0.00000000E+00 -6.86446481E-01  2.74986349E-03  1.47719365E-01
  1.51227197E-01  1.79432414E-01 -2.16076425E-16  2.89951500E-03  9.21309994E-02
  1.32792837E-01  4.04889857E-02 -1.83760621E-17  9.46657662E-06  2.55587180E-03
  4.69763447E-03  1.43475440E-03 -8.96930226E-19 -2.88787661E-08  9.00097073E-05
  1.75364476E-04  1.34667650E-04 -1.29420551E-19 -6.53148996E-07 -1.63431699E-05
 -3.30601756E-05  1.04910372E-04  5.05658504E-20 -1.24364977E-04  1.25217777E-03
  1.06925836E-03  5.17664322E-03 -2.45640608E-18  2.10832753E-01  6.88698258E-04
 -1.00167430E-05 -5.56572050E-04  0.00000000E+00  1.73348910E-07  4.47904095E-07
  3.29657655E-07 -2.80569806E-22  0.00000000E+00  0.00000000E+00  0.00000000E+00
  0.00000000E+00  0.00000000E+00  0.00000000E+00  0.00000000E+00  8.27644978E-07
  7.55598187E-02  1.05390586E+00  2.24553390E-01  1.31886931E+00 -1.87120065E-15
 -3.18621290E-03  1.14767259E-01 -4.57723315E-02  2.09881552E-01 -2.71900794E-16
  3.13067751E+00  2.79217755E-05  8.62046519E-04  1.50451942E-03  3.19233942E-03
  5.12145004E-19  5.97226773E-07  2.32738242E-04  4.60240656E-04 -3.00215353E-05
  3.45978984E-19  0.00000000E+00  1.86587302E-06  4.68682652E-06  2.96611036E-07
  2.36874761E-21  0.00000000E+00 -2.00629515E-07 -5.39480111E-07  3.13157967E-07
 -3.38001793E-23 -6.31645618E-09 -1.82346883E-05 -4.21885125E-05 -1.31026412E-06
  1.38664872E-20 -1.09245217E-05 -1.45077716E-03 -2.64381724E-03  2.14624723E-04
  9.00603194E-19  4.17597253E-04  2.47038313E-07 -6.59527324E-06 -7.91769177E-03
  0.00000000E+00  0.00000000E+00  0.00000000E+00  0.00000000E+00  0.00000000E+00
  0.00000000E+00  0.00000000E+00  0.00000000E+00  0.00000000E+00  0.00000000E+00
  0.00000000E+00  0.00000000E+00  0.00000000E+00  6.12773720E-03  4.61607839E-02
  5.66654596E-02  5.26125654E-02  4.64114049E-17 -4.03279828E-02 -2.28071239E-01
 -2.16075217E-01  3.05985767E-01  6.34422499E-17  6.90536276E-02 -2.72072857E-01
  3.74701266E-04 -2.60473481E-02 -2.94177846E-02  4.35141300E-02 -4.81395519E-17
  8.06952047E-06  2.32510092E-04  3.69538087E-04  2.77133510E-04  6.78993974E-19
  3.55663950E-08 -1.54172370E-06 -2.11933020E-06  2.80187926E-05 -2.51543363E-21
 -1.76137931E-08 -7.21191695E-05 -1.54461238E-04  6.98931579E-05 -8.70801067E-20
 -1.87397734E-05 -3.55233682E-03 -6.50517333E-03  1.14230197E-03 -1.03285881E-18
 -2.65553869E-03 -8.41071677E-02 -1.19630534E-01  4.41288718E-02 -4.71664263E-17
  2.33798987E-04  8.56189096E-07 -1.96100773E-03 -4.04902198E-01  0.00000000E+00
 -3.05403551E-07 -8.45532555E-07  2.25859625E-07 -3.06376776E-22  0.00000000E+00
  0.00000000E+00  0.00000000E+00  0.00000000E+00  0.00000000E+00 -8.27644978E-07
  0.00000000E+00  0.00000000E+00  5.62822122E-03 -7.17276409E-02 -2.82342255E-02
  1.57550321E-01 -1.67719409E-16 -4.97567342E-02 -8.48611001E-01  1.80259344E-01
  1.12775891E+00 -1.50209892E-15  2.98735862E-03 -2.26814007E-01 -2.70826884E+00
Multipole Matrix (0,0,1)                   R   N=        1830
 -7.59359635E-16 -1.88596374E-16 -7.59359635E-16  0.00000000E+00  0.00000000E+00
 -7.59359635E-16  0.00000000E+00  0.00000000E+00  0.00000000E+00 -7.59359635E-16
  7.18554879E-02  8.38743577E-01  0.00000000E+00  0.00000000E+00 -7.59359635E-16
 -2.58187653E-21 -1.74331331E-16  1.89115804E-16 -2.13466621E-16  2.56497136E-03
 -4.80205391E-15 -3.67149097E-17 -1.02071784E-15  6.71138745E-16 -7.57555515E-16
  2.69819690E-01 -1.19264959E-15 -4.80205391E-15 -4.29063493E-17 -7.65831895E-16
  6.63748853E-17 -7.49449716E-16  1.87858434E-01  0.00000000E+00  0.00000000E+00
 -4.80205391E-15  4.84310313E-17  8.64441489E-16 -7.49449716E-16  2.48367202E-16
 -2.12047351E-01  0.00000000E+00  0.00000000E+00  0.00000000E+00 -4.80205391E-15
  2.56497136E-03  2.69819690E-01 -1.87858434E-01  2.12047351E-01 -5.97582715E-16
  7.18554879E-02  8.38743577E-01  0.00000000E+00  0.00000000E+00 -4.80205391E-15
  0.00000000E+00 -7.16888258E-18  1.56582164E-17 -5.23036630E-18  1.01330663E-04
 -4.13863082E-21 -1.55061139E-16  2.52592882E-16  5.15281249E-17  2.56851859E-03
 -4.04262387E-15 -1.67913538E-18 -1.47122806E-16  1.98098405E-16 -6.61714716E-17
  4.04238045E-02 -1.80939955E-16 -1.62430934E-15  1.70221622E-15  3.47246561E-16
  2.69999593E-01 -1.00403573E-15 -4.04262387E-15 -3.66313659E-18 -2.12468907E-16
  2.54653976E-16 -1.05643902E-16  5.55671733E-02 -2.93216782E-16 -1.67591594E-15
  1.35502161E-15  4.70450659E-16  2.77712217E-01  0.00000000E+00  0.00000000E+00
 -4.04262387E-15  1.22360974E-18  7.09716983E-17 -1.05643902E-16 -2.63249769E-17
 -1.85612884E-02 -5.98152680E-17 -3.41881391E-16  4.70450659E-16 -8.55175508E-16
  5.66523874E-02  0.00000000E+00  0.00000000E+00  0.00000000E+00 -4.04262387E-15
  1.01330663E-04  4.04238045E-02 -5.55671733E-02  1.85612884E-02 -6.16135621E-17
  2.56851859E-03  2.69999593E-01 -2.77712217E-01 -5.66523874E-02 -9.51145910E-16
  7.18554879E-02  8.38743577E-01  0.00000000E+00  0.00000000E+00 -4.04262387E-15
  0.00000000E+00  2.90718893E-19 -7.56421793E-19 -1.54276559E-19  2.34975779E-05
  0.00000000E+00  9.26132617E-19 -1.60070784E-18 -1.41781250E-18  1.01457197E-04
 -1.53128021E-21  1.94456367E-17 -8.76853305E-18 -2.62533964E-17  2.56704084E-03
  7.59359635E-16 -2.90718893E-19  1.92592994E-34  1.16130133E-18  2.36854061E-19
  1.68668986E-02 -8.38446036E-18 -1.23949972E-16  1.46101274E-16  1.29407883E-16
  4.04545156E-02 -1.44118050E-16 -6.02811759E-16  2.29563552E-16  6.87323968E-16
  2.69924669E-01  1.88596374E-16  7.59359635E-16 -7.56421793E-19  1.16130133E-18
  0.00000000E+00  3.85185989E-34  2.63135807E-02 -1.44529889E-17 -1.26872403E-16
  1.14034862E-16  1.46987040E-16  4.38849454E-02 -7.42475060E-17 -1.75809752E-16
 -2.63481981E-16  2.67898389E-16  8.97710268E-02  0.00000000E+00  0.00000000E+00
  7.59359635E-16 -1.54276559E-19  2.36854061E-19 -1.92592994E-34  4.81482486E-35
  5.36680554E-03 -1.28016043E-17 -1.12376084E-16  1.46987040E-16  7.82791933E-17
  3.88706938E-02 -2.22300491E-16 -5.26382587E-16  2.67898389E-16  4.49141245E-16
  2.68778636E-01  0.00000000E+00  0.00000000E+00  0.00000000E+00  7.59359635E-16
  2.34975779E-05  1.68668986E-02 -2.63135807E-02 -5.36680554E-03  1.15555797E-33
  1.01457197E-04  4.04545156E-02 -4.38849454E-02 -3.88706938E-02 -5.19132489E-17
  2.56704084E-03  2.69924669E-01 -8.97710268E-02 -2.68778636E-01 -3.52959009E-16
  7.18554879E-02  8.38743577E-01  0.00000000E+00  0.00000000E+00  7.59359635E-16
  0.00000000E+00  8.38446036E-18 -1.44529889E-17 -1.28016043E-17  1.01457197E-04
  0.00000000E+00  1.84040989E-18 -1.54729593E-18 -4.63527798E-18  2.35223426E-05
  0.00000000E+00  8.09509336E-18  3.72972016E-18 -1.82703946E-17  1.01344527E-04
  2.58187653E-21  1.74331331E-16  1.89115804E-16 -2.13466621E-16  2.56497136E-03
  4.80205391E-15 -9.26132617E-19  1.23949972E-16 -1.26872403E-16 -1.12376084E-16
  4.04545156E-02 -1.84040989E-18  2.31111593E-33  2.37506198E-18  7.11504002E-18
  1.68773487E-02 -6.69559345E-18  2.32692170E-17  2.76455508E-18 -1.35424402E-17
  4.04271700E-02  3.67149097E-17  1.02071784E-15  6.71138745E-16 -7.57555515E-16
  2.69819690E-01  1.19264959E-15  4.80205391E-15 -1.60070784E-18  1.46101274E-16
 -1.14034862E-16 -1.46987040E-16  4.38849454E-02 -1.54729593E-18  2.37506198E-18
  9.62964972E-35  0.00000000E+00  8.50804914E-03  3.08526837E-18 -1.09289510E-17
  7.52059381E-18  1.08964830E-17 -1.17187881E-02 -4.29063493E-17 -7.65831895E-16
 -6.63748853E-17  7.49449716E-16 -1.87858434E-01  0.00000000E+00  0.00000000E+00
  4.80205391E-15 -1.41781250E-18  1.29407883E-16 -1.46987040E-16 -7.82791933E-17
  3.88706938E-02 -4.63527798E-18  7.11504002E-18 -3.08148791E-33 -6.16297582E-33
  2.54878022E-02 -1.51134852E-17  5.35365223E-17  1.08964830E-17 -4.36324719E-17
  5.74056159E-02  4.84310313E-17  8.64441489E-16  7.49449716E-16 -2.48367202E-16
  2.12047351E-01  0.00000000E+00  0.00000000E+00  0.00000000E+00  4.80205391E-15
  1.01457197E-04  4.04545156E-02 -4.38849454E-02 -3.88706938E-02  5.19132489E-17
  2.35223426E-05  1.68773487E-02 -8.50804914E-03 -2.54878022E-02  1.54074396E-33
  1.01344527E-04  4.04271700E-02  1.17187881E-02 -5.74056159E-02  9.74500293E-18
  2.56497136E-03  2.69819690E-01  1.87858434E-01 -2.12047351E-01  5.97582715E-16
  7.18554879E-02  8.38743577E-01  0.00000000E+00  0.00000000E+00  4.80205391E-15
  1.53128021E-21  1.44118050E-16 -7.42475060E-17 -2.22300491E-16  2.56704084E-03
  0.00000000E+00  6.69559345E-18  3.08526837E-18 -1.51134852E-17  1.01344527E-04
  0.00000000E+00  1.54717947E-18  2.72411633E-18 -3.07567827E-18  2.34896254E-05
  0.00000000E+00  7.16888258E-18  1.56582164E-17 -5.23036630E-18  1.01330663E-04
  4.13863082E-21  1.55061139E-16  2.52592882E-16  5.15281249E-17  2.56851859E-03
  4.04262387E-15 -1.94456367E-17  6.02811759E-16 -1.75809752E-16 -5.26382587E-16
  2.69924669E-01 -8.09509336E-18 -2.32692170E-17 -1.09289510E-17  5.35365223E-17
  4.04271700E-02 -1.54717947E-18 -7.70371978E-34 -4.18246230E-18  4.72223167E-18
  1.68635419E-02  1.67913538E-18  1.47122806E-16  1.98098405E-16 -6.61714716E-17
  4.04238045E-02  1.80939955E-16  1.62430934E-15  1.70221622E-15  3.47246561E-16
  2.69999593E-01  1.00403573E-15  4.04262387E-15 -8.76853305E-18  2.29563552E-16
  2.63481981E-16 -2.67898389E-16  8.97710268E-02  3.72972016E-18  2.76455508E-18
 -7.52059381E-18 -1.08964830E-17 -1.17187881E-02  2.72411633E-18 -4.18246230E-18
  6.16297582E-33 -6.16297582E-33 -1.78026033E-02 -3.66313659E-18 -2.12468907E-16
 -2.54653976E-16  1.05643902E-16 -5.55671733E-02 -2.93216782E-16 -1.67591594E-15
 -1.35502161E-15 -4.70450659E-16 -2.77712217E-01  0.00000000E+00  0.00000000E+00
  4.04262387E-15 -2.62533964E-17  6.87323968E-16 -2.67898389E-16 -4.49141245E-16
  2.68778636E-01 -1.82703946E-17 -1.35424402E-17 -1.08964830E-17  4.36324719E-17
  5.74056159E-02 -3.07567827E-18  4.72223167E-18  0.00000000E+00 -1.54074396E-33
  2.01001255E-02  1.22360974E-18  7.09716983E-17  1.05643902E-16  2.63249769E-17
  1.85612884E-02 -5.98152680E-17 -3.41881391E-16 -4.70450659E-16  8.55175508E-16
 -5.66523874E-02  0.00000000E+00  0.00000000E+00  0.00000000E+00  4.04262387E-15
  2.56704084E-03  2.69924669E-01 -8.97710268E-02 -2.68778636E-01  3.52959009E-16
  1.01344527E-04  4.04271700E-02  1.17187881E-02 -5.74056159E-02 -9.74500293E-18
  2.34896254E-05  1.68635419E-02  1.78026033E-02 -2.01001255E-02 -1.54074396E-33
  1.01330663E-04  4.04238045E-02  5.55671733E-02 -1.85612884E-02  6.16135621E-17
  2.56851859E-03  2.69999593E-01  2.77712217E-01  5.66523874E-02  9.51145910E-16
  7.18554879E-02  8.38743577E-01  0.00000000E+00  0.00000000E+00  4.04262387E-15
 -5.48250643E-18 -4.26684531E-16  1.45278967E-16 -5.25903600E-16  6.88213560E-02
 -3.06968844E-16 -3.29250244E-15 -9.90477572E-16 -2.96355676E-15  3.49417246E-01
 -2.22433479E-17 -5.92107380E-16 -6.03610582E-16 -4.65154722E-16  6.88317426E-02
  3.89581166E-20 -2.11981332E-17 -2.16510803E-17 -2.65467444E-17  4.61570853E-03
  5.25560400E-20 -1.74000172E-18 -8.83669257E-19 -2.64631274E-18  1.30153776E-03
  3.30076495E-19 -9.18578862E-18  5.53703051E-19 -1.40187982E-17  4.61470796E-03
 -8.58735257E-15 -9.11305220E-20 -2.29398441E-17  3.31202693E-17 -1.74160897E-17
  4.61145630E-03 -2.58626971E-17 -5.68850067E-16  7.10081982E-16 -1.84408293E-16
  6.88261926E-02 -2.58405947E-16 -2.77162999E-15  1.74442458E-15 -1.96875184E-15
  3.49406516E-01  2.52335163E-18 -2.88837430E-16  4.87401379E-17 -3.63973785E-16
  6.88382076E-02  4.01722795E-19 -2.61560766E-18  1.13479499E-18 -2.98581569E-18
  4.61336451E-03  4.41731286E-20 -1.46307440E-18  1.55560834E-18 -1.75616623E-18
  1.30023861E-03 -3.95459651E-16 -7.22893583E-15 -3.89581166E-20  2.11981332E-17
 -2.16510803E-17 -2.65467444E-17  4.61570853E-03 -5.25560400E-20  1.74000172E-18
 -8.83669257E-19 -2.64631274E-18  1.30153776E-03 -3.30076495E-19  9.18578862E-18
  5.53703051E-19 -1.40187982E-17  4.61470796E-03  5.48250643E-18  4.26684531E-16
  1.45278967E-16 -5.25903600E-16  6.88213560E-02  3.06968844E-16  3.29250244E-15
 -9.90477572E-16 -2.96355676E-15  3.49417246E-01  2.22433479E-17  5.92107380E-16
 -6.03610582E-16 -4.65154722E-16  6.88317426E-02  0.00000000E+00  5.17310296E-19
  8.58735257E-15 -2.52335163E-18  2.88837430E-16  4.87401379E-17 -3.63973785E-16
  6.88382076E-02 -4.01722795E-19  2.61560766E-18  1.13479499E-18 -2.98581569E-18
  4.61336451E-03 -4.41731286E-20  1.46307440E-18  1.55560834E-18 -1.75616623E-18
  1.30023861E-03  9.11305220E-20  2.29398441E-17  3.31202693E-17 -1.74160897E-17
  4.61145630E-03  2.58626971E-17  5.68850067E-16  7.10081982E-16 -1.84408293E-16
  6.88261926E-02  2.58405947E-16  2.77162999E-15  1.74442458E-15 -1.96875184E-15
  3.49406516E-01 -5.17310296E-19 -8.27548023E-36  3.95459651E-16  7.22893583E-15
  0.00000000E+00  1.58077988E-22 -6.36005532E-22 -1.29751844E-22  6.32765727E-09
  0.00000000E+00  3.01972404E-21 -9.52302886E-21 -5.48226471E-21  1.36181928E-07
  0.00000000E+00  1.52993083E-18 -2.84538439E-18 -2.37885424E-18  6.31570064E-05
  7.47083563E-23  4.14108392E-17 -6.76738376E-17 -1.38128988E-17  1.64835203E-03
  0.00000000E+00  1.99876498E-18 -4.62834839E-18  1.39994124E-18  6.31121590E-05
  0.00000000E+00  4.02838667E-21 -1.45207940E-20  1.74788147E-21  1.35990924E-07
  2.49874299E-22  1.30881666E-18  1.87744537E-18  3.70586071E-22  1.59859989E-15
 -6.84929411E-23  1.23044192E-19 -2.61990075E-19 -5.34487414E-20  1.75600606E-04
 -1.05419881E-20 -2.44788038E-18  4.30616531E-18  2.47899470E-18  9.25318841E-04
 -4.32753296E-18 -5.68889136E-17  7.32868316E-17  6.12706987E-17  3.03664320E-02
  2.12834963E-17  3.51918163E-16 -3.76828185E-16 -7.69143551E-17  2.15710392E-01
  5.32263219E-18  1.48925099E-16 -2.21315371E-16  6.69414854E-17  3.03534562E-02
  9.19946398E-21  4.30739772E-18 -8.54728922E-18  1.02884515E-18  9.24609145E-04
 -4.38150865E-19 -7.20554202E-17  1.44355909E-16  6.34093067E-19  3.97032089E-16
  1.59859989E-15 -2.75764844E-22  2.68580549E-19 -5.39920880E-19 -1.18233253E-19
  3.78537907E-04 -3.32025004E-20 -4.13680770E-18  6.66888157E-18  4.30822528E-18
  1.59450928E-03 -8.04073773E-18 -5.91719289E-17  6.12381499E-17  7.05418401E-17
  3.49031267E-02  3.53363943E-17  4.00277236E-16 -3.47774651E-16 -1.10522988E-16
  2.34274100E-01  1.23359781E-17  2.11320494E-16 -2.83272510E-16  1.04002021E-16
  4.35292983E-02  3.31852008E-20  8.47328630E-18 -1.58502607E-17  2.08048311E-18
  1.82535833E-03 -6.98610069E-19 -4.56759623E-17  1.59136391E-16  1.26081711E-18
  0.00000000E+00  0.00000000E+00  1.59859989E-15 -5.62589397E-23  5.47932675E-20
 -1.18233253E-19  1.55030621E-20  7.72257295E-05 -1.91141809E-20 -2.38149807E-18
  4.30822528E-18  1.66541156E-18  9.17935050E-04 -6.72237573E-18 -4.94700800E-17
  7.05418401E-17  3.58377393E-17  2.91803986E-02  7.21250716E-18  8.17005381E-17
 -1.10522988E-16  1.71154211E-16  4.78176581E-02 -3.73127583E-18 -6.39183247E-17
  1.04002021E-16  2.91111707E-17 -1.31663511E-02 -3.99453347E-21 -1.01993735E-18
  2.08048311E-18  1.18324280E-18 -2.19720079E-04 -5.62684295E-19 -9.17563644E-17
 -1.35756723E-16 -3.56411363E-19  0.00000000E+00  0.00000000E+00  0.00000000E+00
  1.59859989E-15  6.32765727E-09  1.75600606E-04 -3.78537907E-04 -7.72257295E-05
  3.96238940E-20  1.36181928E-07  9.25318841E-04 -1.59450928E-03 -9.17935050E-04
 -8.14769035E-19  6.31570064E-05  3.03664320E-02 -3.49031267E-02 -2.91803986E-02
 -2.31380375E-17  1.64835203E-03  2.15710392E-01 -2.34274100E-01 -4.78176581E-02
  1.93713044E-16  6.31121590E-05  3.03534562E-02 -4.35292983E-02  1.31663511E-02
  6.05687677E-17  1.35990924E-07  9.24609145E-04 -1.82535833E-03  2.19720079E-04
  1.43367249E-18  1.08729170E-04  2.20841071E-02  2.20813743E-02  1.08644829E-04
  7.18554879E-02  8.38743577E-01  0.00000000E+00  0.00000000E+00  1.59859989E-15
  0.00000000E+00  0.00000000E+00  0.00000000E+00  0.00000000E+00  0.00000000E+00
  0.00000000E+00 -2.09479024E-22  8.41932751E-22  1.90478613E-22  5.57087484E-09
  0.00000000E+00 -4.50058520E-19  1.22995761E-18  2.91265274E-19  1.15146084E-05
  0.00000000E+00 -2.47992047E-18  5.74939097E-18 -1.51654448E-18  6.96459408E-05
  0.00000000E+00 -6.14690565E-21  1.96239195E-20 -9.85134387E-21  2.01970823E-07
  0.00000000E+00 -5.93556315E-25  2.75372338E-24 -8.20187385E-25  5.62500714E-12
 -8.77079632E-23 -3.37157920E-18 -9.28331757E-21  0.00000000E+00 -7.58051686E-22
 -8.49662950E-17  9.49787076E-17 -9.75567173E-17  3.17928639E-03 -2.09570409E-15
  0.00000000E+00 -1.74738460E-20  4.51933140E-20 -7.38842042E-22  7.27982250E-06
 -4.38205644E-22 -9.44669586E-19  2.03877034E-18  4.61250792E-19  1.63982309E-04
 -8.12868372E-19 -5.40520558E-17  8.84488629E-17  2.09455043E-17  1.11239601E-02
  7.91841116E-19 -3.29194434E-17  4.31653381E-17 -1.13859287E-17  3.22091962E-02
  1.55999949E-20  2.56058194E-18 -4.61824425E-18  2.31839068E-18  1.14818593E-03
  1.17198673E-24  3.09410547E-20 -7.37146845E-20  2.19556745E-20  1.89238949E-05
 -2.80676826E-19 -1.73670682E-16  2.81085728E-18  4.01100058E-21  6.27336574E-17
 -1.00110120E-16  2.17683408E-17 -2.23591995E-17  2.98547576E-01 -5.20494076E-16
 -2.09570409E-15  0.00000000E+00 -4.52298647E-20  1.11796159E-19 -1.91772685E-21
  1.88355919E-05 -1.76228272E-21 -2.03194755E-18  4.13770264E-18  1.00487585E-18
  3.53259487E-04 -2.22269741E-18 -8.67219059E-17  1.31503333E-16  3.59310083E-17
  1.79076109E-02  1.83771004E-18 -5.28423182E-17  6.32672102E-17 -2.02404926E-17
  4.63511177E-02  4.97594764E-20  4.36327289E-18 -7.25911748E-18  4.07469867E-18
  2.01176990E-03  5.43718499E-24  7.30522561E-20 -1.65042033E-19  5.20715709E-20
  4.48813832E-05 -5.61691177E-19 -2.01718730E-16  3.74704056E-18  9.41838276E-21
  6.92459445E-17 -1.21872869E-16  8.57793103E-18 -7.09175996E-17  2.12602110E-01
  0.00000000E+00  0.00000000E+00 -2.09570409E-15  0.00000000E+00  7.39439590E-22
 -1.91772685E-21 -5.47554825E-21 -3.07933318E-07 -3.98698314E-22 -4.59707204E-19
  1.00487585E-18 -7.65969645E-20  7.99213206E-05 -5.26355192E-19 -2.05365450E-17
  3.59310083E-17 -1.17176573E-17  4.24068698E-03 -4.84741609E-19  1.39384722E-17
 -2.02404926E-17 -8.12784528E-18 -1.22262570E-02 -2.49796027E-20 -2.19039329E-18
  4.07469867E-18 -1.18782716E-18 -1.00992246E-03 -1.61944753E-24 -2.17583724E-20
  5.20715709E-20 -5.72461879E-21 -1.33677713E-05 -2.45028796E-19 -1.41343184E-16
 -3.39691595E-18 -3.85127713E-21 -7.11254891E-17  1.25180868E-16 -7.09175996E-17
  1.23769004E-17 -2.18372775E-01  0.00000000E+00  0.00000000E+00  0.00000000E+00
 -2.09570409E-15  0.00000000E+00  7.27982250E-06 -1.88355919E-05  3.07933318E-07
 -5.50690017E-21  5.57087484E-09  1.63982309E-04 -3.53259487E-04 -7.99213206E-05
 -3.03939775E-19  1.15146084E-05  1.11239601E-02 -1.79076109E-02 -4.24068698E-03
 -2.02264506E-17  6.96459408E-05  3.22091962E-02 -4.63511177E-02  1.22262570E-02
 -1.34667773E-17  2.01970823E-07  1.14818593E-03 -2.01176990E-03  1.00992246E-03
  8.57699874E-19  5.62500714E-12  1.89238949E-05 -4.48813832E-05  1.33677713E-05
  9.78472606E-21  3.92845695E-05  2.84464891E-02  7.93024218E-04  1.41271175E-06
  3.17928639E-03  2.98547576E-01 -2.12602110E-01  2.18372775E-01 -6.04656176E-17
  7.18554879E-02  8.38743577E-01  0.00000000E+00  0.00000000E+00 -2.09570409E-15
 -3.88667633E-23  1.66431308E-19 -3.24533670E-19 -1.39872823E-19  5.90862036E-05
 -1.25988909E-21 -7.34421756E-20  1.29168533E-19  1.07948630E-19  1.32539397E-04
 -2.57044333E-19  4.38707527E-19  1.64785470E-20  2.02408938E-20  3.86325406E-03
  4.11916488E-18  2.52221768E-16 -2.58043609E-16 -2.02366322E-16  6.08350507E-02
  5.54826877E-18  1.69361672E-16 -2.44281612E-16 -3.03849767E-17  2.39715440E-02
  1.92361258E-20  4.83225798E-18 -8.89101472E-18 -1.34482120E-18  7.24208006E-04
 -2.30453681E-20 -2.41230704E-18  3.90803571E-16  1.31673923E-18  1.12763769E-16
  1.77156547E-15 -3.76753543E-16 -1.62553502E-15  3.50014722E-01 -1.05582971E-17
  1.54188594E-16  6.08512782E-17 -1.81571619E-16  7.33033803E-02  5.50345343E-15
  0.00000000E+00 -5.19094627E-22  1.39581271E-21  3.01338017E-23  3.24804648E-07
 -1.22294243E-23 -3.99899335E-20  9.24464892E-20  2.04945730E-20  8.04255779E-06
 -2.25763217E-20 -3.44232108E-18  6.25116055E-18  1.42407533E-18  8.16912073E-04
  3.80110682E-20 -1.01606137E-18  1.55170524E-18 -1.86880427E-19  3.37353700E-03
  1.13799074E-21  3.72674854E-19 -7.39656121E-19  2.44651439E-19  1.22209394E-04
  0.00000000E+00  3.06957312E-21 -7.71731361E-21  1.58055634E-21  1.25650379E-06
 -1.40242800E-20 -1.81806301E-17  7.04982063E-19  4.34675137E-22  8.60742007E-18
  1.30098307E-17 -1.80547955E-17  6.59325781E-18  7.33056817E-02 -1.25705456E-16
 -8.66438671E-16  8.14919256E-16  1.66047944E-16  3.50013253E-01  9.67427758E-17
 -1.49860446E-15 -2.76796389E-23 -1.48336262E-19  3.17484147E-19 -7.44972709E-20
  3.36490152E-05 -3.62107320E-20 -7.29263666E-18  1.33405337E-17 -3.67689393E-19
  9.63007553E-04 -5.46121217E-18 -1.79757353E-16  2.55523437E-16 -3.78117609E-17
  2.64262250E-02  4.72695431E-19 -6.40810977E-17  7.26928895E-17 -5.69279917E-17
  2.04761766E-02  1.53962312E-20  1.50240448E-19 -2.97997097E-19  2.63998663E-19
  6.04511064E-04  7.25201839E-23 -1.08105131E-20  1.92116303E-20 -1.06294029E-20
  2.68462105E-05 -3.98461048E-18 -8.58843281E-16  3.43078009E-19  1.28178483E-21
  7.68446248E-18 -2.04839005E-16  8.14906867E-17 -2.43156700E-16  7.33033790E-02
 -1.43129668E-16 -2.01316307E-15 -4.28880201E-16 -1.85043991E-15  3.50014718E-01
 -3.51562056E-18 -5.70711411E-16 -6.00055767E-15 -7.47083563E-23 -4.14108392E-17
 -6.76738376E-17 -1.38128988E-17  1.64835203E-03  0.00000000E+00 -1.99876498E-18
 -4.62834839E-18  1.39994124E-18  6.31121590E-05  0.00000000E+00 -4.02838667E-21
 -1.45207940E-20  1.74788147E-21  1.35990924E-07  0.00000000E+00 -1.58077988E-22
 -6.36005532E-22 -1.29751844E-22  6.32765727E-09  0.00000000E+00 -3.01972404E-21
 -9.52302886E-21 -5.48226471E-21  1.36181928E-07  0.00000000E+00 -1.52993083E-18
 -2.84538439E-18 -2.37885424E-18  6.31570064E-05 -1.87744537E-18 -3.70586071E-22
 -2.49874299E-22 -1.30881666E-18  0.00000000E+00  0.00000000E+00  0.00000000E+00
  0.00000000E+00  0.00000000E+00  0.00000000E+00  0.00000000E+00  0.00000000E+00
  0.00000000E+00  0.00000000E+00  0.00000000E+00  0.00000000E+00  0.00000000E+00
 -1.59859989E-15 -2.12834963E-17 -3.51918163E-16 -3.76828185E-16 -7.69143551E-17
  2.15710392E-01 -5.32263219E-18 -1.48925099E-16 -2.21315371E-16  6.69414854E-17
  3.03534562E-02 -9.19946398E-21 -4.30739772E-18 -8.54728922E-18  1.02884515E-18
  9.24609145E-04  6.84929411E-23 -1.23044192E-19 -2.61990075E-19 -5.34487414E-20
  1.75600606E-04  1.05419881E-20  2.44788038E-18  4.30616531E-18  2.47899470E-18
  9.25318841E-04  4.32753296E-18  5.68889136E-17  7.32868316E-17  6.12706987E-17
  3.03664320E-02 -1.44355909E-16 -6.34093067E-19  4.38150865E-19  7.20554202E-17
  0.00000000E+00  0.00000000E+00  0.00000000E+00  0.00000000E+00  3.34186198E-07
  0.00000000E+00  0.00000000E+00  0.00000000E+00  0.00000000E+00  0.00000000E+00
  3.52624439E-22  0.00000000E+00 -5.93880396E-22 -3.97032089E-16 -1.59859989E-15
  3.53363943E-17  4.00277236E-16  3.47774651E-16  1.10522988E-16 -2.34274100E-01
  1.23359781E-17  2.11320494E-16  2.83272510E-16 -1.04002021E-16 -4.35292983E-02
  3.31852008E-20  8.47328630E-18  1.58502607E-17 -2.08048311E-18 -1.82535833E-03
 -2.75764844E-22  2.68580549E-19  5.39920880E-19  1.18233253E-19 -3.78537907E-04
 -3.32025004E-20 -4.13680770E-18 -6.66888157E-18 -4.30822528E-18 -1.59450928E-03
 -8.04073773E-18 -5.91719289E-17 -6.12381499E-17 -7.05418401E-17 -3.49031267E-02
  1.59136391E-16  1.26081711E-18 -6.98610069E-19 -4.56759623E-17  0.00000000E+00
  0.00000000E+00  0.00000000E+00  0.00000000E+00 -9.58769641E-07  0.00000000E+00
  0.00000000E+00  0.00000000E+00  0.00000000E+00  0.00000000E+00 -9.11121563E-22
  0.00000000E+00  1.64420226E-21  0.00000000E+00  0.00000000E+00 -1.59859989E-15
  7.21250716E-18  8.17005381E-17  1.10522988E-16 -1.71154211E-16 -4.78176581E-02
 -3.73127583E-18 -6.39183247E-17 -1.04002021E-16 -2.91111707E-17  1.31663511E-02
 -3.99453347E-21 -1.01993735E-18 -2.08048311E-18 -1.18324280E-18  2.19720079E-04
 -5.62589397E-23  5.47932675E-20  1.18233253E-19 -1.55030621E-20 -7.72257295E-05
 -1.91141809E-20 -2.38149807E-18 -4.30822528E-18 -1.66541156E-18 -9.17935050E-04
 -6.72237573E-18 -4.94700800E-17 -7.05418401E-17 -3.58377393E-17 -2.91803986E-02
 -1.35756723E-16 -3.56411363E-19 -5.62684295E-19 -9.17563644E-17  0.00000000E+00
  0.00000000E+00  0.00000000E+00  0.00000000E+00 -1.95624113E-07  0.00000000E+00
  0.00000000E+00  0.00000000E+00  0.00000000E+00  0.00000000E+00 -3.40695411E-22
  0.00000000E+00 -2.16468984E-22  0.00000000E+00  0.00000000E+00  0.00000000E+00
 -1.59859989E-15  1.64835203E-03  2.15710392E-01  2.34274100E-01  4.78176581E-02
 -1.93713044E-16  6.31121590E-05  3.03534562E-02  4.35292983E-02 -1.31663511E-02
 -6.05687677E-17  1.35990924E-07  9.24609145E-04  1.82535833E-03 -2.19720079E-04
 -1.43367249E-18  6.32765727E-09  1.75600606E-04  3.78537907E-04  7.72257295E-05
 -3.96238940E-20  1.36181928E-07  9.25318841E-04  1.59450928E-03  9.17935050E-04
  8.14769035E-19  6.31570064E-05  3.03664320E-02  3.49031267E-02  2.91803986E-02
  2.31380375E-17  2.20813743E-02  1.08644829E-04  1.08729170E-04  2.20841071E-02
  0.00000000E+00  3.34186198E-07  9.58769641E-07  1.95624113E-07  0.00000000E+00
  0.00000000E+00  0.00000000E+00  0.00000000E+00  0.00000000E+00  0.00000000E+00
  1.62173013E-07  0.00000000E+00  1.14540247E-07  7.18554879E-02  8.38743577E-01
  0.00000000E+00  0.00000000E+00 -1.59859989E-15  0.00000000E+00  2.47992047E-18
  5.74939097E-18 -1.51654448E-18  6.96459408E-05  0.00000000E+00  6.14690565E-21
  1.96239195E-20 -9.85134387E-21  2.01970823E-07  0.00000000E+00  5.93556315E-25
  2.75372338E-24 -8.20187385E-25  5.62500714E-12  0.00000000E+00  0.00000000E+00
  0.00000000E+00  0.00000000E+00  0.00000000E+00  0.00000000E+00  2.09479024E-22
  8.41932751E-22  1.90478613E-22  5.57087484E-09  0.00000000E+00  4.50058520E-19
  1.22995761E-18  2.91265274E-19  1.15146084E-05  9.28331757E-21  0.00000000E+00
  8.77079632E-23  3.37157920E-18  0.00000000E+00  0.00000000E+00  0.00000000E+00
  0.00000000E+00  0.00000000E+00  0.00000000E+00  0.00000000E+00  0.00000000E+00
  0.00000000E+00  0.00000000E+00  0.00000000E+00  0.00000000E+00  0.00000000E+00
  7.58051686E-22  8.49662950E-17  9.49787076E-17 -9.75567173E-17  3.17928639E-03
  2.09570409E-15 -7.91841116E-19  3.29194434E-17  4.31653381E-17 -1.13859287E-17
  3.22091962E-02 -1.55999949E-20 -2.56058194E-18 -4.61824425E-18  2.31839068E-18
  1.14818593E-03 -1.17198673E-24 -3.09410547E-20 -7.37146845E-20  2.19556745E-20
  1.89238949E-05  0.00000000E+00  1.74738460E-20  4.51933140E-20 -7.38842042E-22
  7.27982250E-06  4.38205644E-22  9.44669586E-19  2.03877034E-18  4.61250792E-19
  1.63982309E-04  8.12868372E-19  5.40520558E-17  8.84488629E-17  2.09455043E-17
  1.11239601E-02 -2.81085728E-18 -4.01100058E-21  2.80676826E-19  1.73670682E-16
  0.00000000E+00  0.00000000E+00  0.00000000E+00  0.00000000E+00  0.00000000E+00
  0.00000000E+00  0.00000000E+00  0.00000000E+00  0.00000000E+00  0.00000000E+00
  0.00000000E+00  0.00000000E+00  0.00000000E+00 -6.27336574E-17  1.00110120E-16
  2.17683408E-17 -2.23591995E-17  2.98547576E-01  5.20494076E-16  2.09570409E-15
  1.83771004E-18 -5.28423182E-17 -6.32672102E-17  2.02404926E-17 -4.63511177E-02
  4.97594764E-20  4.36327289E-18  7.25911748E-18 -4.07469867E-18 -2.01176990E-03
  5.43718499E-24  7.30522561E-20  1.65042033E-19 -5.20715709E-20 -4.48813832E-05
  0.00000000E+00 -4.52298647E-20 -1.11796159E-19  1.91772685E-21 -1.88355919E-05
 -1.76228272E-21 -2.03194755E-18 -4.13770264E-18 -1.00487585E-18 -3.53259487E-04
 -2.22269741E-18 -8.67219059E-17 -1.31503333E-16 -3.59310083E-17 -1.79076109E-02
  3.74704056E-18  9.41838276E-21 -5.61691177E-19 -2.01718730E-16  0.00000000E+00
  0.00000000E+00  0.00000000E+00  0.00000000E+00  0.00000000E+00  0.00000000E+00
  0.00000000E+00  0.00000000E+00  0.00000000E+00  0.00000000E+00  0.00000000E+00
  0.00000000E+00  0.00000000E+00  6.92459445E-17 -1.21872869E-16 -8.57793103E-18
  7.09175996E-17 -2.12602110E-01  0.00000000E+00  0.00000000E+00  2.09570409E-15
 -4.84741609E-19  1.39384722E-17  2.02404926E-17  8.12784528E-18  1.22262570E-02
 -2.49796027E-20 -2.19039329E-18 -4.07469867E-18  1.18782716E-18  1.00992246E-03
 -1.61944753E-24 -2.17583724E-20 -5.20715709E-20  5.72461879E-21  1.33677713E-05
  0.00000000E+00  7.39439590E-22  1.91772685E-21  5.47554825E-21  3.07933318E-07
 -3.98698314E-22 -4.59707204E-19 -1.00487585E-18  7.65969645E-20 -7.99213206E-05
 -5.26355192E-19 -2.05365450E-17 -3.59310083E-17  1.17176573E-17 -4.24068698E-03
 -3.39691595E-18 -3.85127713E-21 -2.45028796E-19 -1.41343184E-16  0.00000000E+00
  0.00000000E+00  0.00000000E+00  0.00000000E+00  0.00000000E+00  0.00000000E+00
  0.00000000E+00  0.00000000E+00  0.00000000E+00  0.00000000E+00  0.00000000E+00
  0.00000000E+00  0.00000000E+00 -7.11254891E-17  1.25180868E-16  7.09175996E-17
 -1.23769004E-17  2.18372775E-01  0.00000000E+00  0.00000000E+00  0.00000000E+00
  2.09570409E-15  6.96459408E-05  3.22091962E-02  4.63511177E-02 -1.22262570E-02
  1.34667773E-17  2.01970823E-07  1.14818593E-03  2.01176990E-03 -1.00992246E-03
 -8.57699874E-19  5.62500714E-12  1.89238949E-05  4.48813832E-05 -1.33677713E-05
 -9.78472606E-21  0.00000000E+00  7.27982250E-06  1.88355919E-05 -3.07933318E-07
  5.50690017E-21  5.57087484E-09  1.63982309E-04  3.53259487E-04  7.99213206E-05
  3.03939775E-19  1.15146084E-05  1.11239601E-02  1.79076109E-02  4.24068698E-03
  2.02264506E-17  7.93024218E-04  1.41271175E-06  3.92845695E-05  2.84464891E-02
  0.00000000E+00  0.00000000E+00  0.00000000E+00  0.00000000E+00  0.00000000E+00
  0.00000000E+00  0.00000000E+00  0.00000000E+00  0.00000000E+00  0.00000000E+00
  0.00000000E+00  0.00000000E+00  0.00000000E+00  3.17928639E-03  2.98547576E-01
  2.12602110E-01 -2.18372775E-01  6.04656176E-17  7.18554879E-02  8.38743577E-01
  0.00000000E+00  0.00000000E+00  2.09570409E-15 -4.11916488E-18 -2.52221768E-16
 -2.58043609E-16 -2.02366322E-16  6.08350507E-02 -5.54826877E-18 -1.69361672E-16
 -2.44281612E-16 -3.03849767E-17  2.39715440E-02 -1.92361258E-20 -4.83225798E-18
 -8.89101472E-18 -1.34482120E-18  7.24208006E-04  3.88667633E-23 -1.66431308E-19
 -3.24533670E-19 -1.39872823E-19  5.90862036E-05  1.25988909E-21  7.34421756E-20
  1.29168533E-19  1.07948630E-19  1.32539397E-04  2.57044333E-19 -4.38707527E-19
  1.64785470E-20  2.02408938E-20  3.86325406E-03 -3.90803571E-16 -1.31673923E-18
  2.30453681E-20  2.41230704E-18  0.00000000E+00 -3.52624439E-22 -9.11121563E-22
 -3.40695411E-22  1.62173013E-07  0.00000000E+00  0.00000000E+00  0.00000000E+00
  0.00000000E+00  0.00000000E+00  0.00000000E+00  0.00000000E+00 -1.63064300E-21
 -1.12763769E-16 -1.77156547E-15 -3.76753543E-16 -1.62553502E-15  3.50014722E-01
  1.05582971E-17 -1.54188594E-16  6.08512782E-17 -1.81571619E-16  7.33033803E-02
 -5.50345343E-15 -3.80110682E-20  1.01606137E-18  1.55170524E-18 -1.86880427E-19
  3.37353700E-03 -1.13799074E-21 -3.72674854E-19 -7.39656121E-19  2.44651439E-19
  1.22209394E-04  0.00000000E+00 -3.06957312E-21 -7.71731361E-21  1.58055634E-21
  1.25650379E-06  0.00000000E+00  5.19094627E-22  1.39581271E-21  3.01338017E-23
  3.24804648E-07  1.22294243E-23  3.99899335E-20  9.24464892E-20  2.04945730E-20
  8.04255779E-06  2.25763217E-20  3.44232108E-18  6.25116055E-18  1.42407533E-18
  8.16912073E-04 -7.04982063E-19 -4.34675137E-22  1.40242800E-20  1.81806301E-17
  0.00000000E+00  0.00000000E+00  0.00000000E+00  0.00000000E+00  0.00000000E+00
  0.00000000E+00  0.00000000E+00  0.00000000E+00  0.00000000E+00  0.00000000E+00
  0.00000000E+00  0.00000000E+00  0.00000000E+00 -8.60742007E-18 -1.30098307E-17
 -1.80547955E-17  6.59325781E-18  7.33056817E-02  1.25705456E-16  8.66438671E-16
  8.14919256E-16  1.66047944E-16  3.50013253E-01 -9.67427758E-17  1.49860446E-15
 -4.72695431E-19  6.40810977E-17  7.26928895E-17 -5.69279917E-17  2.04761766E-02
 -1.53962312E-20 -1.50240448E-19 -2.97997097E-19  2.63998663E-19  6.04511064E-04
 -7.25201839E-23  1.08105131E-20  1.92116303E-20 -1.06294029E-20  2.68462105E-05
  2.76796389E-23  1.48336262E-19  3.17484147E-19 -7.44972709E-20  3.36490152E-05
  3.62107320E-20  7.29263666E-18  1.33405337E-17 -3.67689393E-19  9.63007553E-04
  5.46121217E-18  1.79757353E-16  2.55523437E-16 -3.78117609E-17  2.64262250E-02
 -3.43078009E-19 -1.28178483E-21  3.98461048E-18  8.58843281E-16  0.00000000E+00
  5.93880396E-22  1.64420226E-21 -2.16468984E-22  1.14540247E-07  0.00000000E+00
  0.00000000E+00  0.00000000E+00  0.00000000E+00  0.00000000E+00  1.63064300E-21
  0.00000000E+00  0.00000000E+00 -7.68446248E-18  2.04839005E-16  8.14906867E-17
 -2.43156700E-16  7.33033790E-02  1.43129668E-16  2.01316307E-15 -4.28880201E-16
 -1.85043991E-15  3.50014718E-01  3.51562056E-18  5.70711411E-16  6.00055767E-15
Multipole Matrix (2,0,0)                   R   N=        1830
  6.70245180E+00  1.68327484E+00  7.51273710E+00  3.71191477E-01  4.33278622E+00
  8.19655734E+00  0.00000000E+00  0.00000000E+00  0.00000000E+00  7.17977692E+00
  0.00000000E+00  0.00000000E+00  0.00000000E+00  0.00000000E+00  7.17977692E+00
  2.77709836E-06  3.63970559E-02 -3.71557177E-02  4.75886870E-02 -9.74887738E-17
  7.27614078E-01  2.39785126E-01  1.42691677E+00 -4.59306809E-02  1.17975669E+00
 -2.41681460E-15  1.99349858E-01  1.53789938E+00  2.70775297E-01  1.75019683E+00
  3.32300677E-01  1.64620791E+00 -3.37237274E-15  1.19940477E-01  1.40002257E+00
  2.22171962E+00 -2.91500494E-01 -1.02178622E+00  1.96865169E-01 -2.99920747E-01
  2.25577321E-15  0.00000000E+00  0.00000000E+00  0.00000000E+00  1.20493920E+00
  5.97159274E-16  2.09320096E-15 -4.03292152E-16  2.25577321E-15  8.01224349E-01
  0.00000000E+00  0.00000000E+00  0.00000000E+00  0.00000000E+00  1.20493920E+00
  0.00000000E+00  4.61772224E-03 -1.04022153E-02  3.37252139E-03 -7.65434589E-18
  2.62141363E-07  1.03178605E-01 -1.68258611E-01 -3.27108044E-02  4.71548000E-17
  3.08601892E+00  1.06645405E-02  8.64789026E-02 -8.58380958E-02  4.58115626E-02
 -1.03974892E-16  2.28121166E-02  4.56002078E-01 -5.38675988E-01 -8.28495338E-02
  1.19433113E-16  7.85088922E-01  3.89630422E+00  2.37837281E-02  1.37521966E-01
 -7.62453911E-02  7.83158784E-02 -1.77747374E-16  3.74099799E-02  1.27198399E-01
  2.13096957E-01 -3.76586000E-02  5.42873765E-17 -2.51184169E-01 -2.93198355E+00
  4.58012446E+00 -7.78586284E-03 -4.05242337E-02  4.73162939E-02  1.63414986E-02
  5.42672013E-17  6.97513744E-03  9.95110344E-02 -1.41133904E-01  2.24419885E-01
  3.25557776E-17  0.00000000E+00  0.00000000E+00  0.00000000E+00  3.56334404E+00
  1.76709590E-17  9.19746580E-17 -1.07390062E-16  5.42672013E-17  4.02517451E-02
 -1.00551245E-17 -1.43451774E-16  2.03453910E-16  3.25557776E-17  2.47003496E-01
  0.00000000E+00  0.00000000E+00  0.00000000E+00  0.00000000E+00  3.56334404E+00
  0.00000000E+00  2.36372579E-03 -6.26258087E-03 -1.25526279E-03  1.80941503E-18
  0.00000000E+00  1.10474783E-02 -1.95352293E-02 -1.68727774E-02  3.09996496E-17
  4.43972685E-06  2.48820842E-01 -1.42303098E-01 -3.87393489E-01  7.44040662E-16
  6.70245180E+00  2.36372579E-03  3.38965356E-02 -5.28300838E-02 -1.20850339E-02
  1.74201308E-17  1.04475480E-03  1.17400733E-01 -1.77820920E-01 -1.07138238E-01
  1.96840613E-16  1.25639016E-01  2.06128282E+00 -1.78761725E+00 -1.96260885E+00
  3.76945103E-15  1.68327484E+00  7.51273710E+00  6.26258087E-03  5.28300838E-02
 -5.67791270E-02 -2.09438738E-02  3.01898219E-17  1.93337663E-03  5.70253476E-02
 -3.36577185E-02 -6.12221547E-02  1.12480909E-16  5.75482967E-02 -5.09850132E-01
  1.19609684E+00  3.31478005E-01 -6.36647548E-16 -3.71191477E-01 -4.33278622E+00
  8.19655734E+00  1.25526279E-03  1.20850339E-02 -2.09438738E-02  1.05565945E-02
  6.84186725E-18  1.59631805E-03  1.25436147E-01 -1.97138019E-01 -7.67725717E-02
  2.33793803E-16  2.00204497E-01  2.08381578E+00 -1.99654567E+00 -1.42705632E+00
  4.97544801E-15  0.00000000E+00  0.00000000E+00  0.00000000E+00  7.17977692E+00
 -1.80941503E-18 -1.74201308E-17  3.01898219E-17  6.84186725E-18  1.53030685E-02
 -2.93284850E-18 -2.30458596E-16  3.62193452E-16  2.33793803E-16  5.04788927E-02
 -3.84519334E-16 -4.00224505E-15  3.83463121E-15  4.97544801E-15  1.16346898E+00
  0.00000000E+00  0.00000000E+00  0.00000000E+00  0.00000000E+00  7.17977692E+00
  0.00000000E+00  1.04475480E-03 -1.93337663E-03 -1.59631805E-03  2.93284850E-18
  0.00000000E+00  2.86955389E-04 -2.76014482E-04 -7.22214981E-04  1.38712402E-18
  0.00000000E+00  1.60916757E-03  5.60493324E-04 -3.62426252E-03  7.16541725E-18
  2.77709836E-06  3.63970559E-02  3.71557177E-02 -4.75886870E-02  9.74887738E-17
  7.27614078E-01  1.10474783E-02  1.17400733E-01 -5.70253476E-02 -1.25436147E-01
  2.30458596E-16  2.86955389E-04  2.81012620E-02 -1.16080407E-02 -4.09973516E-02
  7.87416665E-17  5.55305656E-03  1.64535481E-01 -6.00085676E-02 -2.35592286E-01
  4.65782217E-16  2.39785126E-01  1.42691677E+00  4.59306809E-02 -1.17975669E+00
  2.41681460E-15  1.99349858E-01  1.53789938E+00  1.95352293E-02  1.77820920E-01
 -3.36577185E-02 -1.97138019E-01  3.62193452E-16  2.76014482E-04  1.16080407E-02
  2.47160402E-02 -1.76063093E-02  3.38156023E-17 -2.90111992E-03 -1.46615720E-01
  9.89875338E-02  2.14544084E-01 -4.24168467E-16 -2.70775297E-01 -1.75019683E+00
  3.32300677E-01  1.64620791E+00 -3.37237274E-15 -1.19940477E-01 -1.40002257E+00
  2.22171962E+00  1.68727774E-02  1.07138238E-01 -6.12221547E-02 -7.67725717E-02
  2.33793803E-16  7.22214981E-04  4.09973516E-02 -1.76063093E-02 -5.32512298E-02
  1.21863397E-16  1.25259665E-02  2.24927993E-01 -8.19487729E-02 -2.86733748E-01
  6.97443510E-16  2.91500494E-01  1.02178622E+00  1.96865169E-01 -2.99920747E-01
  2.25577321E-15  0.00000000E+00  0.00000000E+00  0.00000000E+00  1.20493920E+00
 -3.09996496E-17 -1.96840613E-16  1.12480909E-16  2.33793803E-16  5.04788927E-02
 -1.38712402E-18 -7.87416665E-17  3.38156023E-17  1.21863397E-16  1.01977262E-02
 -2.47647007E-17 -4.44698173E-16  1.62018383E-16  6.97443510E-16  6.60326416E-02
 -5.97159274E-16 -2.09320096E-15 -4.03292152E-16  2.25577321E-15  8.01224349E-01
  0.00000000E+00  0.00000000E+00  0.00000000E+00  0.00000000E+00  1.20493920E+00
  4.43972685E-06  1.25639016E-01 -5.75482967E-02 -2.00204497E-01  3.84519334E-16
  0.00000000E+00  5.55305656E-03  2.90111992E-03 -1.25259665E-02  2.47647007E-17
  0.00000000E+00  1.10614142E-03  2.02159606E-03 -2.20000966E-03  4.50682137E-18
  0.00000000E+00  4.61772224E-03  1.04022153E-02 -3.37252139E-03  7.65434589E-18
  2.62141363E-07  1.03178605E-01  1.68258611E-01  3.27108044E-02 -4.71548000E-17
  3.08601892E+00  2.48820842E-01  2.06128282E+00  5.09850132E-01 -2.08381578E+00
  4.00224505E-15  1.60916757E-03  1.64535481E-01  1.46615720E-01 -2.24927993E-01
  4.44698173E-16  1.10614142E-03  3.03729144E-02  2.88115947E-02 -3.74360039E-02
  7.66893824E-17  1.06645405E-02  8.64789026E-02  8.58380958E-02 -4.58115626E-02
  1.03974892E-16  2.28121166E-02  4.56002078E-01  5.38675988E-01  8.28495338E-02
 -1.19433113E-16  7.85088922E-01  3.89630422E+00  1.42303098E-01  1.78761725E+00
  1.19609684E+00 -1.99654567E+00  3.83463121E-15 -5.60493324E-04  6.00085676E-02
  9.89875338E-02 -8.19487729E-02  1.62018383E-16 -2.02159606E-03 -2.88115947E-02
  2.47348227E-03  3.85526666E-02 -7.89769176E-17 -2.37837281E-02 -1.37521966E-01
 -7.62453911E-02  7.83158784E-02 -1.77747374E-16 -3.74099799E-02 -1.27198399E-01
  2.13096957E-01 -3.76586000E-02  5.42873765E-17  2.51184169E-01  2.93198355E+00
  4.58012446E+00  3.87393489E-01  1.96260885E+00  3.31478005E-01 -1.42705632E+00
  4.97544801E-15  3.62426252E-03  2.35592286E-01  2.14544084E-01 -2.86733748E-01
  6.97443510E-16  2.20000966E-03  3.74360039E-02  3.85526666E-02 -3.79833254E-02
  1.02816127E-16  7.78586284E-03  4.05242337E-02  4.73162939E-02  1.63414986E-02
  5.42672013E-17 -6.97513744E-03 -9.95110344E-02 -1.41133904E-01  2.24419885E-01
  3.25557776E-17  0.00000000E+00  0.00000000E+00  0.00000000E+00  3.56334404E+00
 -7.44040662E-16 -3.76945103E-15 -6.36647548E-16  4.97544801E-15  1.16346898E+00
 -7.16541725E-18 -4.65782217E-16 -4.24168467E-16  6.97443510E-16  6.60326416E-02
 -4.50682137E-18 -7.66893824E-17 -7.89769176E-17  1.02816127E-16  1.22064766E-02
 -1.76709590E-17 -9.19746580E-17 -1.07390062E-16  5.42672013E-17  4.02517451E-02
  1.00551245E-17  1.43451774E-16  2.03453910E-16  3.25557776E-17  2.47003496E-01
  0.00000000E+00  0.00000000E+00  0.00000000E+00  0.00000000E+00  3.56334404E+00
  3.47995535E-02  5.10012953E-01  1.24517400E-01  6.24259281E-01 -1.23892437E-15
  5.28659130E-02  1.09420594E+00  1.06707072E+00  8.90315812E-01 -1.70994897E-15
  1.46787295E-02  1.29707787E-01  6.77011451E-02  1.03357274E-01 -1.88065856E-16
  5.56315410E-04  1.29524405E-02  5.64224862E-03  1.75278371E-02 -3.27792842E-17
  8.17743927E-06  2.37086376E-03  1.64585469E-03  3.95744672E-03 -7.60083184E-18
  2.87843061E-04  2.50084046E-02  1.35737908E-02  4.07469358E-02 -7.98559418E-17
  2.87947634E+00  5.29896657E-04  9.58784365E-03 -1.31489748E-02  8.26360202E-03
 -1.78088766E-17  3.12406279E-03  2.41883103E-01 -4.03504051E-01  7.93503750E-02
 -1.87226058E-16  2.11372441E-01  3.40416727E+00 -3.68063089E+00  2.33565556E+00
 -4.78478643E-15  3.63832305E-02  8.70363944E-01 -5.31603549E-01  1.09631031E+00
 -2.15940669E-15  8.71969790E-05  2.95045340E-02 -3.32028261E-02  4.46432995E-02
 -8.90865337E-17  3.13673036E-05  2.69123735E-03 -3.95736116E-03  3.70299332E-03
 -7.58579229E-18  1.26972338E-01  1.04213395E+01  5.56315410E-04  1.29524405E-02
 -5.64224862E-03 -1.75278371E-02  3.27792842E-17  8.17743927E-06  2.37086376E-03
 -1.64585469E-03 -3.95744672E-03  7.60083184E-18  2.87843061E-04  2.50084046E-02
 -1.35737908E-02 -4.07469358E-02  7.98559418E-17  3.47995535E-02  5.10012953E-01
 -1.24517400E-01 -6.24259281E-01  1.23892437E-15  5.28659130E-02  1.09420594E+00
 -1.06707072E+00 -8.90315812E-01  1.70994897E-15  1.46787295E-02  1.29707787E-01
 -6.77011451E-02 -1.03357274E-01  1.88065856E-16  1.64834345E-04  5.15832344E-03
  2.87947634E+00  3.63832305E-02  8.70363944E-01  5.31603549E-01 -1.09631031E+00
  2.15940669E-15  8.71969790E-05  2.95045340E-02  3.32028261E-02 -4.46432995E-02
  8.90865337E-17  3.13673036E-05  2.69123735E-03  3.95736116E-03 -3.70299332E-03
  7.58579229E-18  5.29896657E-04  9.58784365E-03  1.31489748E-02 -8.26360202E-03
  1.78088766E-17  3.12406279E-03  2.41883103E-01  4.03504051E-01 -7.93503750E-02
  1.87226058E-16  2.11372441E-01  3.40416727E+00  3.68063089E+00 -2.33565556E+00
  4.78478643E-15  5.15832344E-03  1.71275753E-04  1.26972338E-01  1.04213395E+01
  0.00000000E+00  2.71960134E-06 -1.10107149E-05 -2.23343668E-06  3.21972528E-21
  0.00000000E+00  6.20479164E-05 -1.96875533E-04 -1.12541130E-04  1.99590412E-19
  0.00000000E+00  3.18362844E-02 -5.98104349E-02 -4.94514218E-02  9.05069534E-17
  1.02279684E-06  7.48296512E-01 -1.23387426E+00 -2.48326235E-01  3.58049547E-16
  0.00000000E+00  3.13082224E-02 -7.32408069E-02  2.19554031E-02 -5.05497345E-17
  0.00000000E+00  6.09020238E-05 -2.21231972E-04  2.64651246E-05 -7.48145872E-20
  5.52003002E-06  2.92598874E-02  2.86317168E-02  5.38541893E-06  2.95658240E+01
  5.22712281E-07  9.46656104E-04 -2.53807515E-03 -4.18371864E-04  6.03125433E-19
  9.45486377E-07  9.93286969E-03 -2.10887196E-02 -9.76097175E-03  1.73109723E-17
  4.34145239E-03  6.54898398E-01 -9.39711187E-01 -6.11815872E-01  1.11975730E-15
  1.99968509E-01  5.11624249E+00 -6.94857514E+00 -1.08497075E+00  1.56436666E-15
  1.38602603E-03  5.15661325E-01 -8.89464117E-01  2.15325233E-01 -4.95761034E-16
  4.87592914E-06  7.08848088E-03 -1.72042894E-02  1.67753934E-03 -4.74225667E-18
  1.16826479E-03  6.26796300E-01  4.52046220E-01  7.05391643E-04  7.36167661E+00
  3.03761093E+01  2.13386967E-06  1.60046234E-03 -4.10915714E-03 -7.31944983E-04
  1.05517286E-18  3.12236007E-06  1.33388398E-02 -2.63530527E-02 -1.36628407E-02
  2.42308924E-17  7.80392742E-03  5.69756643E-01 -6.50498652E-01 -5.97568772E-01
  1.09368198E-15  3.26475915E-01  4.12848361E+00 -4.56676197E+00 -1.19031547E+00
  1.71625811E-15  3.06367633E-03  5.98857421E-01 -9.30853853E-01  2.79925593E-01
 -6.44495767E-16  1.80095211E-05  1.11884759E-02 -2.59961828E-02  2.78532648E-03
 -7.87387380E-18  1.39493965E-03  2.11967582E-01  3.43135602E-01  1.08348472E-03
 -7.81010105E-01 -9.11645344E+00  3.10599295E+01  4.29829060E-07  4.31408730E-04
 -1.17239210E-03  1.18234928E-04  2.82236275E-19  1.72159731E-06  1.02002438E-02
 -2.21078322E-02 -7.01818460E-03  1.84154688E-17  6.73040842E-03  6.67207768E-01
 -1.01674121E+00 -4.16092393E-01  1.25163588E-15  6.85121589E-02  1.21536044E+00
 -1.95707084E+00  2.48278592E+00  4.68941959E-16 -9.68207534E-04 -2.42540402E-01
  4.45010154E-01  1.01658940E-01  2.56671450E-16 -2.12374856E-06 -1.77405100E-03
  4.40543095E-03  2.00464370E-03  1.23759614E-18  1.56176226E-03  8.27396019E-01
 -4.39032102E-01 -4.17516920E-04  0.00000000E+00  0.00000000E+00  0.00000000E+00
  3.00431491E+01 -6.19642142E-22 -6.21919396E-19  1.69012201E-18  2.82236275E-19
  3.14014628E-04 -3.05323322E-21 -1.80900163E-17  3.92079886E-17  1.84154688E-17
  3.36556900E-03 -1.23181243E-17 -1.22113663E-15  1.86085953E-15  1.25163588E-15
  2.67779637E-01 -9.87843569E-17 -1.75236924E-15  2.82180547E-15  4.68941959E-16
  2.80802189E+00  2.22918402E-18  5.58420761E-16 -1.02458356E-15  2.56671450E-16
  2.13139747E-01  6.00365103E-21  5.01508668E-18 -1.24537671E-17  1.23759614E-18
  2.44243447E-03 -2.85092331E-18 -1.57491075E-15  9.12569772E-16  9.71417184E-19
  0.00000000E+00  0.00000000E+00  0.00000000E+00  0.00000000E+00  3.00431491E+01
  0.00000000E+00  0.00000000E+00  0.00000000E+00  0.00000000E+00  0.00000000E+00
  0.00000000E+00  4.33120551E-06 -1.75036062E-05 -3.94304414E-06  5.88345593E-21
  0.00000000E+00  9.89447801E-03 -2.72250084E-02 -6.40960021E-03  9.69644132E-18
  0.00000000E+00  6.14921335E-02 -1.43518809E-01  3.76020561E-02 -8.84869323E-17
  0.00000000E+00  1.65447284E-04 -5.30539291E-04  2.64949843E-04 -5.73502087E-19
  0.00000000E+00  1.47359165E-08 -6.84439979E-08  2.03622478E-08 -4.69912950E-23
  1.76574913E-06  7.35396168E-02  2.65524459E-04  0.00000000E+00  1.21594898E-04
  2.25271792E+00 -2.62967194E+00  2.65511568E+00 -5.46359681E-15  5.16186327E+01
  0.00000000E+00  7.87883638E-05 -2.37256944E-04  3.33362115E-06 -2.79041870E-20
  3.01611425E-08  3.08606723E-03 -7.65146976E-03 -1.49830626E-03  2.23563788E-18
  8.50391774E-04  3.73767975E-01 -6.83776440E-01 -1.39299329E-01  2.10731984E-16
  1.00204154E-02  1.23654318E+00 -2.03627526E+00  4.57783430E-01 -1.07727756E-15
  5.00066891E-06  3.27163462E-02 -6.57677945E-02  2.84807967E-02 -6.16486355E-17
  7.76672378E-10  2.71396206E-04 -7.45492883E-04  1.91568741E-04 -4.42095749E-19
  7.62264041E-04  1.17746960E+00  2.70221967E-02  1.83559213E-05  1.37103661E+00
  1.64165580E+01 -1.51245261E+01  1.17551957E+01 -2.41893980E-14  1.28387649E+01
  5.24289180E+01  0.00000000E+00  1.71517703E-04 -4.99134923E-04  7.30021811E-06
 -6.11067191E-20  1.26341541E-07  5.69789633E-03 -1.34702208E-02 -2.81799525E-03
  4.20475913E-18  2.27243623E-03  5.28145438E-01 -8.98124037E-01 -2.12971980E-01
  3.22183949E-16  2.27974560E-02  1.55944636E+00 -2.32296727E+00  6.43073083E-01
 -1.51330992E-15  1.53966148E-05  4.92388361E-02 -9.19773882E-02  4.44820615E-02
 -9.62844696E-17  3.62154330E-09  5.45042541E-04 -1.43537091E-03  3.87719106E-04
 -8.94764815E-19  1.28370951E-03  1.08103213E+00  3.01825290E-02  3.58407794E-05
  1.56912159E+00  8.18851889E+00 -9.28867337E-01  8.73895163E+00 -1.79826848E-14
 -1.03219669E+00 -1.20484652E+01  5.31127382E+01  0.00000000E+00 -3.35370547E-06
  1.01329249E-05  2.48053723E-05  1.19384247E-21  2.76180659E-08  1.52733234E-03
 -3.83265291E-03  2.47172500E-04  1.12507473E-18  5.49303224E-04  1.49493824E-01
 -2.88713119E-01  8.15075559E-02  9.04647241E-17 -6.11760012E-03 -4.97940330E-01
  8.81860475E-01  3.06902760E-01  4.76859363E-16 -7.97035131E-06 -2.94251495E-02
  6.06752465E-02 -1.54454344E-02  5.73360283E-17 -1.07330469E-09 -1.93128707E-04
  5.33016245E-04 -5.10228820E-05  3.16768559E-19  6.79509177E-04  9.80353682E-01
 -3.42956720E-02 -1.78311623E-05 -1.64818272E+00 -1.23689802E+01  1.42493867E+01
 -1.98836970E+00  2.44117908E-14  0.00000000E+00  0.00000000E+00  0.00000000E+00
  5.20959578E+01  0.00000000E+00  2.80723034E-20 -8.48179859E-20  1.19384247E-21
  2.49479968E-05 -4.12091947E-23 -2.27894799E-18  5.71874007E-18  1.12507473E-18
  1.00118840E-03 -8.30985756E-19 -2.26154212E-16  4.36765122E-16  9.04647241E-17
  1.41307094E-01  1.43962252E-17  1.17177667E-15 -2.07523567E-15  4.76859363E-16
  5.09541637E-01  1.72523715E-20  6.36927521E-17 -1.31335728E-16  5.73360283E-17
  1.10429988E-02  2.47693563E-24  4.45695787E-19 -1.23007655E-18  3.16768559E-19
  8.62391343E-05 -1.16553071E-18 -1.77050842E-15  7.10381019E-17  3.94448572E-20
  3.39156818E-15  2.54524206E-14 -2.93218500E-14  2.44117908E-14  9.87490107E+00
  0.00000000E+00  0.00000000E+00  0.00000000E+00  0.00000000E+00  5.20959578E+01
  3.89535432E-07  2.12621048E-04 -5.41357746E-04 -1.81183288E-04  3.10245992E-19
  1.31296197E-07  1.06879584E-03 -2.20003915E-03 -1.39262772E-03  2.54874735E-18
  2.57892534E-04  7.51444061E-02 -1.04907607E-01 -9.63026126E-02  1.80112895E-16
  3.28783983E-02  1.56042277E+00 -2.07072886E+00 -1.25379772E+00  2.28433518E-15
  1.30855721E-03  3.73650069E-01 -6.72547242E-01 -6.67948226E-02  7.43108912E-17
  1.06836262E-05  3.91890262E-03 -9.29971659E-03 -1.09329994E-03  1.38008408E-18
  9.52050418E-05  6.10556837E-02  8.59414904E-01  7.46128594E-04  1.83001065E+00
  1.60966042E+01 -7.38030300E+00 -1.48559143E+01  2.86920213E-14  2.95082148E-01
  4.51358590E+00  8.58868672E-01 -5.48622805E+00  1.09220217E-14  3.54971880E+01
  0.00000000E+00  3.64920448E-06 -1.14434280E-05 -2.11838841E-07 -6.14783751E-22
  8.77229006E-10  1.59519808E-04 -4.21617911E-04 -8.10877687E-05  1.20220669E-19
  2.40430491E-05  3.02345202E-02 -6.17420711E-02 -1.22620805E-02  1.83355484E-17
  4.53110599E-04  1.47511110E-01 -2.80288396E-01  2.94702145E-02 -8.32959430E-17
  3.59240406E-07  3.72619670E-03 -8.29883157E-03  2.39090575E-03 -5.43387040E-18
  0.00000000E+00  1.88559958E-05 -5.45872557E-05  9.65182618E-06 -2.38180153E-20
  4.55822942E-05  1.66311616E-01  6.02433857E-03  1.63132084E-06  1.79902769E-01
  5.47110574E+00 -7.56801449E+00  2.39367367E+00 -5.36863350E-15  3.27204369E+00
  3.35479587E+01 -3.67303641E+01 -6.34231005E+00  9.13907337E-15  2.83411229E+00
  8.55857357E+01  1.47743955E-07  1.64078420E-04 -4.45049981E-04  8.26343892E-05
 -1.98537223E-19  3.23736948E-06  9.91658624E-03 -2.23624042E-02  4.94836387E-04
 -2.85059695E-18  5.05915371E-03  6.38676133E-01 -1.09993432E+00  1.33844942E-01
 -3.56612639E-16  6.86725541E-03  5.95311420E-01 -8.57650328E-01  5.36623312E-01
 -1.12131514E-15  4.26317812E-06  1.09081094E-02 -1.91353154E-02  1.34365947E-02
 -2.78680279E-17  4.28571116E-08  1.92396611E-04 -4.73561675E-04  2.06664155E-04
 -4.43337783E-19  4.67869362E-03  3.34834937E+00  4.87385400E-03  9.80604777E-06
  1.74206802E-01  3.82867051E+00 -2.42111204E+00  4.62836974E+00 -9.21419131E-15
  3.13135590E+00  2.38025365E+01  2.27206269E-01  2.21009696E+01 -4.26847839E-14
  5.80905005E-01  9.85085318E+00  4.57252620E+01  1.02279684E-06  7.48296512E-01
  1.23387426E+00  2.48326235E-01 -3.58049547E-16  0.00000000E+00  3.13082224E-02
  7.32408069E-02 -2.19554031E-02  5.05497345E-17  0.00000000E+00  6.09020238E-05
  2.21231972E-04 -2.64651246E-05  7.48145872E-20  0.00000000E+00  2.71960134E-06
  1.10107149E-05  2.23343668E-06 -3.21972528E-21  0.00000000E+00  6.20479164E-05
  1.96875533E-04  1.12541130E-04 -1.99590412E-19  0.00000000E+00  3.18362844E-02
  5.98104349E-02  4.94514218E-02 -9.05069534E-17  2.86317168E-02  5.38541893E-06
  5.52003002E-06  2.92598874E-02  0.00000000E+00  0.00000000E+00  0.00000000E+00
  0.00000000E+00  0.00000000E+00  0.00000000E+00  0.00000000E+00  0.00000000E+00
  0.00000000E+00  0.00000000E+00  0.00000000E+00  0.00000000E+00  0.00000000E+00
  2.95658240E+01  1.99968509E-01  5.11624249E+00  6.94857514E+00  1.08497075E+00
 -1.56436666E-15  1.38602603E-03  5.15661325E-01  8.89464117E-01 -2.15325233E-01
  4.95761034E-16  4.87592914E-06  7.08848088E-03  1.72042894E-02 -1.67753934E-03
  4.74225667E-18  5.22712281E-07  9.46656104E-04  2.53807515E-03  4.18371864E-04
 -6.03125433E-19  9.45486377E-07  9.93286969E-03  2.10887196E-02  9.76097175E-03
 -1.73109723E-17  4.34145239E-03  6.54898398E-01  9.39711187E-01  6.11815872E-01
 -1.11975730E-15  4.52046220E-01  7.05391643E-04  1.16826479E-03  6.26796300E-01
  0.00000000E+00  6.33037532E-07  1.81616467E-06  3.70564095E-07 -5.34230018E-22
  0.00000000E+00  0.00000000E+00  0.00000000E+00  0.00000000E+00  0.00000000E+00
  3.77309032E-07  0.00000000E+00  2.23108181E-07  7.36167661E+00  3.03761093E+01
 -3.26475915E-01 -4.12848361E+00 -4.56676197E+00 -1.19031547E+00  1.71625811E-15
 -3.06367633E-03 -5.98857421E-01 -9.30853853E-01  2.79925593E-01 -6.44495767E-16
 -1.80095211E-05 -1.11884759E-02 -2.59961828E-02  2.78532648E-03 -7.87387380E-18
 -2.13386967E-06 -1.60046234E-03 -4.10915714E-03 -7.31944983E-04  1.05517286E-18
 -3.12236007E-06 -1.33388398E-02 -2.63530527E-02 -1.36628407E-02  2.42308924E-17
 -7.80392742E-03 -5.69756643E-01 -6.50498652E-01 -5.97568772E-01  1.09368198E-15
 -3.43135602E-01 -1.08348472E-03 -1.39493965E-03 -2.11967582E-01  0.00000000E+00
 -1.81616467E-06 -4.61528319E-06 -1.06313668E-06  1.53268904E-21  0.00000000E+00
  0.00000000E+00  0.00000000E+00  0.00000000E+00  0.00000000E+00 -7.99713924E-07
  0.00000000E+00 -5.74126910E-07  7.81010105E-01  9.11645344E+00  3.10599295E+01
 -6.85121589E-02 -1.21536044E+00 -1.95707084E+00  2.48278592E+00  4.68941959E-16
  9.68207534E-04  2.42540402E-01  4.45010154E-01  1.01658940E-01  2.56671450E-16
  2.12374856E-06  1.77405100E-03  4.40543095E-03  2.00464370E-03  1.23759614E-18
 -4.29829060E-07 -4.31408730E-04 -1.17239210E-03  1.18234928E-04  2.82236275E-19
 -1.72159731E-06 -1.02002438E-02 -2.21078322E-02 -7.01818460E-03  1.84154688E-17
 -6.73040842E-03 -6.67207768E-01 -1.01674121E+00 -4.16092393E-01  1.25163588E-15
  4.39032102E-01  4.17516920E-04 -1.56176226E-03 -8.27396019E-01  0.00000000E+00
 -3.70564095E-07 -1.06313668E-06 -1.85068549E-08  3.12724685E-22  0.00000000E+00
  0.00000000E+00  0.00000000E+00  0.00000000E+00  0.00000000E+00 -3.64544942E-07
  0.00000000E+00  8.13227739E-08  0.00000000E+00  0.00000000E+00  0.00000000E+00
  3.00431491E+01  9.87843569E-17  1.75236924E-15  2.82180547E-15  4.68941959E-16
  2.80802189E+00 -2.22918402E-18 -5.58420761E-16 -1.02458356E-15  2.56671450E-16
  2.13139747E-01 -6.00365103E-21 -5.01508668E-18 -1.24537671E-17  1.23759614E-18
  2.44243447E-03  6.19642142E-22  6.21919396E-19  1.69012201E-18  2.82236275E-19
  3.14014628E-04  3.05323322E-21  1.80900163E-17  3.92079886E-17  1.84154688E-17
  3.36556900E-03  1.23181243E-17  1.22113663E-15  1.86085953E-15  1.25163588E-15
  2.67779637E-01 -9.12569772E-16 -9.71417184E-19  2.85092331E-18  1.57491075E-15
  0.00000000E+00  5.34230018E-22  1.53268904E-21  3.12724685E-22  1.98411955E-07
  0.00000000E+00  0.00000000E+00  0.00000000E+00  0.00000000E+00  0.00000000E+00
  6.10684669E-22  0.00000000E+00 -2.23819157E-22  0.00000000E+00  0.00000000E+00
  0.00000000E+00  0.00000000E+00  3.00431491E+01  0.00000000E+00  6.14921335E-02
  1.43518809E-01 -3.76020561E-02  8.84869323E-17  0.00000000E+00  1.65447284E-04
  5.30539291E-04 -2.64949843E-04  5.73502087E-19  0.00000000E+00  1.47359165E-08
  6.84439979E-08 -2.03622478E-08  4.69912950E-23  0.00000000E+00  0.00000000E+00
  0.00000000E+00  0.00000000E+00  0.00000000E+00  0.00000000E+00  4.33120551E-06
  1.75036062E-05  3.94304414E-06 -5.88345593E-21  0.00000000E+00  9.89447801E-03
  2.72250084E-02  6.40960021E-03 -9.69644132E-18  2.65524459E-04  0.00000000E+00
  1.76574913E-06  7.35396168E-02  0.00000000E+00  0.00000000E+00  0.00000000E+00
  0.00000000E+00  0.00000000E+00  0.00000000E+00  0.00000000E+00  0.00000000E+00
  0.00000000E+00  0.00000000E+00  0.00000000E+00  0.00000000E+00  0.00000000E+00
  1.21594898E-04  2.25271792E+00  2.62967194E+00 -2.65511568E+00  5.46359681E-15
  5.16186327E+01  1.00204154E-02  1.23654318E+00  2.03627526E+00 -4.57783430E-01
  1.07727756E-15  5.00066891E-06  3.27163462E-02  6.57677945E-02 -2.84807967E-02
  6.16486355E-17  7.76672378E-10  2.71396206E-04  7.45492883E-04 -1.91568741E-04
  4.42095749E-19  0.00000000E+00  7.87883638E-05  2.37256944E-04 -3.33362115E-06
  2.79041870E-20  3.01611425E-08  3.08606723E-03  7.65146976E-03  1.49830626E-03
 -2.23563788E-18  8.50391774E-04  3.73767975E-01  6.83776440E-01  1.39299329E-01
 -2.10731984E-16  2.70221967E-02  1.83559213E-05  7.62264041E-04  1.17746960E+00
  0.00000000E+00  0.00000000E+00  0.00000000E+00  0.00000000E+00  0.00000000E+00
  0.00000000E+00  0.00000000E+00  0.00000000E+00  0.00000000E+00  0.00000000E+00
  0.00000000E+00  0.00000000E+00  0.00000000E+00  1.37103661E+00  1.64165580E+01
  1.51245261E+01 -1.17551957E+01  2.41893980E-14  1.28387649E+01  5.24289180E+01
 -2.27974560E-02 -1.55944636E+00 -2.32296727E+00  6.43073083E-01 -1.51330992E-15
 -1.53966148E-05 -4.92388361E-02 -9.19773882E-02  4.44820615E-02 -9.62844696E-17
 -3.62154330E-09 -5.45042541E-04 -1.43537091E-03  3.87719106E-04 -8.94764815E-19
  0.00000000E+00 -1.71517703E-04 -4.99134923E-04  7.30021811E-06 -6.11067191E-20
 -1.26341541E-07 -5.69789633E-03 -1.34702208E-02 -2.81799525E-03  4.20475913E-18
 -2.27243623E-03 -5.28145438E-01 -8.98124037E-01 -2.12971980E-01  3.22183949E-16
 -3.01825290E-02 -3.58407794E-05 -1.28370951E-03 -1.08103213E+00  0.00000000E+00
  0.00000000E+00  0.00000000E+00  0.00000000E+00  0.00000000E+00  0.00000000E+00
  0.00000000E+00  0.00000000E+00  0.00000000E+00  0.00000000E+00  0.00000000E+00
  0.00000000E+00  0.00000000E+00 -1.56912159E+00 -8.18851889E+00 -9.28867337E-01
  8.73895163E+00 -1.79826848E-14  1.03219669E+00  1.20484652E+01  5.31127382E+01
  6.11760012E-03  4.97940330E-01  8.81860475E-01  3.06902760E-01  4.76859363E-16
  7.97035131E-06  2.94251495E-02  6.06752465E-02 -1.54454344E-02  5.73360283E-17
  1.07330469E-09  1.93128707E-04  5.33016245E-04 -5.10228820E-05  3.16768559E-19
  0.00000000E+00  3.35370547E-06  1.01329249E-05  2.48053723E-05  1.19384247E-21
 -2.76180659E-08 -1.52733234E-03 -3.83265291E-03  2.47172500E-04  1.12507473E-18
 -5.49303224E-04 -1.49493824E-01 -2.88713119E-01  8.15075559E-02  9.04647241E-17
  3.42956720E-02  1.78311623E-05 -6.79509177E-04 -9.80353682E-01  0.00000000E+00
  0.00000000E+00  0.00000000E+00  0.00000000E+00  0.00000000E+00  0.00000000E+00
  0.00000000E+00  0.00000000E+00  0.00000000E+00  0.00000000E+00  0.00000000E+00
  0.00000000E+00  0.00000000E+00  1.64818272E+00  1.23689802E+01  1.42493867E+01
 -1.98836970E+00  2.44117908E-14  0.00000000E+00  0.00000000E+00  0.00000000E+00
  5.20959578E+01 -1.43962252E-17 -1.17177667E-15 -2.07523567E-15  4.76859363E-16
  5.09541637E-01 -1.72523715E-20 -6.36927521E-17 -1.31335728E-16  5.73360283E-17
  1.10429988E-02 -2.47693563E-24 -4.45695787E-19 -1.23007655E-18  3.16768559E-19
  8.62391343E-05  0.00000000E+00 -2.80723034E-20 -8.48179859E-20  1.19384247E-21
  2.49479968E-05  4.12091947E-23  2.27894799E-18  5.71874007E-18  1.12507473E-18
  1.00118840E-03  8.30985756E-19  2.26154212E-16  4.36765122E-16  9.04647241E-17
  1.41307094E-01 -7.10381019E-17 -3.94448572E-20  1.16553071E-18  1.77050842E-15
  0.00000000E+00  0.00000000E+00  0.00000000E+00  0.00000000E+00  0.00000000E+00
  0.00000000E+00  0.00000000E+00  0.00000000E+00  0.00000000E+00  0.00000000E+00
  0.00000000E+00  0.00000000E+00  0.00000000E+00 -3.39156818E-15 -2.54524206E-14
 -2.93218500E-14  2.44117908E-14  9.87490107E+00  0.00000000E+00  0.00000000E+00
  0.00000000E+00  0.00000000E+00  5.20959578E+01  3.28783983E-02  1.56042277E+00
  2.07072886E+00  1.25379772E+00 -2.28433518E-15  1.30855721E-03  3.73650069E-01
  6.72547242E-01  6.67948226E-02 -7.43108912E-17  1.06836262E-05  3.91890262E-03
  9.29971659E-03  1.09329994E-03 -1.38008408E-18  3.89535432E-07  2.12621048E-04
  5.41357746E-04  1.81183288E-04 -3.10245992E-19  1.31296197E-07  1.06879584E-03
  2.20003915E-03  1.39262772E-03 -2.54874735E-18  2.57892534E-04  7.51444061E-02
  1.04907607E-01  9.63026126E-02 -1.80112895E-16  8.59414904E-01  7.46128594E-04
  9.52050418E-05  6.10556837E-02  0.00000000E+00  3.77309032E-07  7.99713924E-07
  3.64544942E-07 -6.10684669E-22  0.00000000E+00  0.00000000E+00  0.00000000E+00
  0.00000000E+00  0.00000000E+00  8.27889881E-08  0.00000000E+00  4.66299782E-07
  1.83001065E+00  1.60966042E+01  7.38030300E+00  1.48559143E+01 -2.86920213E-14
  2.95082148E-01  4.51358590E+00 -8.58868672E-01  5.48622805E+00 -1.09220217E-14
  3.54971880E+01  4.53110599E-04  1.47511110E-01  2.80288396E-01 -2.94702145E-02
  8.32959430E-17  3.59240406E-07  3.72619670E-03  8.29883157E-03 -2.39090575E-03
  5.43387040E-18  0.00000000E+00  1.88559958E-05  5.45872557E-05 -9.65182618E-06
  2.38180153E-20  0.00000000E+00  3.64920448E-06  1.14434280E-05  2.11838841E-07
  6.14783751E-22  8.77229006E-10  1.59519808E-04  4.21617911E-04  8.10877687E-05
 -1.20220669E-19  2.40430491E-05  3.02345202E-02  6.17420711E-02  1.22620805E-02
 -1.83355484E-17  6.02433857E-03  1.63132084E-06  4.55822942E-05  1.66311616E-01
  0.00000000E+00  0.00000000E+00  0.00000000E+00  0.00000000E+00  0.00000000E+00
  0.00000000E+00  0.00000000E+00  0.00000000E+00  0.00000000E+00  0.00000000E+00
  0.00000000E+00  0.00000000E+00  0.00000000E+00  1.79902769E-01  5.47110574E+00
  7.56801449E+00 -2.39367367E+00  5.36863350E-15  3.27204369E+00  3.35479587E+01
  3.67303641E+01  6.34231005E+00 -9.13907337E-15  2.83411229E+00  8.55857357E+01
  6.86725541E-03  5.95311420E-01  8.57650328E-01 -5.36623312E-01  1.12131514E-15
  4.26317812E-06  1.09081094E-02  1.91353154E-02 -1.34365947E-02  2.78680279E-17
  4.28571116E-08  1.92396611E-04  4.73561675E-04 -2.06664155E-04  4.43337783E-19
  1.47743955E-07  1.64078420E-04  4.45049981E-04 -8.26343892E-05  1.98537223E-19
  3.23736948E-06  9.91658624E-03  2.23624042E-02 -4.94836387E-04  2.85059695E-18
  5.05915371E-03  6.38676133E-01  1.09993432E+00 -1.33844942E-01  3.56612639E-16
  4.87385400E-03  9.80604777E-06  4.67869362E-03  3.34834937E+00  0.00000000E+00
  2.23108181E-07  5.74126910E-07 -8.13227739E-08  2.23819157E-22  0.00000000E+00
  0.00000000E+00  0.00000000E+00  0.00000000E+00  0.00000000E+00  4.66299782E-07
  0.00000000E+00  0.00000000E+00  1.74206802E-01  3.82867051E+00  2.42111204E+00
 -4.62836974E+00  9.21419131E-15  3.13135590E+00  2.38025365E+01 -2.27206269E-01
 -2.21009696E+01  4.26847839E-14  5.80905005E-01  9.85085318E+00  4.57252620E+01
Multipole Matrix (1,1,0)                   R   N=        1830
  1.36066755E+00  3.37938644E-01  1.36066755E+00  3.78533143E-02  4.41848287E-01
  1.36066755E+00  1.85595739E-01  2.16639311E+00  5.08390209E-01  1.36066755E+00
  0.00000000E+00  0.00000000E+00  0.00000000E+00  0.00000000E+00  1.36066755E+00
  2.40087345E-06  8.40159741E-02 -8.76292496E-02  1.08192885E-01 -2.16514830E-16
  2.08667141E+00  5.93022445E-02  9.26337276E-01 -2.68387393E-01  1.21438481E+00
 -1.46423842E-15  5.18250698E-01  2.08667141E+00  6.91365615E-02  1.10214180E+00
 -1.12501659E-01  1.50906849E+00 -2.07790684E-15  1.79654531E-01  2.09704350E+00
  2.08667141E+00 -6.97893231E-02 -3.11471623E-01  2.25191574E-01 -2.73479090E-01
  8.45916210E-16  5.99702384E-02  7.00011283E-01  5.08390209E-01  2.08667141E+00
  1.55799756E-16  1.50356079E-15 -7.62988687E-16  2.33045650E-15  5.28785334E-01
  0.00000000E+00  0.00000000E+00  0.00000000E+00  0.00000000E+00  2.08667141E+00
  0.00000000E+00 -5.44050185E-03  1.20843233E-02 -4.12539635E-03  9.01600086E-18
 -9.55694054E-07 -1.22669975E-01  2.00298242E-01  3.58494377E-02 -5.73800019E-17
 -3.44921213E+00  2.60180654E-03  2.72863775E-02  4.33104246E-03  4.01083861E-02
 -3.28053201E-17  6.59742786E-02 -3.66080968E-01  8.94372040E-01 -9.39754005E-03
 -8.19885581E-17 -8.56654571E-01 -3.44921213E+00  5.74144221E-03  7.56845794E-02
 -4.04063382E-02  9.72262439E-02 -8.68065955E-17  1.07321257E-01  1.21790075E-01
  3.18890991E-01  5.41467189E-02  3.05640587E-17  1.41800422E-01  1.65518594E+00
 -3.44921213E+00 -1.65975980E-03  6.80104562E-04  4.41721190E-03 -4.28832675E-03
  2.65179818E-18  2.22141985E-02 -2.76288457E-01  5.61208600E-01 -1.66630236E-01
 -8.30424540E-17 -1.25592084E-01 -1.46599177E+00  5.08390209E-01 -3.44921213E+00
  4.30616090E-18  1.68449300E-17  1.85199402E-17  3.78304545E-17  9.01212415E-03
 -2.97040642E-17  1.38367560E-16 -3.34789279E-16 -8.45918748E-18 -2.09021860E-01
  0.00000000E+00  0.00000000E+00  0.00000000E+00  0.00000000E+00 -3.44921213E+00
  0.00000000E+00  4.73018492E-04 -1.24288432E-03 -3.05245311E-04  3.62163527E-19
  0.00000000E+00  1.73767827E-03 -3.03915866E-03 -2.90250386E-03  4.88629358E-18
 -1.46069508E-06  3.84790255E-02 -1.90983372E-02 -6.11393392E-02  1.05023575E-16
  1.36066755E+00  4.73018492E-04  1.32352884E-03 -3.19958850E-03  2.42539949E-03
  1.13323369E-18  2.95311143E-03 -4.51280764E-02  8.75454544E-02  8.31676063E-03
 -6.75151600E-17 -1.25353618E-01 -5.61208725E-01  4.63055716E-01  7.05818076E-02
 -1.22274891E-15  3.37938644E-01  1.36066755E+00  1.24288432E-03  3.19958850E-03
 -7.08193687E-03  1.33838159E-02  2.76653175E-18  5.33507501E-03 -1.02218099E-02
  4.14670580E-02 -2.34386089E-03 -9.48868909E-18 -6.03406943E-02 -1.87368979E-02
 -2.06517484E-01  5.85809548E-02 -1.87498350E-16 -3.78533143E-02 -4.41848287E-01
  1.36066755E+00  3.05245311E-04 -2.42539949E-03  1.33838159E-02  3.05244191E-03
 -1.04395961E-18  4.58137144E-03 -8.12670832E-02  1.51088816E-01  3.24414701E-02
 -1.36115035E-16 -1.98940460E-01 -1.07835080E+00  8.36175176E-01  4.40120768E-01
 -2.54710859E-15 -1.85595739E-01 -2.16639311E+00  5.08390209E-01  1.36066755E+00
 -3.62163527E-19 -1.13323369E-18  2.76653175E-18 -1.04395961E-18  1.16410291E-03
 -8.29669682E-18  7.16000886E-17 -1.50421630E-16 -1.12587637E-17 -1.49088175E-02
  3.73142172E-16  9.13131318E-16 -9.34276435E-16 -3.11469206E-16 -3.20401052E-01
  0.00000000E+00  0.00000000E+00  0.00000000E+00  0.00000000E+00  1.36066755E+00
  0.00000000E+00  2.95311143E-03 -5.33507501E-03 -4.58137144E-03  8.29669682E-18
  0.00000000E+00  7.26176789E-04 -6.63403948E-04 -1.84809378E-03  3.51599902E-18
  0.00000000E+00  3.70252196E-03  1.47690152E-03 -8.44326171E-03  1.65156039E-17
  2.40087345E-06  8.40159741E-02  8.76292496E-02 -1.08192885E-01  2.16514830E-16
  2.08667141E+00  1.73767827E-03 -4.51280764E-02  1.02218099E-02  8.12670832E-02
 -7.16000886E-17  7.26176789E-04  2.03137513E-03  1.19973396E-03 -4.68824255E-03
  1.09993037E-17 -5.55496844E-03  1.77790362E-02  3.61490017E-04 -6.35715886E-02
  1.88224655E-17  5.93022445E-02  9.26337276E-01  2.68387393E-01 -1.21438481E+00
  1.46423842E-15  5.18250698E-01  2.08667141E+00  3.03915866E-03 -8.75454544E-02
  4.14670580E-02  1.51088816E-01 -1.50421630E-16  6.63403948E-04 -1.19973396E-03
  3.66568565E-03  1.04738842E-02 -5.30403440E-19  2.73521039E-03 -2.67689773E-02
 -1.02296600E-03  7.32651865E-02 -6.89783875E-17 -6.91365615E-02 -1.10214180E+00
 -1.12501659E-01  1.50906849E+00 -2.07790684E-15 -1.79654531E-01 -2.09704350E+00
  2.08667141E+00  2.90250386E-03 -8.31676063E-03 -2.34386089E-03  3.24414701E-02
 -1.12587637E-17  1.84809378E-03  4.68824255E-03  1.04738842E-02 -9.84744725E-03
  2.57769794E-17 -1.27134235E-02 -1.57967656E-02  1.27603577E-02 -2.80999407E-02
 -8.50351877E-17  6.97893231E-02  3.11471623E-01  2.25191574E-01 -2.73479090E-01
  8.45916210E-16 -5.99702384E-02 -7.00011283E-01  5.08390209E-01  2.08667141E+00
 -4.88629358E-18  6.75151600E-17 -9.48868909E-18 -1.36115035E-16 -1.49088175E-02
 -3.51599902E-18 -1.09993037E-17 -5.30403440E-19  2.57769794E-17  1.78675087E-03
  2.47951931E-17 -6.83130406E-17 -9.18828390E-18  2.08058237E-16  5.87059624E-03
 -1.55799756E-16 -1.50356079E-15 -7.62988687E-16  2.33045650E-15  5.28785334E-01
  0.00000000E+00  0.00000000E+00  0.00000000E+00  0.00000000E+00  2.08667141E+00
 -1.46069508E-06 -1.25353618E-01  6.03406943E-02  1.98940460E-01 -3.73142172E-16
  0.00000000E+00 -5.55496844E-03 -2.73521039E-03  1.27134235E-02 -2.47951931E-17
  0.00000000E+00 -1.19866402E-03 -2.15365497E-03  2.42155913E-03 -4.88584636E-18
  0.00000000E+00 -5.44050185E-03 -1.20843233E-02  4.12539635E-03 -9.01600086E-18
 -9.55694054E-07 -1.22669975E-01 -2.00298242E-01 -3.58494377E-02  5.73800019E-17
 -3.44921213E+00  3.84790255E-02 -5.61208725E-01  1.87368979E-02  1.07835080E+00
 -9.13131318E-16  3.70252196E-03  1.77790362E-02  2.67689773E-02  1.57967656E-02
  6.83130406E-17 -1.19866402E-03 -3.35418730E-03 -4.15730209E-03  5.29079896E-03
 -1.52892494E-17  2.60180654E-03  2.72863775E-02 -4.33104246E-03 -4.01083861E-02
  3.28053201E-17  6.59742786E-02 -3.66080968E-01 -8.94372040E-01  9.39754005E-03
  8.19885581E-17 -8.56654571E-01 -3.44921213E+00  1.90983372E-02 -4.63055716E-01
 -2.06517484E-01  8.36175176E-01 -9.34276435E-16 -1.47690152E-03 -3.61490017E-04
 -1.02296600E-03  1.27603577E-02 -9.18828390E-18  2.15365497E-03  4.15730209E-03
  3.42081066E-03  1.68248650E-03  2.15588796E-17 -5.74144221E-03 -7.56845794E-02
 -4.04063382E-02  9.72262439E-02 -8.68065955E-17 -1.07321257E-01 -1.21790075E-01
  3.18890991E-01  5.41467189E-02  3.05640587E-17 -1.41800422E-01 -1.65518594E+00
 -3.44921213E+00  6.11393392E-02 -7.05818076E-02  5.85809548E-02  4.40120768E-01
 -3.11469206E-16  8.44326171E-03  6.35715886E-02  7.32651865E-02 -2.80999407E-02
  2.08058237E-16 -2.42155913E-03 -5.29079896E-03  1.68248650E-03  6.79251521E-03
 -2.60017086E-17  1.65975980E-03 -6.80104562E-04  4.41721190E-03 -4.28832675E-03
  2.65179818E-18 -2.22141985E-02  2.76288457E-01  5.61208600E-01 -1.66630236E-01
 -8.30424540E-17  1.25592084E-01  1.46599177E+00  5.08390209E-01 -3.44921213E+00
 -1.05023575E-16  1.22274891E-15 -1.87498350E-16 -2.54710859E-15 -3.20401052E-01
 -1.65156039E-17 -1.88224655E-17 -6.89783875E-17 -8.50351877E-17  5.87059624E-03
  4.88584636E-18  1.52892494E-17  2.15588796E-17 -2.60017086E-17 -2.95012330E-03
 -4.30616090E-18 -1.68449300E-17  1.85199402E-17  3.78304545E-17  9.01212415E-03
  2.97040642E-17 -1.38367560E-16 -3.34789279E-16 -8.45918748E-18 -2.09021860E-01
  0.00000000E+00  0.00000000E+00  0.00000000E+00  0.00000000E+00 -3.44921213E+00
  8.96281275E-03  4.61961432E-01 -1.37193250E-02  7.13016631E-01 -1.12039023E-15
  1.40263737E-01  2.04469506E+00  1.76446469E+00  2.21644481E+00 -3.51796070E-15
 -1.78059978E-02 -4.38825245E-02  1.62933921E-01 -6.40490393E-02  5.61129082E-17
  7.82616182E-05 -7.51148247E-03 -1.54047864E-04 -1.29526532E-02  1.61318519E-17
  2.05620503E-05  2.86253992E-04  7.03182147E-04  8.16901608E-04 -1.25747957E-18
 -2.78581460E-04  8.52876164E-03  2.38473753E-03  2.06126256E-02 -2.55186566E-17
  6.67671062E+00  1.38283120E-04  3.67177851E-04  7.79694693E-03  1.39919550E-03
 -2.50455213E-19  9.31481607E-03 -3.07270679E-01  5.81231715E-01 -1.48057955E-01
  2.33775650E-16 -2.31825391E-01 -3.37858027E+00  3.02578302E+00 -3.19406774E+00
  4.89306979E-15  5.27568380E-03 -3.83713244E-01  1.37804446E-01 -6.78360172E-01
  9.57202169E-16  1.92204517E-04 -2.05407982E-03  9.01304180E-04 -1.12943073E-02
  6.33877371E-18 -3.39347545E-05 -4.72033050E-04  1.13693534E-03 -1.19090377E-03
  1.74593381E-18 -1.55747665E-01 -1.10309448E+01  7.82616182E-05 -7.51148247E-03
  1.54047864E-04  1.29526532E-02 -1.61318519E-17  2.05620503E-05  2.86253992E-04
 -7.03182147E-04 -8.16901608E-04  1.25747957E-18 -2.78581460E-04  8.52876164E-03
 -2.38473753E-03 -2.06126256E-02  2.55186566E-17  8.96281275E-03  4.61961432E-01
  1.37193250E-02 -7.13016631E-01  1.12039023E-15  1.40263737E-01  2.04469506E+00
 -1.76446469E+00 -2.21644481E+00  3.51796070E-15 -1.78059978E-02 -4.38825245E-02
 -1.62933921E-01  6.40490393E-02 -5.61129082E-17  5.88316794E-06  7.72673505E-04
  6.67671062E+00  5.27568380E-03 -3.83713244E-01 -1.37804446E-01  6.78360172E-01
 -9.57202169E-16  1.92204517E-04 -2.05407982E-03 -9.01304180E-04  1.12943073E-02
 -6.33877371E-18 -3.39347545E-05 -4.72033050E-04 -1.13693534E-03  1.19090377E-03
 -1.74593381E-18  1.38283120E-04  3.67177851E-04 -7.79694693E-03 -1.39919550E-03
  2.50455213E-19  9.31481607E-03 -3.07270679E-01 -5.81231715E-01  1.48057955E-01
 -2.33775650E-16 -2.31825391E-01 -3.37858027E+00 -3.02578302E+00  3.19406774E+00
 -4.89306979E-15  7.72673505E-04 -9.70221895E-06 -1.55747665E-01 -1.10309448E+01
  0.00000000E+00  5.52458166E-07 -2.23040948E-06 -4.85245810E-07  6.54075509E-22
  0.00000000E+00  1.12489005E-05 -3.56009475E-05 -2.11161757E-05  3.62214113E-20
  0.00000000E+00  5.82323855E-03 -1.08885550E-02 -9.38408729E-03  1.65702130E-17
  2.07745939E-07  1.52128643E-01 -2.49102982E-01 -5.91073579E-02  7.27923207E-17
  0.00000000E+00  7.00507869E-03 -1.63042216E-02  4.58192088E-03 -1.13022213E-17
  0.00000000E+00  1.37167226E-05 -4.96379203E-05  5.27157926E-06 -1.68371466E-20
  9.57672893E-07  5.14839319E-03  6.60964275E-03  1.25574300E-06  6.02617227E+00
  1.04160504E-07  1.26590291E-04 -3.25991917E-04 -3.00028531E-04  8.12473875E-20
  2.90188182E-06 -2.34864536E-03  4.62844189E-03  2.06876237E-04 -4.03208632E-18
 -4.01535736E-03 -6.63399026E-02  1.00769685E-01 -3.42447320E-02 -1.27583941E-16
  4.02367109E-02  9.87400033E-01 -1.19809635E+00 -1.02702281E+00  3.03575637E-16
  2.91749771E-03  2.59882936E-01 -4.24031173E-01  2.23195137E-02 -2.55813089E-16
 -6.33133972E-06  4.31184583E-03 -9.76093336E-03 -6.31547135E-04 -2.83366759E-18
 -4.91971600E-04 -1.24687550E-01  2.85445819E-01  5.93051192E-04  1.49667455E+00
  6.02617227E+00  4.22679761E-07  2.36822331E-04 -6.03685124E-04 -5.27900370E-04
  1.58870873E-19  9.49354084E-06 -3.23674884E-03  5.88266226E-03  1.36383218E-04
 -5.54942213E-18 -7.34191589E-03 -5.08078505E-02  6.89125274E-02 -4.12430040E-02
 -1.10756661E-16  6.66365227E-02  9.75626977E-01 -9.66110311E-01 -1.04358609E+00
  3.92275137E-16  6.59785925E-03  3.26774633E-01 -4.87798815E-01  4.50561312E-02
 -3.55307492E-16 -2.31424072E-05  7.19794812E-03 -1.56642432E-02 -9.33841990E-04
 -4.85014111E-18 -6.40545957E-04 -6.02438653E-02  2.58868208E-01  9.62420945E-04
 -7.96773295E-02 -9.30045156E-01  6.02617227E+00  9.91567512E-08 -1.98069015E-04
  5.06621208E-04  2.31894963E-05 -1.24887516E-19  5.35101763E-06 -4.40332974E-03
  8.74829896E-03  1.55772811E-03 -7.68101941E-18 -6.35658055E-03 -1.64038968E-01
  2.34674410E-01  4.42112055E-02 -3.06677389E-16  9.19880927E-03 -6.75826156E-01
  7.56491510E-01  5.04359002E-01 -1.98450660E-16 -2.11058515E-03 -2.16328705E-01
  3.65467673E-01  4.43197785E-02  2.25416946E-16  2.93723765E-06 -2.81178758E-03
  6.47302725E-03  1.13454433E-03  1.90201073E-18 -8.97703624E-04 -2.52752176E-01
 -3.52402743E-01 -5.34322543E-04 -3.90505053E-01 -4.55822672E+00  5.08390209E-01
  6.02617227E+00 -1.23501976E-22 -8.50824877E-20  2.23670570E-19  1.92587058E-19
  4.29270682E-05 -9.37306018E-21  3.92566347E-18 -7.81449089E-18 -1.92471300E-19
 -7.37985793E-04  1.14084375E-17  9.13069339E-17 -1.56929599E-16  7.69113874E-17
 -2.39763304E-02 -1.98866095E-17 -3.41939484E-16  5.05046804E-16  3.54323020E-16
  5.48540577E-01  4.70129671E-18  2.64372846E-16 -4.64712909E-16  3.53730493E-17
  1.04004107E-01 -7.78577148E-21  2.93129554E-18 -6.76462736E-18 -3.87935929E-19
  1.42315860E-03  1.14210818E-18  2.90845391E-16  5.54257287E-16  7.85419739E-19
  0.00000000E+00  0.00000000E+00  0.00000000E+00  0.00000000E+00  6.02617227E+00
  0.00000000E+00  0.00000000E+00  0.00000000E+00  0.00000000E+00  0.00000000E+00
  0.00000000E+00 -4.94407304E-07  1.99149573E-06  4.12064772E-07 -6.70795192E-22
  0.00000000E+00 -1.06410729E-03  2.91671527E-03  6.09393699E-04 -1.04177339E-18
  0.00000000E+00 -5.55007442E-03  1.29155025E-02 -3.87799033E-03  7.99021737E-18
  0.00000000E+00 -1.27794177E-05  4.09473709E-05 -2.18833424E-05  4.43829906E-20
  0.00000000E+00 -1.34714237E-09  6.25365375E-09 -1.90112153E-09  4.29603015E-24
 -2.12757830E-07 -8.19669471E-03 -1.89361695E-05  0.00000000E+00  4.06116874E-06
 -1.87648029E-01  2.06636376E-01 -2.32864674E-01  4.33168886E-16 -4.93036655E+00
  0.00000000E+00 -1.70818563E-05  4.85383523E-05 -1.73947502E-05  6.03808508E-21
  9.86362716E-08 -1.38025551E-03  3.21780350E-03  1.54163188E-04 -9.97584929E-19
 -7.88093138E-04 -1.03604722E-01  1.81097220E-01 -8.49537888E-03 -5.94161390E-17
  1.65913899E-03 -2.23417469E-02  2.64442547E-02 -1.57159446E-01  1.59458173E-17
  9.34354268E-06  6.76088425E-03 -1.28814922E-02  1.40534555E-03 -1.28192411E-17
 -9.21123773E-10  5.52547796E-05 -1.42674271E-04 -1.23123189E-05 -8.96442576E-20
 -4.57477738E-04 -4.05599058E-01  8.06660109E-03  6.44360318E-06  2.50399374E-01
  5.13574689E-01 -6.14238279E-01 -1.31963690E+00 -1.07075302E-15 -1.22451762E+00
 -4.93036655E+00  0.00000000E+00 -3.98782166E-05  1.09363669E-04 -4.04616949E-05
  1.41398070E-20  4.12544988E-07 -2.71293675E-03  5.99732988E-03  3.20818134E-04
 -1.98245539E-18 -2.13084330E-03 -1.52822884E-01  2.48528522E-01 -7.96177004E-03
 -9.39203603E-17  3.81353091E-03 -4.26249902E-02  4.90690953E-02 -2.12831852E-01
  3.66133384E-17  2.92695129E-05  1.05395625E-02 -1.85131544E-02  2.23501942E-03
 -2.04356557E-17 -4.28445893E-09  1.18160045E-04 -2.90736317E-04 -2.68500833E-05
 -1.91739943E-19 -8.27470637E-04 -4.14917439E-01  9.60133104E-03  1.35596945E-05
  2.79076899E-01  1.91239934E-01 -9.77675423E-02 -8.17760683E-01 -6.79296930E-16
  4.93249468E-02  5.75752577E-01 -4.93036655E+00  0.00000000E+00 -1.60863138E-05
  4.57998744E-05 -5.36225988E-06  5.70224118E-21  9.24452582E-08 -1.19910108E-03
  2.81794020E-03 -1.05222135E-04 -8.75297714E-19 -5.33373601E-04 -9.11559470E-02
  1.63238034E-01 -2.06251465E-02 -5.41060478E-17 -1.21189140E-03 -1.51750230E-01
  2.37851192E-01 -1.19336491E-02  1.36523794E-16 -1.51691297E-05 -1.04801915E-02
  2.01952373E-02 -3.15116671E-03  2.01677958E-17  1.28187752E-09 -9.04839851E-05
  2.34266399E-04 -1.04321628E-05  1.47354615E-19 -5.37343009E-04 -4.85683110E-01
 -1.35730664E-02 -1.00783905E-05 -3.07524916E-01 -2.14220139E+00  1.95689071E+00
 -1.16392237E-01  3.62686115E-15 -5.16098347E-01 -6.02423261E+00  5.08390209E-01
 -4.93036655E+00  0.00000000E+00 -6.06163175E-21  1.72670244E-20 -6.15339223E-21
 -5.38548608E-06 -1.34754948E-22  1.00355668E-18 -2.36246986E-18 -1.18307245E-19
 -4.41922396E-04  7.71210818E-19  5.98868061E-17 -1.10984172E-16  3.18453880E-18
 -3.82951061E-02  2.38704882E-18 -2.91815179E-17  4.12066547E-17 -1.44439083E-16
 -1.07354157E-02  3.23147349E-20  1.25373909E-17 -2.44006487E-17  2.64216673E-18
  2.21098276E-03 -2.93750781E-24  8.95343890E-20 -2.31442395E-19 -2.03012538E-20
  1.73352974E-05  6.86722692E-19  5.89909309E-16  2.01936163E-17  1.37053225E-20
  5.96281032E-16  4.43243101E-16 -8.69110185E-16 -2.04272148E-15  2.96328686E-01
  0.00000000E+00  0.00000000E+00  0.00000000E+00  0.00000000E+00 -4.93036655E+00
  6.58597346E-08  9.82217832E-05 -2.53054504E-04 -1.43383334E-04  1.41944941E-19
  3.83347350E-07 -2.27287365E-05  4.77211821E-05 -2.40267848E-04 -4.86104673E-20
 -2.35636453E-04  5.33967337E-03 -5.87503652E-03 -2.00260187E-02  1.26678384E-17
  7.43549126E-03  6.30819406E-01 -7.46978374E-01 -7.48160746E-01  9.33147706E-16
  2.94007865E-03  2.89031833E-01 -4.78993223E-01 -1.19159030E-01  5.71678032E-17
 -1.38824519E-05  3.94372145E-03 -8.83767862E-03 -2.10371957E-03  1.34805625E-18
 -2.15607146E-05 -1.94804574E-03  7.68003175E-01  9.54255693E-04  4.13035641E-01
  6.00262403E+00 -1.95290533E+00 -7.48440728E+00  1.06530529E-14 -2.27490179E-02
  7.41021936E-01  2.34073315E-01 -1.36417421E+00  1.74054452E-15  1.84809872E+01
  0.00000000E+00 -5.03712271E-07  1.48984027E-06 -7.86232827E-07  8.48607199E-23
  2.85333888E-09 -6.35460244E-05  1.58459055E-04  4.44901162E-06 -4.79968778E-20
 -2.20643502E-05 -7.12524404E-03  1.37899419E-02 -1.05250953E-03 -4.34467071E-18
  7.87293044E-05  4.50862914E-03 -8.21138870E-03 -1.68890382E-02 -2.56257500E-18
  6.83980652E-07  1.02515190E-03 -2.16133369E-03  1.26023909E-04 -1.50277110E-18
  0.00000000E+00  5.54871549E-06 -1.51404748E-05 -8.88729603E-07 -7.01233210E-21
 -2.54669286E-05 -4.77704547E-02  2.21624480E-03  7.52243287E-07  3.41138339E-02
  3.19261303E-01 -4.23867265E-01 -3.67084051E-01 -3.12962218E-16 -2.94711071E-01
 -1.86674246E+00  1.94125891E+00 -2.44344110E+00 -5.16664429E-16  5.03346970E-01
 -2.50744641E+00  3.91895276E-08 -1.02641311E-04  2.66828755E-04 -9.75529976E-05
  1.22794412E-19  1.04687129E-05 -8.53850289E-03  1.77865042E-02 -2.62593883E-03
  2.42860082E-18 -5.10818774E-03 -3.38255805E-01  5.38629635E-01 -1.68579792E-01
  1.88796692E-16  1.01963898E-03 -1.21877682E-01  1.57244942E-01 -1.97364861E-01
  2.32264916E-16  8.45293820E-06  6.96716935E-04 -1.19383494E-03 -1.10422924E-03
 -1.82501226E-18 -5.09303084E-08 -4.00136141E-06  9.10317456E-06 -5.46911708E-05
  1.00249732E-20 -5.08138231E-03 -1.97533936E+00  9.27649317E-04  1.53594178E-06
  3.08335994E-02 -4.46949876E-01  2.06647092E-01 -9.68136900E-01  1.06139623E-15
 -3.55742175E-01 -5.87044507E+00 -7.20603513E-01 -7.82891353E+00  1.03932376E-14
  1.73511991E-02 -1.76478073E+00 -1.81829019E+01  2.07745939E-07  1.52128643E-01
  2.49102982E-01  5.91073579E-02 -7.27923207E-17  0.00000000E+00  7.00507869E-03
  1.63042216E-02 -4.58192088E-03  1.13022213E-17  0.00000000E+00  1.37167226E-05
  4.96379203E-05 -5.27157926E-06  1.68371466E-20  0.00000000E+00  5.52458166E-07
  2.23040948E-06  4.85245810E-07 -6.54075509E-22  0.00000000E+00  1.12489005E-05
  3.56009475E-05  2.11161757E-05 -3.62214113E-20  0.00000000E+00  5.82323855E-03
  1.08885550E-02  9.38408729E-03 -1.65702130E-17  6.60964275E-03  1.25574300E-06
  9.57672893E-07  5.14839319E-03  0.00000000E+00  0.00000000E+00  0.00000000E+00
  0.00000000E+00  0.00000000E+00  0.00000000E+00  0.00000000E+00  0.00000000E+00
  0.00000000E+00  0.00000000E+00  0.00000000E+00  0.00000000E+00  0.00000000E+00
  6.02617227E+00  4.02367109E-02  9.87400033E-01  1.19809635E+00  1.02702281E+00
 -3.03575637E-16  2.91749771E-03  2.59882936E-01  4.24031173E-01 -2.23195137E-02
  2.55813089E-16 -6.33133972E-06  4.31184583E-03  9.76093336E-03  6.31547135E-04
  2.83366759E-18  1.04160504E-07  1.26590291E-04  3.25991917E-04  3.00028531E-04
 -8.12473875E-20  2.90188182E-06 -2.34864536E-03 -4.62844189E-03 -2.06876237E-04
  4.03208632E-18 -4.01535736E-03 -6.63399026E-02 -1.00769685E-01  3.42447320E-02
  1.27583941E-16  2.85445819E-01  5.93051192E-04 -4.91971600E-04 -1.24687550E-01
  0.00000000E+00  0.00000000E+00  0.00000000E+00  0.00000000E+00  0.00000000E+00
  0.00000000E+00  0.00000000E+00  0.00000000E+00  0.00000000E+00  0.00000000E+00
 -9.36306311E-08  0.00000000E+00  5.80792934E-08  1.49667455E+00  6.02617227E+00
 -6.66365227E-02 -9.75626977E-01 -9.66110311E-01 -1.04358609E+00  3.92275137E-16
 -6.59785925E-03 -3.26774633E-01 -4.87798815E-01  4.50561312E-02 -3.55307492E-16
  2.31424072E-05 -7.19794812E-03 -1.56642432E-02 -9.33841990E-04 -4.85014111E-18
 -4.22679761E-07 -2.36822331E-04 -6.03685124E-04 -5.27900370E-04  1.58870873E-19
 -9.49354084E-06  3.23674884E-03  5.88266226E-03  1.36383218E-04 -5.54942213E-18
  7.34191589E-03  5.08078505E-02  6.89125274E-02 -4.12430040E-02 -1.10756661E-16
 -2.58868208E-01 -9.62420945E-04  6.40545957E-04  6.02438653E-02  0.00000000E+00
  0.00000000E+00  0.00000000E+00  1.98411955E-07  0.00000000E+00  0.00000000E+00
  0.00000000E+00  0.00000000E+00  0.00000000E+00  0.00000000E+00  1.24945505E-07
  0.00000000E+00  4.52969793E-08  7.96773295E-02  9.30045156E-01  6.02617227E+00
 -9.19880927E-03  6.75826156E-01  7.56491510E-01  5.04359002E-01 -1.98450660E-16
  2.11058515E-03  2.16328705E-01  3.65467673E-01  4.43197785E-02  2.25416946E-16
 -2.93723765E-06  2.81178758E-03  6.47302725E-03  1.13454433E-03  1.90201073E-18
 -9.91567512E-08  1.98069015E-04  5.06621208E-04  2.31894963E-05 -1.24887516E-19
 -5.35101763E-06  4.40332974E-03  8.74829896E-03  1.55772811E-03 -7.68101941E-18
  6.35658055E-03  1.64038968E-01  2.34674410E-01  4.42112055E-02 -3.06677389E-16
  3.52402743E-01  5.34322543E-04  8.97703624E-04  2.52752176E-01  0.00000000E+00
  0.00000000E+00  1.98411955E-07  0.00000000E+00  0.00000000E+00  0.00000000E+00
  0.00000000E+00  0.00000000E+00  0.00000000E+00  0.00000000E+00  1.78057389E-07
  0.00000000E+00  4.29522428E-08  3.90505053E-01  4.55822672E+00  5.08390209E-01
  6.02617227E+00  1.98866095E-17  3.41939484E-16  5.05046804E-16  3.54323020E-16
  5.48540577E-01 -4.70129671E-18 -2.64372846E-16 -4.64712909E-16  3.53730493E-17
  1.04004107E-01  7.78577148E-21 -2.93129554E-18 -6.76462736E-18 -3.87935929E-19
  1.42315860E-03  1.23501976E-22  8.50824877E-20  2.23670570E-19  1.92587058E-19
  4.29270682E-05  9.37306018E-21 -3.92566347E-18 -7.81449089E-18 -1.92471300E-19
 -7.37985793E-04 -1.14084375E-17 -9.13069339E-17 -1.56929599E-16  7.69113874E-17
 -2.39763304E-02 -5.54257287E-16 -7.85419739E-19 -1.14210818E-18 -2.90845391E-16
  0.00000000E+00  0.00000000E+00  0.00000000E+00  0.00000000E+00  0.00000000E+00
  0.00000000E+00  0.00000000E+00  0.00000000E+00  0.00000000E+00  0.00000000E+00
 -1.51543658E-22  0.00000000E+00 -5.82643740E-23  0.00000000E+00  0.00000000E+00
  0.00000000E+00  0.00000000E+00  6.02617227E+00  0.00000000E+00 -5.55007442E-03
 -1.29155025E-02  3.87799033E-03 -7.99021737E-18  0.00000000E+00 -1.27794177E-05
 -4.09473709E-05  2.18833424E-05 -4.43829906E-20  0.00000000E+00 -1.34714237E-09
 -6.25365375E-09  1.90112153E-09 -4.29603015E-24  0.00000000E+00  0.00000000E+00
  0.00000000E+00  0.00000000E+00  0.00000000E+00  0.00000000E+00 -4.94407304E-07
 -1.99149573E-06 -4.12064772E-07  6.70795192E-22  0.00000000E+00 -1.06410729E-03
 -2.91671527E-03 -6.09393699E-04  1.04177339E-18 -1.89361695E-05  0.00000000E+00
 -2.12757830E-07 -8.19669471E-03  0.00000000E+00  0.00000000E+00  0.00000000E+00
  0.00000000E+00  0.00000000E+00  0.00000000E+00  0.00000000E+00  0.00000000E+00
  0.00000000E+00  0.00000000E+00  0.00000000E+00  0.00000000E+00  0.00000000E+00
  4.06116874E-06 -1.87648029E-01 -2.06636376E-01  2.32864674E-01 -4.33168886E-16
 -4.93036655E+00  1.65913899E-03 -2.23417469E-02 -2.64442547E-02  1.57159446E-01
 -1.59458173E-17  9.34354268E-06  6.76088425E-03  1.28814922E-02 -1.40534555E-03
  1.28192411E-17 -9.21123773E-10  5.52547796E-05  1.42674271E-04  1.23123189E-05
  8.96442576E-20  0.00000000E+00 -1.70818563E-05 -4.85383523E-05  1.73947502E-05
 -6.03808508E-21  9.86362716E-08 -1.38025551E-03 -3.21780350E-03 -1.54163188E-04
  9.97584929E-19 -7.88093138E-04 -1.03604722E-01 -1.81097220E-01  8.49537888E-03
  5.94161390E-17  8.06660109E-03  6.44360318E-06 -4.57477738E-04 -4.05599058E-01
  0.00000000E+00  0.00000000E+00  0.00000000E+00  0.00000000E+00  0.00000000E+00
  0.00000000E+00  0.00000000E+00  0.00000000E+00  0.00000000E+00  0.00000000E+00
  0.00000000E+00  0.00000000E+00  0.00000000E+00  2.50399374E-01  5.13574689E-01
  6.14238279E-01  1.31963690E+00  1.07075302E-15 -1.22451762E+00 -4.93036655E+00
 -3.81353091E-03  4.26249902E-02  4.90690953E-02 -2.12831852E-01  3.66133384E-17
 -2.92695129E-05 -1.05395625E-02 -1.85131544E-02  2.23501942E-03 -2.04356557E-17
  4.28445893E-09 -1.18160045E-04 -2.90736317E-04 -2.68500833E-05 -1.91739943E-19
  0.00000000E+00  3.98782166E-05  1.09363669E-04 -4.04616949E-05  1.41398070E-20
 -4.12544988E-07  2.71293675E-03  5.99732988E-03  3.20818134E-04 -1.98245539E-18
  2.13084330E-03  1.52822884E-01  2.48528522E-01 -7.96177004E-03 -9.39203603E-17
 -9.60133104E-03 -1.35596945E-05  8.27470637E-04  4.14917439E-01  0.00000000E+00
  0.00000000E+00  0.00000000E+00  0.00000000E+00  0.00000000E+00  0.00000000E+00
  0.00000000E+00  0.00000000E+00  0.00000000E+00  0.00000000E+00  0.00000000E+00
  0.00000000E+00  0.00000000E+00 -2.79076899E-01 -1.91239934E-01 -9.77675423E-02
 -8.17760683E-01 -6.79296930E-16 -4.93249468E-02 -5.75752577E-01 -4.93036655E+00
  1.21189140E-03  1.51750230E-01  2.37851192E-01 -1.19336491E-02  1.36523794E-16
  1.51691297E-05  1.04801915E-02  2.01952373E-02 -3.15116671E-03  2.01677958E-17
 -1.28187752E-09  9.04839851E-05  2.34266399E-04 -1.04321628E-05  1.47354615E-19
  0.00000000E+00  1.60863138E-05  4.57998744E-05 -5.36225988E-06  5.70224118E-21
 -9.24452582E-08  1.19910108E-03  2.81794020E-03 -1.05222135E-04 -8.75297714E-19
  5.33373601E-04  9.11559470E-02  1.63238034E-01 -2.06251465E-02 -5.41060478E-17
  1.35730664E-02  1.00783905E-05  5.37343009E-04  4.85683110E-01  0.00000000E+00
  0.00000000E+00  0.00000000E+00  0.00000000E+00  0.00000000E+00  0.00000000E+00
  0.00000000E+00  0.00000000E+00  0.00000000E+00  0.00000000E+00  0.00000000E+00
  0.00000000E+00  0.00000000E+00  3.07524916E-01  2.14220139E+00  1.95689071E+00
 -1.16392237E-01  3.62686115E-15  5.16098347E-01  6.02423261E+00  5.08390209E-01
 -4.93036655E+00 -2.38704882E-18  2.91815179E-17  4.12066547E-17 -1.44439083E-16
 -1.07354157E-02 -3.23147349E-20 -1.25373909E-17 -2.44006487E-17  2.64216673E-18
  2.21098276E-03  2.93750781E-24 -8.95343890E-20 -2.31442395E-19 -2.03012538E-20
  1.73352974E-05  0.00000000E+00  6.06163175E-21  1.72670244E-20 -6.15339223E-21
 -5.38548608E-06  1.34754948E-22 -1.00355668E-18 -2.36246986E-18 -1.18307245E-19
 -4.41922396E-04 -7.71210818E-19 -5.98868061E-17 -1.10984172E-16  3.18453880E-18
 -3.82951061E-02 -2.01936163E-17 -1.37053225E-20 -6.86722692E-19 -5.89909309E-16
  0.00000000E+00  0.00000000E+00  0.00000000E+00  0.00000000E+00  0.00000000E+00
  0.00000000E+00  0.00000000E+00  0.00000000E+00  0.00000000E+00  0.00000000E+00
  0.00000000E+00  0.00000000E+00  0.00000000E+00 -5.96281032E-16 -4.43243101E-16
 -8.69110185E-16 -2.04272148E-15  2.96328686E-01  0.00000000E+00  0.00000000E+00
  0.00000000E+00  0.00000000E+00 -4.93036655E+00  7.43549126E-03  6.30819406E-01
  7.46978374E-01  7.48160746E-01 -9.33147706E-16  2.94007865E-03  2.89031833E-01
  4.78993223E-01  1.19159030E-01 -5.71678032E-17 -1.38824519E-05  3.94372145E-03
  8.83767862E-03  2.10371957E-03 -1.34805625E-18  6.58597346E-08  9.82217832E-05
  2.53054504E-04  1.43383334E-04 -1.41944941E-19  3.83347350E-07 -2.27287365E-05
 -4.77211821E-05  2.40267848E-04  4.86104673E-20 -2.35636453E-04  5.33967337E-03
  5.87503652E-03  2.00260187E-02 -1.26678384E-17  7.68003175E-01  9.54255693E-04
 -2.15607146E-05 -1.94804574E-03  0.00000000E+00 -9.36306311E-08 -1.24945505E-07
 -1.78057389E-07  1.51543658E-22  0.00000000E+00  0.00000000E+00  0.00000000E+00
  0.00000000E+00  0.00000000E+00  0.00000000E+00  0.00000000E+00 -3.35467577E-07
  4.13035641E-01  6.00262403E+00  1.95290533E+00  7.48440728E+00 -1.06530529E-14
 -2.27490179E-02  7.41021936E-01 -2.34073315E-01  1.36417421E+00 -1.74054452E-15
  1.84809872E+01  7.87293044E-05  4.50862914E-03  8.21138870E-03  1.68890382E-02
  2.56257500E-18  6.83980652E-07  1.02515190E-03  2.16133369E-03 -1.26023909E-04
  1.50277110E-18  0.00000000E+00  5.54871549E-06  1.51404748E-05  8.88729603E-07
  7.01233210E-21  0.00000000E+00 -5.03712271E-07 -1.48984027E-06  7.86232827E-07
 -8.48607199E-23  2.85333888E-09 -6.35460244E-05 -1.58459055E-04 -4.44901162E-06
  4.79968778E-20 -2.20643502E-05 -7.12524404E-03 -1.37899419E-02  1.05250953E-03
  4.34467071E-18  2.21624480E-03  7.52243287E-07 -2.54669286E-05 -4.77704547E-02
  0.00000000E+00  0.00000000E+00  0.00000000E+00  0.00000000E+00  0.00000000E+00
  0.00000000E+00  0.00000000E+00  0.00000000E+00  0.00000000E+00  0.00000000E+00
  0.00000000E+00  0.00000000E+00  0.00000000E+00  3.41138339E-02  3.19261303E-01
  4.23867265E-01  3.67084051E-01  3.12962218E-16 -2.94711071E-01 -1.86674246E+00
 -1.94125891E+00  2.44344110E+00  5.16664429E-16  5.03346970E-01 -2.50744641E+00
  1.01963898E-03 -1.21877682E-01 -1.57244942E-01  1.97364861E-01 -2.32264916E-16
  8.45293820E-06  6.96716935E-04  1.19383494E-03  1.10422924E-03  1.82501226E-18
 -5.09303084E-08 -4.00136141E-06 -9.10317456E-06  5.46911708E-05 -1.00249732E-20
  3.91895276E-08 -1.02641311E-04 -2.66828755E-04  9.75529976E-05 -1.22794412E-19
  1.04687129E-05 -8.53850289E-03 -1.77865042E-02  2.62593883E-03 -2.42860082E-18
 -5.10818774E-03 -3.38255805E-01 -5.38629635E-01  1.68579792E-01 -1.88796692E-16
  9.27649317E-04  1.53594178E-06 -5.08138231E-03 -1.97533936E+00  0.00000000E+00
  5.80792934E-08 -4.52969793E-08 -4.29522428E-08  5.82643740E-23  0.00000000E+00
  0.00000000E+00  0.00000000E+00  0.00000000E+00  0.00000000E+00 -3.35467577E-07
  0.00000000E+00  0.00000000E+00  3.08335994E-02 -4.46949876E-01 -2.06647092E-01
  9.68136900E-01 -1.06139623E-15 -3.55742175E-01 -5.87044507E+00  7.20603513E-01
  7.82891353E+00 -1.03932376E-14  1.73511991E-02 -1.76478073E+00 -1.81829019E+01
Multipole Matrix (0,2,0)                   R   N=        1830
  3.08581032E-01  9.52778092E-02  1.11886633E+00  0.00000000E+00  0.00000000E+00
  7.85906151E-01  7.57066286E-02  8.83696574E-01  0.00000000E+00  1.80268657E+00
  0.00000000E+00  0.00000000E+00  0.00000000E+00  0.00000000E+00  7.85906151E-01
  2.19306823E-06  2.22320997E-01 -2.38630245E-01  2.81366558E-01 -5.51795972E-16
  6.28216534E+00  1.89755946E-02  1.20156876E+00 -7.49126095E-01  1.57526190E+00
 -1.73223961E-15  1.57889149E+00  7.09245064E+00  2.25875660E-02  8.89047019E-01
 -4.87944077E-02  1.32891531E+00 -1.66807281E-15  0.00000000E+00  0.00000000E+00
  6.75949046E+00 -2.19774908E-02 -9.97012012E-02  1.91613643E-01  1.75027550E-01
  4.43077265E-16  3.59309062E-01  4.19408700E+00  0.00000000E+00  7.77627088E+00
  5.22302943E-17  2.05578536E-15 -1.66807281E-15  3.07291356E-15  6.72582050E-01
  0.00000000E+00  0.00000000E+00  0.00000000E+00  0.00000000E+00  6.75949046E+00
  0.00000000E+00  6.89022342E-03 -1.50485891E-02  5.41050857E-03 -1.14087738E-17
  4.74860496E-06  1.55880591E-01 -2.55081468E-01 -4.16800736E-02  7.50130495E-17
  3.92541670E+00  8.42731644E-04  1.59063784E-01 -2.08425460E-01  1.64825967E-01
 -1.58013413E-16  2.36190642E-01  2.17452074E+00 -2.24654748E+00  7.72852420E-01
  6.60653160E-16  9.93563760E-01  4.73570200E+00  1.83483921E-03  2.24255969E-01
 -2.58217618E-01  2.37872155E-01 -2.44453956E-16  3.81150119E-01  2.16492951E+00
 -1.69260867E+00  6.67854180E-01  8.58939173E-16  0.00000000E+00  0.00000000E+00
  4.40274182E+00 -4.89979915E-04  3.20220335E-02 -3.99869363E-02  7.94218305E-02
 -3.03152613E-17  9.03788774E-02  1.62625499E+00 -1.81690990E+00  1.41521200E+00
  5.34307544E-16  2.83600843E-01  3.31037187E+00  0.00000000E+00  5.41952223E+00
  1.39104506E-18  1.70014983E-16 -2.44453956E-16  1.80337810E-16  6.42260741E-02
 -1.12086672E-16 -6.36651366E-16  8.58939173E-16 -1.96399132E-16  1.22820933E+00
  0.00000000E+00  0.00000000E+00  0.00000000E+00  0.00000000E+00  4.40274182E+00
  0.00000000E+00  1.40979227E-04 -3.65937270E-04 -9.66614649E-05  1.07583605E-19
  0.00000000E+00  4.74596979E-04 -8.17580327E-04 -7.97210646E-04  1.33047700E-18
  5.54745732E-07  1.01087993E-02 -4.86245768E-03 -1.62281090E-02  2.79613890E-17
  3.08581032E-01  1.40979227E-04  2.76771822E-02 -4.11401596E-02 -7.08073566E-03
  1.20949875E-17  1.04752221E-02  1.28356110E-01 -1.51988019E-01 -4.25074615E-02
  2.47335407E-16  1.33304344E-01  5.68652455E-01 -2.02052484E-01 -1.04112751E-01
  1.16189558E-15  9.52778092E-02  1.11886633E+00  3.65937270E-04  4.11401596E-02
 -5.45816044E-02 -1.08094950E-02  1.89375114E-17  1.80610581E-02  1.31334046E-01
 -1.18263165E-01 -5.15756361E-02  2.80486422E-16  6.73898217E-02  1.61565327E-01
  2.38271909E-01 -5.61263444E-02  4.20007697E-16  0.00000000E+00  0.00000000E+00
  7.85906151E-01  9.66614649E-05  7.08073566E-03 -1.08094950E-02  2.72939470E-02
  3.17793386E-18  1.64709011E-02  1.83881072E-01 -2.24782689E-01 -1.01112258E-02
  3.65796714E-16  2.10864980E-01  7.63845573E-01 -3.15854274E-01  1.52099480E-01
  1.81630871E-15 -7.57066286E-02 -8.83696574E-01  0.00000000E+00  1.80268657E+00
 -1.07583605E-19 -1.20949875E-17  1.89375114E-17  3.17793386E-18  9.83286847E-03
 -2.93913901E-17 -2.13724476E-16  2.80486422E-16  8.39308325E-17  5.40962077E-02
 -3.87522759E-16 -9.29075636E-16  4.20007697E-16  3.22752536E-16  3.11310829E-01
  0.00000000E+00  0.00000000E+00  0.00000000E+00  0.00000000E+00  7.85906151E-01
  0.00000000E+00  1.04752221E-02 -1.80610581E-02 -1.64709011E-02  2.93913901E-17
  0.00000000E+00  2.21997953E-03 -1.86772541E-03 -5.69984694E-03  1.07464303E-17
  0.00000000E+00  9.89753902E-03  4.56202429E-03 -2.28043149E-02  4.41825838E-17
  2.19306823E-06  2.22320997E-01  2.38630245E-01 -2.81366558E-01  5.51795972E-16
  6.28216534E+00  4.74596979E-04  1.28356110E-01 -1.31334046E-01 -1.83881072E-01
  2.13724476E-16  2.21997953E-03  3.35086191E-02 -1.87739952E-02 -5.00189684E-02
  1.08020927E-16  5.95641963E-03  8.09978313E-02  2.47773931E-02 -1.24538460E-01
  2.39965677E-16  1.89755946E-02  1.20156876E+00  7.49126095E-01 -1.57526190E+00
  1.73223961E-15  1.57889149E+00  7.09245064E+00  8.17580327E-04  1.51988019E-01
 -1.18263165E-01 -2.24782689E-01  2.80486422E-16  1.86772541E-03  1.87739952E-02
  3.37310802E-03 -3.11194422E-02  6.66330901E-17 -2.74610568E-03 -2.69528742E-02
  2.92758269E-02  4.53592444E-02 -8.87739456E-17 -2.25875660E-02 -8.89047019E-01
 -4.87944077E-02  1.32891531E+00 -1.66807281E-15  0.00000000E+00  0.00000000E+00
  6.75949046E+00  7.97210646E-04  4.25074615E-02 -5.15756361E-02 -1.01112258E-02
  8.39308325E-17  5.69984694E-03  5.00189684E-02 -3.11194422E-02 -4.83636493E-02
  1.79053578E-16  1.38020838E-02  9.26004802E-02  3.30121211E-02 -8.01898359E-02
  3.19717896E-16  2.19774908E-02  9.97012012E-02  1.91613643E-01  1.75027550E-01
  4.43077265E-16 -3.59309062E-01 -4.19408700E+00  0.00000000E+00  7.77627088E+00
 -1.33047700E-18 -2.47335407E-16  2.80486422E-16  3.65796714E-16  5.40962077E-02
 -1.07464303E-17 -1.08020927E-16  6.66330901E-17  1.79053578E-16  1.49539132E-02
 -2.65956594E-17 -2.61034915E-16 -8.87739456E-17  4.39298103E-16  3.84420834E-02
 -5.22302943E-17 -2.05578536E-15 -1.66807281E-15  3.07291356E-15  6.72582050E-01
  0.00000000E+00  0.00000000E+00  0.00000000E+00  0.00000000E+00  6.75949046E+00
  5.54745732E-07  1.33304344E-01 -6.73898217E-02 -2.10864980E-01  3.87522759E-16
  0.00000000E+00  5.95641963E-03  2.74610568E-03 -1.38020838E-02  2.65956594E-17
  0.00000000E+00  1.39784743E-03  2.46261530E-03 -2.86291342E-03  5.69583741E-18
  0.00000000E+00  6.89022342E-03  1.50485891E-02 -5.41050857E-03  1.14087738E-17
  4.74860496E-06  1.55880591E-01  2.55081468E-01  4.16800736E-02 -7.50130495E-17
  3.92541670E+00  1.01087993E-02  5.68652455E-01 -1.61565327E-01 -7.63845573E-01
  9.29075636E-16  9.89753902E-03  8.09978313E-02  2.69528742E-02 -9.26004802E-02
  2.61034915E-16  1.39784743E-03  3.11891870E-02  3.47656162E-02 -3.43461898E-02
  8.04101631E-17  8.42731644E-04  1.59063784E-01  2.08425460E-01 -1.64825967E-01
  1.58013413E-16  2.36190642E-01  2.17452074E+00  2.24654748E+00 -7.72852420E-01
 -6.60653160E-16  9.93563760E-01  4.73570200E+00  4.86245768E-03  2.02052484E-01
  2.38271909E-01 -3.15854274E-01  4.20007697E-16 -4.56202429E-03 -2.47773931E-02
  2.92758269E-02  3.30121211E-02 -8.87739456E-17 -2.46261530E-03 -3.47656162E-02
 -2.94336623E-02  4.19243712E-02 -9.79709376E-17 -1.83483921E-03 -2.24255969E-01
 -2.58217618E-01  2.37872155E-01 -2.44453956E-16 -3.81150119E-01 -2.16492951E+00
 -1.69260867E+00  6.67854180E-01  8.58939173E-16  0.00000000E+00  0.00000000E+00
  4.40274182E+00  1.62281090E-02  1.04112751E-01 -5.61263444E-02  1.52099480E-01
  3.22752536E-16  2.28043149E-02  1.24538460E-01  4.53592444E-02 -8.01898359E-02
  4.39298103E-16  2.86291342E-03  3.43461898E-02  4.19243712E-02 -8.56168849E-03
  9.69678058E-17  4.89979915E-04 -3.20220335E-02 -3.99869363E-02  7.94218305E-02
 -3.03152613E-17 -9.03788774E-02 -1.62625499E+00 -1.81690990E+00  1.41521200E+00
  5.34307544E-16 -2.83600843E-01 -3.31037187E+00  0.00000000E+00  5.41952223E+00
 -2.79613890E-17 -1.16189558E-15  4.20007697E-16  1.81630871E-15  3.11310829E-01
 -4.41825838E-17 -2.39965677E-16 -8.87739456E-17  3.19717896E-16  3.84420834E-02
 -5.69583741E-18 -8.04101631E-17 -9.79709376E-17  9.69678058E-17  1.29244165E-02
 -1.39104506E-18 -1.70014983E-16 -2.44453956E-16  1.80337810E-16  6.42260741E-02
  1.12086672E-16  6.36651366E-16  8.58939173E-16 -1.96399132E-16  1.22820933E+00
  0.00000000E+00  0.00000000E+00  0.00000000E+00  0.00000000E+00  4.40274182E+00
  2.92072724E-03  6.85752707E-01 -2.34609986E-01  1.13373993E+00 -1.68550360E-15
  4.26208573E-01  6.53450841E+00  1.92640669E+00  8.06845951E+00 -1.10702046E-14
  2.30518511E-02  1.06629306E+00  1.07698331E+00  1.23584893E+00 -1.51014438E-15
  2.14190604E-05  2.63716975E-02  2.73804270E-02  4.73340547E-02 -6.27831426E-17
  6.29145949E-05  3.13164229E-03  1.90275881E-03  6.66727749E-03 -1.09441292E-17
  2.89723311E-04  1.43053678E-02 -9.92366728E-04  3.09230631E-02 -4.92400339E-17
  2.06402965E+01  4.69830829E-05  2.96954937E-02 -4.25906651E-02  3.84319470E-02
 -4.82656708E-17  3.45942972E-02  9.54073676E-01 -1.17431865E+00  7.04406813E-01
 -7.19573600E-16  2.67780009E-01  4.22554625E+00 -2.58404284E+00  4.73519484E+00
 -5.97437183E-15  1.35106377E-03  3.25904585E-01 -5.61725916E-02  5.64934005E-01
 -8.26244834E-16  4.89960234E-04  9.79679852E-03 -6.44616051E-03  1.63488856E-02
 -3.38456201E-17  3.96265099E-05  2.80571270E-03 -3.46334409E-03  4.67384203E-03
 -8.00956667E-18  8.58305203E-01  1.31018413E+01  2.14190604E-05  2.63716975E-02
 -2.73804270E-02 -4.73340547E-02  6.27831426E-17  6.29145949E-05  3.13164229E-03
 -1.90275881E-03 -6.66727749E-03  1.09441292E-17  2.89723311E-04  1.43053678E-02
  9.92366728E-04 -3.09230631E-02  4.92400339E-17  2.92072724E-03  6.85752707E-01
  2.34609986E-01 -1.13373993E+00  1.68550360E-15  4.26208573E-01  6.53450841E+00
 -1.92640669E+00 -8.06845951E+00  1.10702046E-14  2.30518511E-02  1.06629306E+00
 -1.07698331E+00 -1.23584893E+00  1.51014438E-15  1.80484250E-04  1.52813856E-03
  2.06402965E+01  1.35106377E-03  3.25904585E-01  5.61725916E-02 -5.64934005E-01
  8.26244834E-16  4.89960234E-04  9.79679852E-03  6.44616051E-03 -1.63488856E-02
  3.38456201E-17  3.96265099E-05  2.80571270E-03  3.46334409E-03 -4.67384203E-03
  8.00956667E-18  4.69830829E-05  2.96954937E-02  4.25906651E-02 -3.84319470E-02
  4.82656708E-17  3.45942972E-02  9.54073676E-01  1.17431865E+00 -7.04406813E-01
  7.19573600E-16  2.67780009E-01  4.22554625E+00  2.58404284E+00 -4.73519484E+00
  5.97437183E-15  1.52813856E-03  1.73633376E-04  8.58305203E-01  1.31018413E+01
  0.00000000E+00  1.24709092E-07 -5.01652009E-07 -1.15209515E-07  1.47536804E-22
  0.00000000E+00  2.31077724E-06 -7.28698603E-06 -4.44205801E-06  7.43979969E-21
  0.00000000E+00  1.19133613E-03 -2.21514860E-03 -1.97057890E-03  3.38947874E-18
  4.68694584E-08  3.37342225E-02 -5.48311350E-02 -1.47099534E-02  1.61365908E-17
  0.00000000E+00  1.69549621E-03 -3.92320327E-03  1.03702073E-03 -2.73213427E-18
  0.00000000E+00  3.36511149E-06 -1.21232427E-05  1.14454964E-06 -4.12527359E-21
  1.90350723E-07  1.02011455E-03  1.64253521E-03  3.17551982E-07  1.26062489E+00
  3.32293791E-08  3.52275643E-04 -7.53613555E-04 -2.53217121E-04  2.21639171E-19
  1.29504225E-05  2.47565456E-03 -4.36511056E-03 -1.15457918E-03  4.45665026E-18
  3.95827504E-03  6.10699577E-02 -7.48815290E-02 -2.78261231E-02  1.14578928E-16
  1.09015318E-02  4.77758629E-01 -4.69759766E-01 -4.29012922E-01  1.38248480E-16
  6.90578908E-03  1.99936436E-01 -2.94073056E-01 -2.44450837E-02 -2.04793639E-16
  9.00329039E-06  5.30930573E-03 -1.04685215E-02 -1.60674937E-03 -3.56220826E-18
  4.67461902E-04  7.44474382E-02  2.49056728E-01  9.28993950E-04  3.31729697E-01
  2.07091019E+00  1.33517876E-07  7.56274508E-04 -1.52016097E-03 -5.45915185E-04
  4.80155043E-19  4.08066827E-05  4.23224349E-03 -6.87461029E-03 -2.06652891E-03
  7.86888258E-18  7.35751669E-03  6.82139550E-02 -6.66020528E-02 -3.57174542E-02
  1.40429250E-16  1.81471651E-02  4.96360641E-01 -3.67541639E-01 -4.85651391E-01
  1.76198295E-16  1.60052166E-02  2.78405691E-01 -3.66907898E-01 -2.81285394E-02
 -3.10985107E-16  3.24735987E-05  1.03878339E-02 -1.92277838E-02 -3.14251349E-03
 -7.13897833E-18  7.49094437E-04  5.00626710E-02  2.73823499E-01  1.84189088E-03
  0.00000000E+00  0.00000000E+00  1.73795001E+00  3.27401460E-08  4.93407348E-05
 -1.05253640E-04  2.54942598E-04  3.09552944E-20  2.41178015E-05  3.65300185E-03
 -6.50361731E-03 -4.61293838E-04  6.64000312E-18  6.37900816E-03  7.47587277E-02
 -9.60688685E-02  1.33552144E-02  1.46998440E-16  1.83012887E-03 -2.71212272E-01
  2.80730875E-01  4.52806134E-01 -8.26180096E-17 -5.14703265E-03 -1.89911806E-01
  2.86072484E-01  7.66832020E-02  1.99222009E-16 -4.43246141E-06 -4.08332147E-03
  8.10996758E-03  2.54274760E-03  2.75964409E-18  8.75845120E-04  1.32206096E-01
 -3.41001617E-01 -9.84193841E-04 -1.59354659E-01 -1.86009031E+00  0.00000000E+00
  2.75473043E+00 -3.92678597E-23 -2.22421763E-19  4.80155043E-19  1.60554688E-19
  1.12453642E-04 -4.16624300E-20 -4.32099687E-18  7.86888258E-18  2.10986560E-18
  8.32645258E-04 -1.12580016E-17 -1.04376632E-16  1.40429250E-16  5.46525647E-17
  2.51736096E-02 -5.34064042E-18 -1.46077015E-16  1.76198295E-16  1.42925324E-16
  2.31169245E-01  1.11460962E-17  1.93882825E-16 -3.10985107E-16 -1.95888261E-17
  7.96506040E-02  1.10500534E-20  3.53475204E-18 -7.13897833E-18 -1.06932841E-18
  1.75205303E-03 -1.10137988E-18 -1.91427809E-16  4.85548213E-16  1.21142086E-18
  0.00000000E+00  0.00000000E+00  0.00000000E+00  0.00000000E+00  1.73795001E+00
  0.00000000E+00  0.00000000E+00  0.00000000E+00  0.00000000E+00  0.00000000E+00
  0.00000000E+00  6.73500670E-08 -2.70171580E-07 -5.23369601E-08  9.12030468E-23
  0.00000000E+00  1.36779831E-04 -3.73005593E-04 -7.08853218E-05  1.33627346E-19
  0.00000000E+00  6.34133926E-04 -1.46829825E-03  4.73611126E-04 -9.11412831E-19
  0.00000000E+00  1.38083098E-06 -4.40755381E-06  2.41800362E-06 -4.78937324E-21
  0.00000000E+00  1.33909252E-10 -6.21251879E-10  1.92263695E-10 -4.27023901E-25
  3.00610640E-08  1.07407864E-03  1.97140391E-06  0.00000000E+00  3.54133027E-07
  2.03127640E-02 -2.17453189E-02  2.57241474E-02 -4.59612573E-17  5.02273861E-01
  0.00000000E+00  1.82422044E-05 -4.71289204E-05  9.60044842E-06 -6.44938099E-21
  5.55836453E-07  1.00151307E-03 -2.16140722E-03  3.63018211E-05  7.29636045E-19
  7.74684873E-04  4.98963420E-02 -8.10196160E-02  1.13014121E-02  2.90248630E-17
  4.12171539E-04  5.12113633E-02 -6.95218955E-02  1.98487844E-02 -4.31541395E-17
  1.96033789E-05  3.69114484E-03 -6.59412010E-03  1.14183527E-03 -7.16535832E-18
  1.11849431E-09  4.88834603E-05 -1.16070870E-04  1.00590656E-05 -7.97825125E-20
  3.80870321E-04  2.02539619E-01  4.14223332E-03  5.33245766E-06  5.06319827E-02
  4.06431160E-01 -2.68242524E-01  6.02422253E-02 -5.66961731E-16  1.43383823E-01
  1.31255916E+00  0.00000000E+00  4.71342182E-05 -1.16243761E-04  2.48389305E-05
 -1.66925270E-20  2.23574266E-06  2.14683592E-03 -4.36588009E-03  7.27600187E-05
  1.58231524E-18  2.11847563E-03  7.79832195E-02 -1.16326135E-01  1.74485792E-02
  4.82017203E-17  9.53575215E-04  7.01783998E-02 -8.28840865E-02  2.85179915E-02
 -6.32508706E-17  6.25465171E-05  6.38046999E-03 -1.05286781E-02  2.07298381E-03
 -1.27889160E-17  5.18905104E-09  1.15701456E-04 -2.60427172E-04  2.39278232E-05
 -1.89626308E-19  7.59618164E-04  2.32670785E-01  5.60804162E-03  1.25381690E-05
  5.54566579E-02  2.47693492E-01  2.06586526E-03  6.37202435E-02 -4.30341800E-16
  0.00000000E+00  0.00000000E+00  9.79598981E-01  0.00000000E+00  8.06387128E-06
 -2.08654185E-05  1.43395491E-05 -2.85533876E-21  5.32532212E-07  1.00551544E-03
 -2.17868035E-03  2.78598432E-04  7.35467014E-19  5.45483121E-04  4.71558417E-02
 -7.78148123E-02  2.42105069E-02  2.78767585E-17 -3.15602395E-04 -9.73764355E-03
  1.37182036E-02  5.12144642E-02  8.51526368E-18 -3.23368256E-05 -5.19967999E-03
  9.37077392E-03 -1.92990966E-04  1.01825493E-17 -1.56724591E-09 -5.86578054E-05
  1.39449333E-04  1.36921587E-05  9.58519404E-20  5.11968417E-04  2.65529951E-01
 -7.38914594E-03 -8.31021521E-06 -6.30364306E-02 -2.91353613E-01  2.43330202E-01
  4.37615442E-01  5.14306645E-16  9.86498936E-02  1.15150515E+00  0.00000000E+00
  1.99637940E+00  0.00000000E+00  6.45010596E-21 -1.66925270E-20  3.39909603E-21
  5.73705893E-06 -7.54729797E-22 -7.24717147E-19  1.58231524E-18 -2.45619298E-20
  3.21426128E-04 -7.58933060E-19 -2.79370895E-17  4.82017203E-17 -6.25086425E-18
  1.82235046E-02  5.91910183E-19  4.35616497E-17 -6.32508706E-17  1.77018963E-17
  1.90139114E-02  6.79648231E-20  6.93320003E-18 -1.27889160E-17  2.25256313E-18
  1.24067718E-03  3.56674787E-24  7.95285916E-20 -1.89626308E-19  1.64470366E-20
  1.54489552E-05 -5.68385850E-19 -2.94432476E-16  1.05307589E-17  1.13415729E-20
  1.17214088E-16  5.23528964E-16 -4.30341800E-16  1.34680136E-16  2.05670385E-01
  0.00000000E+00  0.00000000E+00  0.00000000E+00  0.00000000E+00  9.79598981E-01
  1.97022537E-08  2.04355689E-04 -3.98835158E-04 -2.93335525E-04  2.94343913E-19
  1.52930608E-06  2.53262933E-04 -4.10483244E-04 -3.11169862E-04  6.27837993E-19
  2.30396751E-04  7.90161332E-03 -8.86797470E-03 -1.16143016E-02  2.03723887E-17
  2.17005884E-03  3.61147916E-01 -3.64370424E-01 -4.73528448E-01  5.20619705E-16
  7.43433828E-03  2.93543539E-01 -4.17378434E-01 -1.83666863E-01  5.77574225E-17
  1.95939547E-05  7.60204152E-03 -1.38818087E-02 -5.65429078E-03  2.65048588E-18
  2.92849514E-05  5.29626345E-03  8.67151357E-01  2.59361236E-03  1.00196604E-01
  2.76746470E+00 -5.65891648E-01 -3.79055931E+00  4.71556818E-15  2.37965661E-03
  2.74095294E-01  1.11868989E-01 -4.51668227E-01  6.64533922E-16  1.04506659E+01
  0.00000000E+00  6.98895661E-07 -1.87928635E-06  2.30208108E-07 -1.17743387E-22
  1.55528258E-08  4.31994214E-05 -9.99380129E-05  2.70363250E-06  3.28475477E-20
  2.15015202E-05  3.26377968E-03 -5.89471775E-03  7.28516144E-04  2.00800628E-18
  1.99003006E-05  5.88788132E-03 -9.43611347E-03 -2.30270685E-04 -3.21209438E-18
  1.45935869E-06  5.31170826E-04 -1.04973483E-03  2.26877209E-05 -7.89122354E-19
  0.00000000E+00  4.24591052E-06 -1.06561948E-05 -3.49157310E-07 -5.38569879E-21
  1.97586310E-05  2.12447781E-02  1.17789456E-03  6.26881926E-07  7.09591361E-03
  1.30568854E-01 -1.43990164E-01 -3.09370557E-02 -1.17934026E-16  3.27131658E-02
  5.21956403E-01 -3.94038137E-01  2.82858513E-01  1.15694277E-16  1.72823413E-01
  7.23547876E-01  1.39925446E-08  1.68303125E-04 -3.59450072E-04  1.82380685E-04
 -2.02645991E-19  4.78046061E-05  1.08963859E-02 -1.98436632E-02  5.52820528E-03
 -3.15067737E-18  5.44829728E-03  2.34617774E-01 -3.27529701E-01  1.68017615E-01
 -1.29134302E-16  2.52006210E-04  6.07732696E-02 -6.94748694E-02  8.50264195E-02
 -1.13689360E-16  1.90334036E-05  1.21407957E-03 -1.79686150E-03  1.19069029E-03
 -3.30157614E-18  6.61910877E-08  5.06241454E-05 -9.94813009E-05  5.63546259E-05
 -1.18074385E-19  7.82993604E-03  1.39885200E+00  6.33825104E-04  3.44111304E-06
  6.10295011E-03  1.95318225E-01 -8.06079752E-02  2.96461808E-01 -4.78834524E-16
  4.72618015E-02  1.96382503E+00  3.94895227E-01  2.75708228E+00 -3.29065713E-15
  2.91832457E-02  5.30512393E-01  7.98424434E+00  4.68694584E-08  3.37342225E-02
  5.48311350E-02  1.47099534E-02 -1.61365908E-17  0.00000000E+00  1.69549621E-03
  3.92320327E-03 -1.03702073E-03  2.73213427E-18  0.00000000E+00  3.36511149E-06
  1.21232427E-05 -1.14454964E-06  4.12527359E-21  0.00000000E+00  1.24709092E-07
  5.01652009E-07  1.15209515E-07 -1.47536804E-22  0.00000000E+00  2.31077724E-06
  7.28698603E-06  4.44205801E-06 -7.43979969E-21  0.00000000E+00  1.19133613E-03
  2.21514860E-03  1.97057890E-03 -3.38947874E-18  1.64253521E-03  3.17551982E-07
  1.90350723E-07  1.02011455E-03  0.00000000E+00  0.00000000E+00  0.00000000E+00
  0.00000000E+00  0.00000000E+00  0.00000000E+00  0.00000000E+00  0.00000000E+00
  0.00000000E+00  0.00000000E+00  0.00000000E+00  0.00000000E+00  0.00000000E+00
  1.26062489E+00  1.09015318E-02  4.77758629E-01  4.69759766E-01  4.29012922E-01
 -1.38248480E-16  6.90578908E-03  1.99936436E-01  2.94073056E-01  2.44450837E-02
  2.04793639E-16  9.00329039E-06  5.30930573E-03  1.04685215E-02  1.60674937E-03
  3.56220826E-18  3.32293791E-08  3.52275643E-04  7.53613555E-04  2.53217121E-04
 -2.21639171E-19  1.29504225E-05  2.47565456E-03  4.36511056E-03  1.15457918E-03
 -4.45665026E-18  3.95827504E-03  6.10699577E-02  7.48815290E-02  2.78261231E-02
 -1.14578928E-16  2.49056728E-01  9.28993950E-04  4.67461902E-04  7.44474382E-02
  0.00000000E+00  6.33037532E-07  1.81616467E-06  3.70564095E-07 -5.34230018E-22
  0.00000000E+00  0.00000000E+00  0.00000000E+00  0.00000000E+00  0.00000000E+00
  4.32240432E-07  0.00000000E+00  7.66486503E-07  3.31729697E-01  2.07091019E+00
 -1.81471651E-02 -4.96360641E-01 -3.67541639E-01 -4.85651391E-01  1.76198295E-16
 -1.60052166E-02 -2.78405691E-01 -3.66907898E-01 -2.81285394E-02 -3.10985107E-16
 -3.24735987E-05 -1.03878339E-02 -1.92277838E-02 -3.14251349E-03 -7.13897833E-18
 -1.33517876E-07 -7.56274508E-04 -1.52016097E-03 -5.45915185E-04  4.80155043E-19
 -4.08066827E-05 -4.23224349E-03 -6.87461029E-03 -2.06652891E-03  7.86888258E-18
 -7.35751669E-03 -6.82139550E-02 -6.66020528E-02 -3.57174542E-02  1.40429250E-16
 -2.73823499E-01 -1.84189088E-03 -7.49094437E-04 -5.00626710E-02  0.00000000E+00
 -1.81616467E-06 -5.01210710E-06 -1.06313668E-06  1.53268904E-21  0.00000000E+00
  0.00000000E+00  0.00000000E+00  0.00000000E+00  0.00000000E+00 -1.11683575E-06
  0.00000000E+00 -2.12207517E-06  0.00000000E+00  0.00000000E+00  1.73795001E+00
 -1.83012887E-03  2.71212272E-01  2.80730875E-01  4.52806134E-01 -8.26180096E-17
  5.14703265E-03  1.89911806E-01  2.86072484E-01  7.66832020E-02  1.99222009E-16
  4.43246141E-06  4.08332147E-03  8.10996758E-03  2.54274760E-03  2.75964409E-18
 -3.27401460E-08 -4.93407348E-05 -1.05253640E-04  2.54942598E-04  3.09552944E-20
 -2.41178015E-05 -3.65300185E-03 -6.50361731E-03 -4.61293838E-04  6.64000312E-18
 -6.37900816E-03 -7.47587277E-02 -9.60688685E-02  1.33552144E-02  1.46998440E-16
  3.41001617E-01  9.84193841E-04 -8.75845120E-04 -1.32206096E-01  0.00000000E+00
 -3.70564095E-07 -1.06313668E-06  3.78317056E-07  3.12724685E-22  0.00000000E+00
  0.00000000E+00  0.00000000E+00  0.00000000E+00  0.00000000E+00 -6.51578288E-07
  0.00000000E+00  6.91571475E-07  1.59354659E-01  1.86009031E+00  0.00000000E+00
  2.75473043E+00  5.34064042E-18  1.46077015E-16  1.76198295E-16  1.42925324E-16
  2.31169245E-01 -1.11460962E-17 -1.93882825E-16 -3.10985107E-16 -1.95888261E-17
  7.96506040E-02 -1.10500534E-20 -3.53475204E-18 -7.13897833E-18 -1.06932841E-18
  1.75205303E-03  3.92678597E-23  2.22421763E-19  4.80155043E-19  1.60554688E-19
  1.12453642E-04  4.16624300E-20  4.32099687E-18  7.86888258E-18  2.10986560E-18
  8.32645258E-04  1.12580016E-17  1.04376632E-16  1.40429250E-16  5.46525647E-17
  2.51736096E-02 -4.85548213E-16 -1.21142086E-18  1.10137988E-18  1.91427809E-16
  0.00000000E+00  5.34230018E-22  1.53268904E-21  3.12724685E-22  1.98411955E-07
  0.00000000E+00  0.00000000E+00  0.00000000E+00  0.00000000E+00  0.00000000E+00
  6.99592596E-22  0.00000000E+00 -7.68929055E-22  0.00000000E+00  0.00000000E+00
  0.00000000E+00  0.00000000E+00  1.73795001E+00  0.00000000E+00  6.34133926E-04
  1.46829825E-03 -4.73611126E-04  9.11412831E-19  0.00000000E+00  1.38083098E-06
  4.40755381E-06 -2.41800362E-06  4.78937324E-21  0.00000000E+00  1.33909252E-10
  6.21251879E-10 -1.92263695E-10  4.27023901E-25  0.00000000E+00  0.00000000E+00
  0.00000000E+00  0.00000000E+00  0.00000000E+00  0.00000000E+00  6.73500670E-08
  2.70171580E-07  5.23369601E-08 -9.12030468E-23  0.00000000E+00  1.36779831E-04
  3.73005593E-04  7.08853218E-05 -1.33627346E-19  1.97140391E-06  0.00000000E+00
  3.00610640E-08  1.07407864E-03  0.00000000E+00  0.00000000E+00  0.00000000E+00
  0.00000000E+00  0.00000000E+00  0.00000000E+00  0.00000000E+00  0.00000000E+00
  0.00000000E+00  0.00000000E+00  0.00000000E+00  0.00000000E+00  0.00000000E+00
  3.54133027E-07  2.03127640E-02  2.17453189E-02 -2.57241474E-02  4.59612573E-17
  5.02273861E-01  4.12171539E-04  5.12113633E-02  6.95218955E-02 -1.98487844E-02
  4.31541395E-17  1.96033789E-05  3.69114484E-03  6.59412010E-03 -1.14183527E-03
  7.16535832E-18  1.11849431E-09  4.88834603E-05  1.16070870E-04 -1.00590656E-05
  7.97825125E-20  0.00000000E+00  1.82422044E-05  4.71289204E-05 -9.60044842E-06
  6.44938099E-21  5.55836453E-07  1.00151307E-03  2.16140722E-03 -3.63018211E-05
 -7.29636045E-19  7.74684873E-04  4.98963420E-02  8.10196160E-02 -1.13014121E-02
 -2.90248630E-17  4.14223332E-03  5.33245766E-06  3.80870321E-04  2.02539619E-01
  0.00000000E+00  0.00000000E+00  0.00000000E+00  0.00000000E+00  0.00000000E+00
  0.00000000E+00  0.00000000E+00  0.00000000E+00  0.00000000E+00  0.00000000E+00
  0.00000000E+00  0.00000000E+00  0.00000000E+00  5.06319827E-02  4.06431160E-01
  2.68242524E-01 -6.02422253E-02  5.66961731E-16  1.43383823E-01  1.31255916E+00
 -9.53575215E-04 -7.01783998E-02 -8.28840865E-02  2.85179915E-02 -6.32508706E-17
 -6.25465171E-05 -6.38046999E-03 -1.05286781E-02  2.07298381E-03 -1.27889160E-17
 -5.18905104E-09 -1.15701456E-04 -2.60427172E-04  2.39278232E-05 -1.89626308E-19
  0.00000000E+00 -4.71342182E-05 -1.16243761E-04  2.48389305E-05 -1.66925270E-20
 -2.23574266E-06 -2.14683592E-03 -4.36588009E-03  7.27600187E-05  1.58231524E-18
 -2.11847563E-03 -7.79832195E-02 -1.16326135E-01  1.74485792E-02  4.82017203E-17
 -5.60804162E-03 -1.25381690E-05 -7.59618164E-04 -2.32670785E-01  0.00000000E+00
  0.00000000E+00  0.00000000E+00  0.00000000E+00  0.00000000E+00  0.00000000E+00
  0.00000000E+00  0.00000000E+00  0.00000000E+00  0.00000000E+00  0.00000000E+00
  0.00000000E+00  0.00000000E+00 -5.54566579E-02 -2.47693492E-01  2.06586526E-03
  6.37202435E-02 -4.30341800E-16  0.00000000E+00  0.00000000E+00  9.79598981E-01
  3.15602395E-04  9.73764355E-03  1.37182036E-02  5.12144642E-02  8.51526368E-18
  3.23368256E-05  5.19967999E-03  9.37077392E-03 -1.92990966E-04  1.01825493E-17
  1.56724591E-09  5.86578054E-05  1.39449333E-04  1.36921587E-05  9.58519404E-20
  0.00000000E+00 -8.06387128E-06 -2.08654185E-05  1.43395491E-05 -2.85533876E-21
 -5.32532212E-07 -1.00551544E-03 -2.17868035E-03  2.78598432E-04  7.35467014E-19
 -5.45483121E-04 -4.71558417E-02 -7.78148123E-02  2.42105069E-02  2.78767585E-17
  7.38914594E-03  8.31021521E-06 -5.11968417E-04 -2.65529951E-01  0.00000000E+00
  0.00000000E+00  0.00000000E+00  0.00000000E+00  0.00000000E+00  0.00000000E+00
  0.00000000E+00  0.00000000E+00  0.00000000E+00  0.00000000E+00  0.00000000E+00
  0.00000000E+00  0.00000000E+00  6.30364306E-02  2.91353613E-01  2.43330202E-01
  4.37615442E-01  5.14306645E-16 -9.86498936E-02 -1.15150515E+00  0.00000000E+00
  1.99637940E+00 -5.91910183E-19 -4.35616497E-17 -6.32508706E-17  1.77018963E-17
  1.90139114E-02 -6.79648231E-20 -6.93320003E-18 -1.27889160E-17  2.25256313E-18
  1.24067718E-03 -3.56674787E-24 -7.95285916E-20 -1.89626308E-19  1.64470366E-20
  1.54489552E-05  0.00000000E+00 -6.45010596E-21 -1.66925270E-20  3.39909603E-21
  5.73705893E-06  7.54729797E-22  7.24717147E-19  1.58231524E-18 -2.45619298E-20
  3.21426128E-04  7.58933060E-19  2.79370895E-17  4.82017203E-17 -6.25086425E-18
  1.82235046E-02 -1.05307589E-17 -1.13415729E-20  5.68385850E-19  2.94432476E-16
  0.00000000E+00  0.00000000E+00  0.00000000E+00  0.00000000E+00  0.00000000E+00
  0.00000000E+00  0.00000000E+00  0.00000000E+00  0.00000000E+00  0.00000000E+00
  0.00000000E+00  0.00000000E+00  0.00000000E+00 -1.17214088E-16 -5.23528964E-16
 -4.30341800E-16  1.34680136E-16  2.05670385E-01  0.00000000E+00  0.00000000E+00
  0.00000000E+00  0.00000000E+00  9.79598981E-01  2.17005884E-03  3.61147916E-01
  3.64370424E-01  4.73528448E-01 -5.20619705E-16  7.43433828E-03  2.93543539E-01
  4.17378434E-01  1.83666863E-01 -5.77574225E-17  1.95939547E-05  7.60204152E-03
  1.38818087E-02  5.65429078E-03 -2.65048588E-18  1.97022537E-08  2.04355689E-04
  3.98835158E-04  2.93335525E-04 -2.94343913E-19  1.52930608E-06  2.53262933E-04
  4.10483244E-04  3.11169862E-04 -6.27837993E-19  2.30396751E-04  7.90161332E-03
  8.86797470E-03  1.16143016E-02 -2.03723887E-17  8.67151357E-01  2.59361236E-03
  2.92849514E-05  5.29626345E-03  0.00000000E+00  4.32240432E-07  1.11683575E-06
  6.51578288E-07 -6.99592596E-22  0.00000000E+00  0.00000000E+00  0.00000000E+00
  0.00000000E+00  0.00000000E+00  8.27889881E-08  0.00000000E+00  2.83601213E-06
  1.00196604E-01  2.76746470E+00  5.65891648E-01  3.79055931E+00 -4.71556818E-15
  2.37965661E-03  2.74095294E-01 -1.11868989E-01  4.51668227E-01 -6.64533922E-16
  1.04506659E+01  1.99003006E-05  5.88788132E-03  9.43611347E-03  2.30270685E-04
  3.21209438E-18  1.45935869E-06  5.31170826E-04  1.04973483E-03 -2.26877209E-05
  7.89122354E-19  0.00000000E+00  4.24591052E-06  1.06561948E-05  3.49157310E-07
  5.38569879E-21  0.00000000E+00  6.98895661E-07  1.87928635E-06 -2.30208108E-07
  1.17743387E-22  1.55528258E-08  4.31994214E-05  9.99380129E-05 -2.70363250E-06
 -3.28475477E-20  2.15015202E-05  3.26377968E-03  5.89471775E-03 -7.28516144E-04
 -2.00800628E-18  1.17789456E-03  6.26881926E-07  1.97586310E-05  2.12447781E-02
  0.00000000E+00  0.00000000E+00  0.00000000E+00  0.00000000E+00  0.00000000E+00
  0.00000000E+00  0.00000000E+00  0.00000000E+00  0.00000000E+00  0.00000000E+00
  0.00000000E+00  0.00000000E+00  0.00000000E+00  7.09591361E-03  1.30568854E-01
  1.43990164E-01  3.09370557E-02  1.17934026E-16  3.27131658E-02  5.21956403E-01
  3.94038137E-01 -2.82858513E-01 -1.15694277E-16  1.72823413E-01  7.23547876E-01
  2.52006210E-04  6.07732696E-02  6.94748694E-02 -8.50264195E-02  1.13689360E-16
  1.90334036E-05  1.21407957E-03  1.79686150E-03 -1.19069029E-03  3.30157614E-18
  6.61910877E-08  5.06241454E-05  9.94813009E-05 -5.63546259E-05  1.18074385E-19
  1.39925446E-08  1.68303125E-04  3.59450072E-04 -1.82380685E-04  2.02645991E-19
  4.78046061E-05  1.08963859E-02  1.98436632E-02 -5.52820528E-03  3.15067737E-18
  5.44829728E-03  2.34617774E-01  3.27529701E-01 -1.68017615E-01  1.29134302E-16
  6.33825104E-04  3.44111304E-06  7.82993604E-03  1.39885200E+00  0.00000000E+00
  7.66486503E-07  2.12207517E-06 -6.91571475E-07  7.68929055E-22  0.00000000E+00
  0.00000000E+00  0.00000000E+00  0.00000000E+00  0.00000000E+00  2.83601213E-06
  0.00000000E+00  0.00000000E+00  6.10295011E-03  1.95318225E-01  8.06079752E-02
 -2.96461808E-01  4.78834524E-16  4.72618015E-02  1.96382503E+00 -3.94895227E-01
 -2.75708228E+00  3.29065713E-15  2.91832457E-02  5.30512393E-01  7.98424434E+00
Multipole Matrix (1,0,1)                   R   N=        1830
 -1.96135210E-15 -4.87126097E-16 -1.96135210E-15 -5.45641570E-17 -6.36908017E-16
 -1.96135210E-15  0.00000000E+00  0.00000000E+00  0.00000000E+00 -1.96135210E-15
  1.85595739E-01  2.16639311E+00  5.08390209E-01  0.00000000E+00 -1.96135210E-15
 -4.41093781E-21 -1.60890929E-16  1.67646354E-16 -2.02192353E-16  2.50218811E-03
 -4.00777069E-15 -9.12292668E-17 -1.69706376E-15  4.88351307E-16 -1.29745983E-15
  4.99623705E-01 -9.95379507E-16 -4.00777069E-15 -1.07899751E-16 -2.03686402E-15
  2.17422801E-16 -1.86279870E-15  4.94748030E-01 -3.45053927E-16 -4.02769188E-15
 -4.00777069E-15  1.18651063E-16  1.35156568E-15 -6.83515690E-16  4.00811619E-16
 -3.89334399E-01  0.00000000E+00  0.00000000E+00  0.00000000E+00 -4.00777069E-15
  6.26359604E-03  4.22484513E-01 -1.47257769E-01  3.35336971E-01 -8.55192533E-16
  5.99702384E-02  7.00011283E-01  5.08390209E-01  0.00000000E+00 -4.00777069E-15
  0.00000000E+00  1.11039546E-17 -2.46642218E-17  8.10796250E-18 -1.52926826E-04
  1.88956090E-21  2.50319737E-16 -4.08306899E-16 -8.11429778E-17 -3.95448497E-03
  7.06587031E-15 -3.98991702E-18 -5.07679386E-17 -1.19031757E-17 -2.62218177E-17
  2.56542909E-02 -1.27032627E-16  7.28624052E-16 -1.76804799E-15 -1.13677448E-16
 -6.62721675E-02  1.75489644E-15  7.06587031E-15 -8.80242693E-18 -1.42700065E-16
  7.23871861E-17 -7.06939171E-17  5.89790697E-02 -2.06768849E-16 -2.36513541E-16
 -6.27291153E-16  4.02382793E-17  7.53486950E-02 -2.90484711E-16 -3.39072481E-15
  7.06587031E-15  2.90847722E-18  1.30237589E-17  1.84370838E-17 -8.16163625E-18
 -1.21320629E-02 -3.96961297E-17  1.91909765E-16 -4.60833833E-16  3.76695415E-16
 -1.52140797E-02  0.00000000E+00  0.00000000E+00  0.00000000E+00  7.06587031E-15
  2.37544025E-04  8.10201724E-03  1.25771377E-02  3.36772939E-03  4.11205982E-18
  1.60879175E-03 -1.80304291E-01  3.28968688E-01  3.65235725E-02  3.88237244E-16
 -1.25592084E-01 -1.46599177E+00  5.08390209E-01  0.00000000E+00  7.06587031E-15
  0.00000000E+00 -6.81838717E-19  1.79157192E-18  3.62163527E-19 -5.39981447E-05
  0.00000000E+00 -2.25984080E-18  3.95467251E-18  3.46211725E-18 -2.42946570E-04
  3.31531177E-21 -4.95587675E-17  2.33099567E-17  6.69304691E-17 -6.45758410E-03
 -1.96135210E-15 -6.81838717E-19 -1.90781802E-18  4.61208887E-18  1.13323369E-18
  3.21156853E-03 -5.68583498E-18  9.40884817E-17 -1.80353676E-16 -7.73248638E-17
 -2.84310182E-02  2.57923709E-16  1.27858723E-15 -1.02380236E-15 -1.42127350E-15
 -5.66056738E-01 -4.87126097E-16 -1.96135210E-15 -1.79157192E-18 -4.61208887E-18
  1.02083509E-17  2.76653175E-18  1.53030685E-02 -1.02720691E-17  2.38840340E-17
 -8.64682015E-17 -1.46377936E-17 -7.50845279E-03  1.24323166E-16  3.65168687E-17
  4.84372838E-16 -2.08850806E-16 -3.90422579E-02  5.45641570E-17  6.36908017E-16
 -1.96135210E-15 -3.62163527E-19 -1.13323369E-18  2.76653175E-18 -1.04395961E-18
  1.16410291E-03 -8.69439831E-18  8.35920097E-17 -1.71780125E-16 -4.00461674E-17
 -2.67356689E-02  4.00324619E-16  1.11872068E-15 -1.09132209E-15 -9.32067220E-16
 -5.65660109E-01  0.00000000E+00  0.00000000E+00  0.00000000E+00 -1.96135210E-15
  5.39981447E-05 -3.21156853E-03  1.53030685E-02  1.16410291E-03 -5.03403430E-18
  6.55681745E-05 -4.22959214E-02  6.92159336E-02  4.12222631E-02  5.45674333E-18
 -4.65961618E-03 -6.02918279E-01  3.49733203E-01  5.98351729E-01  6.70104903E-16
 -1.85595739E-01 -2.16639311E+00  5.08390209E-01  0.00000000E+00 -1.96135210E-15
  0.00000000E+00 -5.68583498E-18  1.02720691E-17  8.69439831E-18 -6.55681745E-05
  0.00000000E+00 -1.39473328E-18  1.27416846E-18  3.51599902E-18 -1.74664332E-05
  0.00000000E+00 -7.09221312E-18 -2.82930279E-18  1.60016014E-17 -8.96819930E-05
 -4.41093781E-21 -1.60890929E-16 -1.67646354E-16  2.02192353E-16 -2.50218811E-03
 -4.00777069E-15 -2.25984080E-18  9.40884817E-17 -2.38840340E-17 -8.35920097E-17
  4.22959214E-02 -1.39473328E-18 -3.90156576E-18 -2.30427206E-18  1.09993037E-17
  1.03861516E-03  1.14259014E-17 -2.39892441E-17 -3.07357776E-18  2.44392550E-18
 -5.40512001E-02 -9.12292668E-17 -1.69706376E-15 -4.88351307E-16  1.29745983E-15
 -4.99623705E-01 -9.95379507E-16 -4.00777069E-15 -3.95467251E-18  1.80353676E-16
 -8.64682015E-17 -1.71780125E-16  6.92159336E-02 -1.27416846E-18  2.30427206E-18
 -7.04050837E-18 -5.30403440E-19  1.01977262E-02 -5.62617922E-18  4.39971051E-17
  5.62974604E-18 -5.56545850E-17  3.83759713E-02  1.07899751E-16  2.03686402E-15
  2.17422801E-16 -1.86279870E-15  4.94748030E-01  3.45053927E-16  4.02769188E-15
 -4.00777069E-15 -3.46211725E-18  7.73248638E-17 -1.46377936E-17 -4.00461674E-17
  4.12222631E-02 -3.51599902E-18 -1.09993037E-17 -5.30403440E-19  2.57769794E-17
  1.78675087E-03  2.57954101E-17 -5.25169884E-17 -1.20590358E-17  2.33259538E-17
 -7.69812693E-02 -1.18651063E-16 -1.35156568E-15 -6.83515690E-16  4.00811619E-16
 -3.89334399E-01  0.00000000E+00  0.00000000E+00  0.00000000E+00 -4.00777069E-15
  2.42946570E-04  2.84310182E-02 -7.50845279E-03 -2.67356689E-02  5.45674333E-18
  1.74664332E-05 -1.03861516E-03  1.01977262E-02  1.78675087E-03 -1.02951827E-17
 -1.72033936E-04 -5.03494489E-02  8.11293077E-03  7.12651589E-02  4.36878592E-18
 -6.26359604E-03 -4.22484513E-01 -1.47257769E-01  3.35336971E-01 -8.55192533E-16
 -5.99702384E-02 -7.00011283E-01  5.08390209E-01  0.00000000E+00 -4.00777069E-15
  3.31531177E-21  2.57923709E-16 -1.24323166E-16 -4.00324619E-16  4.65961618E-03
  0.00000000E+00  1.14259014E-17  5.62617922E-18 -2.57954101E-17  1.72033936E-04
  0.00000000E+00  2.45551859E-18  4.41186165E-18 -4.88584636E-18  3.65280134E-05
  0.00000000E+00  1.11039546E-17  2.46642218E-17 -8.10796250E-18  1.52926826E-04
  1.88956090E-21  2.50319737E-16  4.08306899E-16  8.11429778E-17  3.95448497E-03
  7.06587031E-15 -4.95587675E-17  1.27858723E-15 -3.65168687E-17 -1.11872068E-15
  6.02918279E-01 -7.09221312E-18 -2.39892441E-17 -4.39971051E-17  5.25169884E-17
  5.03494489E-02  2.45551859E-18  6.87120754E-18  8.51642527E-18 -1.52892494E-17
 -2.17266447E-03 -3.98991702E-18 -5.07679386E-17  1.19031757E-17  2.62218177E-17
 -2.56542909E-02 -1.27032627E-16  7.28624052E-16  1.76804799E-15  1.13677448E-16
  6.62721675E-02  1.75489644E-15  7.06587031E-15 -2.33099567E-17  1.02380236E-15
  4.84372838E-16 -1.09132209E-15  3.49733203E-01  2.82930279E-18  3.07357776E-18
  5.62974604E-18 -1.20590358E-17  8.11293077E-03 -4.41186165E-18 -8.51642527E-18
 -7.00768858E-18  2.15588796E-17  1.22064766E-02  8.80242693E-18  1.42700065E-16
  7.23871861E-17 -7.06939171E-17  5.89790697E-02  2.06768849E-16  2.36513541E-16
 -6.27291153E-16  4.02382793E-17  7.53486950E-02  2.90484711E-16  3.39072481E-15
  7.06587031E-15 -6.69304691E-17  1.42127350E-15 -2.08850806E-16 -9.32067220E-16
  5.98351729E-01 -1.60016014E-17 -2.44392550E-18 -5.56545850E-17  2.33259538E-17
  7.12651589E-02  4.88584636E-18  1.52892494E-17  2.15588796E-17 -2.60017086E-17
 -2.95012330E-03 -2.90847722E-18 -1.30237589E-17  1.84370838E-17 -8.16163625E-18
 -1.21320629E-02  3.96961297E-17 -1.91909765E-16 -4.60833833E-16  3.76695415E-16
 -1.52140797E-02  0.00000000E+00  0.00000000E+00  0.00000000E+00  7.06587031E-15
  6.45758410E-03  5.66056738E-01 -3.90422579E-02 -5.65660109E-01  6.70104903E-16
  8.96819930E-05  5.40512001E-02  3.83759713E-02 -7.69812693E-02  4.36878592E-18
 -3.65280134E-05  2.17266447E-03  1.22064766E-02 -2.95012330E-03  1.81303914E-17
 -2.37544025E-04 -8.10201724E-03  1.25771377E-02  3.36772939E-03  4.11205982E-18
 -1.60879175E-03  1.80304291E-01  3.28968688E-01  3.65235725E-02  3.88237244E-16
  1.25592084E-01  1.46599177E+00  5.08390209E-01  0.00000000E+00  7.06587031E-15
 -1.39360659E-17 -8.60278172E-16  2.73871634E-17 -1.04968104E-15  1.48483384E-01
 -2.69397604E-16 -3.92712230E-15 -3.38890372E-15 -3.51801617E-15  3.84755042E-01
  3.63044789E-17  8.90953616E-17 -3.17194545E-16  6.41102083E-17 -3.32104950E-02
 -9.57373856E-20  1.52395355E-17  5.50180708E-19  1.77312074E-17 -4.32658095E-03
 -3.94925814E-20 -5.49781743E-19 -1.35051571E-18 -1.25746554E-18  1.62182690E-04
  5.73971143E-19 -1.48652129E-17 -3.98663202E-18 -2.24505337E-17  7.59159002E-03
 -1.28235143E-14 -2.15888194E-19 -5.20590042E-19 -1.56471163E-17  5.32540760E-20
  1.28298030E-03 -1.79463878E-17  6.15958065E-16 -1.16271127E-15  1.99188316E-16
 -4.89788753E-02  4.74905445E-16  6.92121593E-15 -6.19848822E-15  4.89300637E-15
 -8.05554510E-01 -6.55922861E-18  8.31363025E-16 -3.03541689E-16  1.05392086E-15
 -1.92397703E-01 -3.67768221E-19  6.30297865E-18 -3.94584862E-18  9.71649204E-18
 -8.11780284E-03  6.95168713E-20  9.66999866E-19 -2.32911823E-18  1.74594981E-18
 -3.38628755E-04  3.11960966E-16  2.25975832E-14 -9.57373856E-20  1.52395355E-17
 -5.50180708E-19 -1.77312074E-17  4.32658095E-03 -3.94925814E-20 -5.49781743E-19
  1.35051571E-18  1.25746554E-18 -1.62182690E-04  5.73971143E-19 -1.48652129E-17
  3.98663202E-18  2.24505337E-17 -7.59159002E-03 -1.39360659E-17 -8.60278172E-16
 -2.73871634E-17  1.04968104E-15 -1.48483384E-01 -2.69397604E-16 -3.92712230E-15
  3.38890372E-15  3.51801617E-15 -3.84755042E-01  3.63044789E-17  8.90953616E-17
  3.17194545E-16 -6.41102083E-17  3.32104950E-02 -1.12994097E-20 -1.08379185E-18
 -1.28235143E-14 -6.55922861E-18  8.31363025E-16  3.03541689E-16 -1.05392086E-15
  1.92397703E-01 -3.67768221E-19  6.30297865E-18  3.94584862E-18 -9.71649204E-18
  8.11780284E-03  6.95168713E-20  9.66999866E-19  2.32911823E-18 -1.74594981E-18
  3.38628755E-04 -2.15888194E-19 -5.20590042E-19  1.56471163E-17 -5.32540760E-20
 -1.28298030E-03 -1.79463878E-17  6.15958065E-16  1.16271127E-15 -1.99188316E-16
  4.89788753E-02  4.74905445E-16  6.92121593E-15  6.19848822E-15 -4.89300637E-15
  8.05554510E-01 -1.08379185E-18  1.98756049E-20  3.11960966E-16  2.25975832E-14
  0.00000000E+00 -7.96463545E-22  3.21551912E-21  6.54107621E-22 -3.15312514E-08
  0.00000000E+00 -1.55189023E-20  4.91334813E-20  2.81881381E-20 -6.92356220E-07
  0.00000000E+00 -8.06203215E-18  1.50795137E-17  1.25390637E-17 -3.30411723E-04
 -2.99486820E-22 -2.19318107E-16  3.59122097E-16  7.27827141E-17 -8.62204634E-03
  0.00000000E+00 -1.04286806E-17  2.42675659E-17 -7.30635157E-18 -3.27003538E-04
  0.00000000E+00 -2.04652596E-20  7.40420344E-20 -8.88410350E-21 -6.84440798E-07
 -1.29635773E-21 -7.01109081E-18 -9.93467473E-18 -1.89339564E-21 -8.68773356E-15
 -1.50140960E-22 -1.82523168E-19  4.70027970E-19  8.12606088E-20 -2.43669408E-04
 -5.60299197E-21  5.45862324E-18 -1.07488407E-17 -5.29852877E-18 -2.06665757E-03
  8.29544065E-18  1.93447369E-16 -2.79384129E-16 -1.96030646E-16 -1.03954374E-01
 -5.80005515E-17 -1.42343940E-15  1.72717073E-15  3.03522135E-16 -8.16477102E-01
 -5.57280476E-18 -4.59133947E-16  7.51946086E-16 -1.96720467E-16 -8.87884786E-02
  1.28662887E-20 -7.86520252E-18  1.77969918E-17 -1.82543132E-18 -1.63393675E-03
  1.06370795E-18  3.06007020E-16 -5.14400700E-16 -1.10675496E-18 -2.15770627E-15
 -8.68773356E-15 -6.09266953E-22 -3.41457041E-19  8.70406833E-19  1.58894498E-19
 -4.17695925E-04 -1.83301298E-20  7.66079522E-18 -1.39563104E-17 -7.48790808E-18
 -2.99271617E-03  1.51665640E-17  1.65750758E-16 -2.03662691E-16 -1.87501989E-16
 -1.01758513E-01 -9.60557183E-17 -1.40647490E-15  1.39274566E-15  3.92208040E-16
 -7.71522604E-01 -1.26034419E-17 -5.72265752E-16  8.58294804E-16 -2.70651942E-16
 -1.09265534E-01  4.70314975E-20 -1.30580702E-17  2.83700608E-17 -3.09913341E-18
 -2.64954468E-03  1.39407362E-18  1.48424519E-16 -4.64871217E-16 -1.78919382E-18
  1.14868175E-16  1.34081539E-15 -8.68773356E-15 -1.23488045E-22 -8.50960418E-20
  2.23705439E-19 -2.26417210E-20 -1.06368677E-04 -1.02039671E-20  5.22724220E-18
 -1.04284708E-17 -3.37317213E-18 -2.03530878E-03  1.28769059E-17  1.63076401E-16
 -2.58819583E-16 -1.06462417E-16 -9.93756440E-02 -1.98815910E-17 -3.41882655E-16
  5.04960143E-16 -6.98625893E-16 -1.81817569E-01  3.90047803E-18  2.01137037E-16
 -3.54925197E-16 -8.88701091E-17  3.82216245E-02 -5.59728690E-21  1.88284890E-18
 -4.33862355E-18 -2.13715150E-18  3.84208406E-04  1.36042775E-18  3.81367085E-16
  4.78498255E-16  6.28066670E-19  0.00000000E+00  0.00000000E+00  0.00000000E+00
 -8.68773356E-15  1.34867576E-08 -2.57088444E-04  6.61775457E-04  1.13854882E-04
 -7.26856426E-20  6.59201656E-08 -2.18980356E-03  4.34201700E-03  2.18718696E-03
  1.46993503E-18 -1.23209165E-04 -1.14150451E-01  1.48930812E-01  1.10210577E-01
  5.33482292E-17 -4.59360270E-03 -9.12979213E-01  1.10676809E+00  2.01560117E-01
 -8.19245114E-16 -6.86582138E-05 -1.01502930E-01  1.63627656E-01 -4.43206563E-02
 -1.68794926E-16  1.83076736E-07 -1.77486277E-03  4.08008876E-03 -4.25843828E-04
 -2.46624398E-18 -2.72046160E-04 -9.99534733E-02 -8.57527305E-02 -1.96747672E-04
 -3.90505053E-01 -4.55822672E+00  5.08390209E-01  0.00000000E+00 -8.68773356E-15
  0.00000000E+00  0.00000000E+00  0.00000000E+00  0.00000000E+00  0.00000000E+00
  0.00000000E+00  1.42001437E-21 -5.72199975E-21 -1.29171004E-21 -3.74966894E-08
  0.00000000E+00  3.11641275E-18 -8.54477313E-18 -2.01747307E-18 -7.92456394E-05
  0.00000000E+00  1.72891277E-17 -4.02272880E-17  1.05753333E-17 -4.82589514E-04
  0.00000000E+00  4.23030998E-20 -1.35447050E-19  6.78219408E-20 -1.37902919E-06
  0.00000000E+00  4.17884139E-24 -1.93986484E-23  5.77448271E-24 -3.95675883E-11
  6.00823237E-22  2.37260891E-17  6.48172514E-20  0.00000000E+00  4.78719955E-21
  6.02754409E-16 -6.77015362E-16  6.89579599E-16 -2.23598471E-02  1.50522868E-14
  0.00000000E+00  4.02283928E-20 -1.14337337E-19  1.69949879E-21 -1.66734001E-05
 -1.90842626E-22  2.99096758E-18 -6.97311731E-18 -1.44918230E-18 -5.14410088E-04
  1.62813849E-18  2.39872163E-16 -4.17893835E-16 -9.07150280E-17 -4.77709940E-02
 -2.20765963E-18  1.68122446E-16 -2.42449475E-16  5.94023729E-17 -1.50383355E-01
 -1.77884802E-20 -1.00085902E-17  1.91414485E-17 -8.78249782E-18 -4.51696229E-03
  1.88173993E-24 -8.33336010E-20  2.15038790E-19 -5.85075046E-20 -5.11569302E-05
  9.66967375E-19  9.12165888E-16 -1.30889769E-17 -1.09556077E-20 -3.46382399E-16
  6.79029246E-16 -1.69143920E-16  1.91754051E-16 -1.83998517E+00  3.73842194E-15
  1.50522868E-14  0.00000000E+00  9.40183234E-20 -2.58009145E-19  3.98653915E-21
 -3.87724588E-05 -7.98191698E-22  5.89005805E-18 -1.30285835E-17 -2.88766338E-18
 -1.00780729E-03  4.40179672E-18  3.56695432E-16 -5.78242809E-16 -1.44703386E-16
 -7.00455740E-02 -5.07815293E-18  2.57073083E-16 -3.37538747E-16  1.01784602E-16
 -1.97273207E-01 -5.57282821E-20 -1.53295125E-17  2.69590673E-17 -1.36904233E-17
 -7.20596412E-03  8.75262508E-24 -1.77333616E-19  4.35283770E-19 -1.24223927E-19
 -1.09934753E-04  1.75201868E-18  9.36740489E-16 -1.54068627E-17 -2.30091137E-20
 -3.79891495E-16  6.64017828E-16  5.24466573E-17  4.01184114E-16 -1.14787507E+00
 -1.50587840E-16 -1.75775834E-15  1.50522868E-14  0.00000000E+00 -1.70710646E-21
  4.86570840E-21  1.26234109E-20  7.04454144E-07 -1.74722508E-22  1.46005335E-18
 -3.43894131E-18  2.43712819E-19 -2.49917121E-04  1.05311592E-18  9.23926109E-17
 -1.70734113E-16  5.17656807E-17 -1.80955469E-02  1.35055083E-18 -7.46132606E-17
  1.18123092E-16  4.30566838E-17  5.68168344E-02  2.84238024E-20  8.42881222E-18
 -1.64236267E-17  4.27153564E-18  3.95508663E-03 -2.60033810E-24  5.82508000E-20
 -1.50249906E-19  1.47924478E-20  3.60841785E-05  8.47592935E-19  7.38284045E-16
  1.56470767E-17  1.05149567E-20  3.94391577E-16 -8.52497866E-16  5.09738137E-16
 -8.95231794E-17  1.34980590E+00  0.00000000E+00  0.00000000E+00  0.00000000E+00
  1.50522868E-14  0.00000000E+00 -1.68104770E-05  4.78627088E-05 -7.11899260E-07
  1.27580992E-20  2.13359221E-09 -5.26525584E-04  1.23463218E-03  2.57411712E-04
  9.47908448E-19 -2.35831669E-05 -5.15692087E-02  8.98746061E-02  1.97750227E-02
  8.65029810E-17 -1.97527568E-04 -1.64150762E-01  2.55361743E-01 -6.25768614E-02
  8.60860567E-17 -2.40179723E-07 -4.68809445E-03  8.92248305E-03 -4.14150585E-03
 -2.83283290E-18  8.99789104E-12 -5.16869820E-05  1.33977879E-04 -3.65643908E-05
 -2.49257393E-20 -1.36980866E-04 -1.59042605E-01 -3.82402153E-03 -3.88285971E-06
 -1.77533291E-02 -1.92680085E+00  1.53453376E+00 -1.40541164E+00  5.53083576E-16
 -5.16098347E-01 -6.02423261E+00  5.08390209E-01  0.00000000E+00  1.50522868E-14
 -8.88127730E-23 -1.81246360E-19  4.66806813E-19  1.52746663E-19 -6.04876582E-05
 -7.39229307E-22  1.31075186E-19 -2.56484885E-19 -1.64912089E-19 -2.66828458E-04
  4.87093787E-19 -3.24383930E-18  2.55914195E-18  3.98392096E-18 -1.32527894E-02
 -1.11415070E-17 -1.07923361E-15  1.27668990E-15  8.76634861E-16 -2.35986142E-01
 -5.62516900E-18 -5.29922342E-16  8.78332733E-16  9.41109660E-17 -6.77733827E-02
  2.82163418E-20 -7.43646187E-18  1.66582060E-17  2.01035490E-18 -1.03579202E-03
  4.98394060E-20  9.81101196E-18 -1.41835078E-15 -1.81944861E-18 -6.16473462E-16
 -1.00941929E-14  3.25863173E-15  9.25916705E-15 -1.96855883E+00  7.53729457E-17
 -9.86776143E-16 -3.20159491E-16  1.14591399E-15 -4.89883315E-01 -3.24879367E-14
  0.00000000E+00  1.30326953E-21 -3.85470742E-21 -7.56556967E-23 -8.15473672E-07
 -5.51924990E-24  1.39423365E-19 -3.47547574E-19 -7.10101633E-20 -2.79244543E-05
  4.56068744E-20  1.69536717E-17 -3.27630961E-17 -6.90776891E-18 -3.95805131E-03
 -1.07076406E-19  6.05396992E-18 -1.05173487E-17  1.20284597E-18 -1.77956807E-02
 -1.30284607E-21 -1.63757277E-18  3.45806638E-18 -1.05740624E-18 -5.35196140E-04
  0.00000000E+00 -9.12226126E-21  2.48976203E-20 -4.67232241E-21 -3.73035220E-06
  5.41532285E-20  1.10275589E-16 -3.73273126E-18 -1.32360624E-21 -4.79107286E-17
 -6.15375936E-17  9.97389631E-17 -2.60017046E-17 -5.06622245E-01  9.18869557E-16
  7.12579733E-15 -7.32441936E-15 -1.36019329E-15 -2.80199452E+00 -6.92914807E-16
  1.38112652E-14 -6.14861572E-23  2.11382658E-19 -5.49644036E-19  1.05336326E-19
 -4.64439861E-05 -2.02185226E-20  1.75603517E-17 -3.65829340E-17  8.67671247E-19
 -2.20435694E-03  1.05058976E-17  7.24263069E-16 -1.15307793E-15  1.51814661E-16
 -9.77200425E-02 -1.28385841E-18  2.97455406E-16 -3.84926510E-16  2.70920379E-16
 -8.62107666E-02 -1.61238281E-20 -3.31631522E-19  6.91209746E-19 -4.49175700E-19
 -1.98416054E-03  1.03864172E-22  2.27629296E-20 -5.20546693E-20  2.51878226E-20
 -5.00179788E-05  1.03460638E-17  4.20036814E-15 -1.34330783E-18 -2.29942997E-21
 -4.20930575E-17  1.26466359E-15 -6.08583233E-16  1.51659306E-15 -4.34988190E-01
  1.02347124E-15  1.39336431E-14  1.68280994E-15  1.28118119E-14 -2.44759008E+00
  2.51230679E-17  4.46848036E-15  4.02868244E-14 -2.99486820E-22 -2.19318107E-16
 -3.59122097E-16 -7.27827141E-17  8.62204634E-03  0.00000000E+00 -1.04286806E-17
 -2.42675659E-17  7.30635157E-18  3.27003538E-04  0.00000000E+00 -2.04652596E-20
 -7.40420344E-20  8.88410350E-21  6.84440798E-07  0.00000000E+00 -7.96463545E-22
 -3.21551912E-21 -6.54107621E-22  3.15312514E-08  0.00000000E+00 -1.55189023E-20
 -4.91334813E-20 -2.81881381E-20  6.92356220E-07  0.00000000E+00 -8.06203215E-18
 -1.50795137E-17 -1.25390637E-17  3.30411723E-04 -9.93467473E-18 -1.89339564E-21
 -1.29635773E-21 -7.01109081E-18  0.00000000E+00  0.00000000E+00  0.00000000E+00
  0.00000000E+00  0.00000000E+00  0.00000000E+00  0.00000000E+00  0.00000000E+00
  0.00000000E+00  0.00000000E+00  0.00000000E+00  0.00000000E+00  0.00000000E+00
 -8.68773356E-15 -5.80005515E-17 -1.42343940E-15 -1.72717073E-15 -3.03522135E-16
  8.16477102E-01 -5.57280476E-18 -4.59133947E-16 -7.51946086E-16  1.96720467E-16
  8.87884786E-02  1.28662887E-20 -7.86520252E-18 -1.77969918E-17  1.82543132E-18
  1.63393675E-03 -1.50140960E-22 -1.82523168E-19 -4.70027970E-19 -8.12606088E-20
  2.43669408E-04 -5.60299197E-21  5.45862324E-18  1.07488407E-17  5.29852877E-18
  2.06665757E-03  8.29544065E-18  1.93447369E-16  2.79384129E-16  1.96030646E-16
  1.03954374E-01 -5.14400700E-16 -1.10675496E-18  1.06370795E-18  3.06007020E-16
  0.00000000E+00  0.00000000E+00  0.00000000E+00  0.00000000E+00  0.00000000E+00
  0.00000000E+00  0.00000000E+00  0.00000000E+00  0.00000000E+00  0.00000000E+00
  1.90462396E-22  0.00000000E+00 -1.12939597E-22 -2.15770627E-15 -8.68773356E-15
  9.60557183E-17  1.40647490E-15  1.39274566E-15  3.92208040E-16 -7.71522604E-01
  1.26034419E-17  5.72265752E-16  8.58294804E-16 -2.70651942E-16 -1.09265534E-01
 -4.70314975E-20  1.30580702E-17  2.83700608E-17 -3.09913341E-18 -2.64954468E-03
  6.09266953E-22  3.41457041E-19  8.70406833E-19  1.58894498E-19 -4.17695925E-04
  1.83301298E-20 -7.66079522E-18 -1.39563104E-17 -7.48790808E-18 -2.99271617E-03
 -1.51665640E-17 -1.65750758E-16 -2.03662691E-16 -1.87501989E-16 -1.01758513E-01
  4.64871217E-16  1.78919382E-18 -1.39407362E-18 -1.48424519E-16  0.00000000E+00
  0.00000000E+00  0.00000000E+00  0.00000000E+00  1.98411955E-07  0.00000000E+00
  0.00000000E+00  0.00000000E+00  0.00000000E+00  0.00000000E+00 -2.54162766E-22
  0.00000000E+00 -8.80834161E-23 -1.14868175E-16 -1.34081539E-15 -8.68773356E-15
  1.98815910E-17  3.41882655E-16  5.04960143E-16 -6.98625893E-16 -1.81817569E-01
 -3.90047803E-18 -2.01137037E-16 -3.54925197E-16 -8.88701091E-17  3.82216245E-02
  5.59728690E-21 -1.88284890E-18 -4.33862355E-18 -2.13715150E-18  3.84208406E-04
  1.23488045E-22  8.50960418E-20  2.23705439E-19 -2.26417210E-20 -1.06368677E-04
  1.02039671E-20 -5.22724220E-18 -1.04284708E-17 -3.37317213E-18 -2.03530878E-03
 -1.28769059E-17 -1.63076401E-16 -2.58819583E-16 -1.06462417E-16 -9.93756440E-02
 -4.78498255E-16 -6.28066670E-19 -1.36042775E-18 -3.81367085E-16  0.00000000E+00
  0.00000000E+00  0.00000000E+00  0.00000000E+00  0.00000000E+00  0.00000000E+00
  0.00000000E+00  0.00000000E+00  0.00000000E+00  0.00000000E+00 -1.84019192E-22
  0.00000000E+00 -4.11664030E-23  0.00000000E+00  0.00000000E+00  0.00000000E+00
 -8.68773356E-15  4.59360270E-03  9.12979213E-01  1.10676809E+00  2.01560117E-01
 -8.19245114E-16  6.86582138E-05  1.01502930E-01  1.63627656E-01 -4.43206563E-02
 -1.68794926E-16 -1.83076736E-07  1.77486277E-03  4.08008876E-03 -4.25843828E-04
 -2.46624398E-18 -1.34867576E-08  2.57088444E-04  6.61775457E-04  1.13854882E-04
 -7.26856426E-20 -6.59201656E-08  2.18980356E-03  4.34201700E-03  2.18718696E-03
  1.46993503E-18  1.23209165E-04  1.14150451E-01  1.48930812E-01  1.10210577E-01
  5.33482292E-17  8.57527305E-02  1.96747672E-04  2.72046160E-04  9.99534733E-02
  0.00000000E+00  0.00000000E+00  1.98411955E-07  0.00000000E+00  0.00000000E+00
  0.00000000E+00  0.00000000E+00  0.00000000E+00  0.00000000E+00  0.00000000E+00
  8.75942138E-08  0.00000000E+00  2.17823814E-08  3.90505053E-01  4.55822672E+00
  5.08390209E-01  0.00000000E+00 -8.68773356E-15  0.00000000E+00  1.72891277E-17
  4.02272880E-17 -1.05753333E-17  4.82589514E-04  0.00000000E+00  4.23030998E-20
  1.35447050E-19 -6.78219408E-20  1.37902919E-06  0.00000000E+00  4.17884139E-24
  1.93986484E-23 -5.77448271E-24  3.95675883E-11  0.00000000E+00  0.00000000E+00
  0.00000000E+00  0.00000000E+00  0.00000000E+00  0.00000000E+00  1.42001437E-21
  5.72199975E-21  1.29171004E-21  3.74966894E-08  0.00000000E+00  3.11641275E-18
  8.54477313E-18  2.01747307E-18  7.92456394E-05  6.48172514E-20  0.00000000E+00
  6.00823237E-22  2.37260891E-17  0.00000000E+00  0.00000000E+00  0.00000000E+00
  0.00000000E+00  0.00000000E+00  0.00000000E+00  0.00000000E+00  0.00000000E+00
  0.00000000E+00  0.00000000E+00  0.00000000E+00  0.00000000E+00  0.00000000E+00
  4.78719955E-21  6.02754409E-16  6.77015362E-16 -6.89579599E-16  2.23598471E-02
  1.50522868E-14 -2.20765963E-18  1.68122446E-16  2.42449475E-16 -5.94023729E-17
  1.50383355E-01 -1.77884802E-20 -1.00085902E-17 -1.91414485E-17  8.78249782E-18
  4.51696229E-03  1.88173993E-24 -8.33336010E-20 -2.15038790E-19  5.85075046E-20
  5.11569302E-05  0.00000000E+00  4.02283928E-20  1.14337337E-19 -1.69949879E-21
  1.66734001E-05 -1.90842626E-22  2.99096758E-18  6.97311731E-18  1.44918230E-18
  5.14410088E-04  1.62813849E-18  2.39872163E-16  4.17893835E-16  9.07150280E-17
  4.77709940E-02 -1.30889769E-17 -1.09556077E-20  9.66967375E-19  9.12165888E-16
  0.00000000E+00  0.00000000E+00  0.00000000E+00  0.00000000E+00  0.00000000E+00
  0.00000000E+00  0.00000000E+00  0.00000000E+00  0.00000000E+00  0.00000000E+00
  0.00000000E+00  0.00000000E+00  0.00000000E+00 -3.46382399E-16  6.79029246E-16
  1.69143920E-16 -1.91754051E-16  1.83998517E+00  3.73842194E-15  1.50522868E-14
  5.07815293E-18 -2.57073083E-16 -3.37538747E-16  1.01784602E-16 -1.97273207E-01
  5.57282821E-20  1.53295125E-17  2.69590673E-17 -1.36904233E-17 -7.20596412E-03
 -8.75262508E-24  1.77333616E-19  4.35283770E-19 -1.24223927E-19 -1.09934753E-04
  0.00000000E+00 -9.40183234E-20 -2.58009145E-19  3.98653915E-21 -3.87724588E-05
  7.98191698E-22 -5.89005805E-18 -1.30285835E-17 -2.88766338E-18 -1.00780729E-03
 -4.40179672E-18 -3.56695432E-16 -5.78242809E-16 -1.44703386E-16 -7.00455740E-02
  1.54068627E-17  2.30091137E-20 -1.75201868E-18 -9.36740489E-16  0.00000000E+00
  0.00000000E+00  0.00000000E+00  0.00000000E+00  0.00000000E+00  0.00000000E+00
  0.00000000E+00  0.00000000E+00  0.00000000E+00  0.00000000E+00  0.00000000E+00
  0.00000000E+00  0.00000000E+00  3.79891495E-16 -6.64017828E-16  5.24466573E-17
  4.01184114E-16 -1.14787507E+00  1.50587840E-16  1.75775834E-15  1.50522868E-14
 -1.35055083E-18  7.46132606E-17  1.18123092E-16  4.30566838E-17  5.68168344E-02
 -2.84238024E-20 -8.42881222E-18 -1.64236267E-17  4.27153564E-18  3.95508663E-03
  2.60033810E-24 -5.82508000E-20 -1.50249906E-19  1.47924478E-20  3.60841785E-05
  0.00000000E+00  1.70710646E-21  4.86570840E-21  1.26234109E-20  7.04454144E-07
  1.74722508E-22 -1.46005335E-18 -3.43894131E-18  2.43712819E-19 -2.49917121E-04
 -1.05311592E-18 -9.23926109E-17 -1.70734113E-16  5.17656807E-17 -1.80955469E-02
 -1.56470767E-17 -1.05149567E-20 -8.47592935E-19 -7.38284045E-16  0.00000000E+00
  0.00000000E+00  0.00000000E+00  0.00000000E+00  0.00000000E+00  0.00000000E+00
  0.00000000E+00  0.00000000E+00  0.00000000E+00  0.00000000E+00  0.00000000E+00
  0.00000000E+00  0.00000000E+00 -3.94391577E-16  8.52497866E-16  5.09738137E-16
 -8.95231794E-17  1.34980590E+00  0.00000000E+00  0.00000000E+00  0.00000000E+00
  1.50522868E-14  1.97527568E-04  1.64150762E-01  2.55361743E-01 -6.25768614E-02
  8.60860567E-17  2.40179723E-07  4.68809445E-03  8.92248305E-03 -4.14150585E-03
 -2.83283290E-18 -8.99789104E-12  5.16869820E-05  1.33977879E-04 -3.65643908E-05
 -2.49257393E-20  0.00000000E+00  1.68104770E-05  4.78627088E-05 -7.11899260E-07
  1.27580992E-20 -2.13359221E-09  5.26525584E-04  1.23463218E-03  2.57411712E-04
  9.47908448E-19  2.35831669E-05  5.15692087E-02  8.98746061E-02  1.97750227E-02
  8.65029810E-17  3.82402153E-03  3.88285971E-06  1.36980866E-04  1.59042605E-01
  0.00000000E+00  0.00000000E+00  0.00000000E+00  0.00000000E+00  0.00000000E+00
  0.00000000E+00  0.00000000E+00  0.00000000E+00  0.00000000E+00  0.00000000E+00
  0.00000000E+00  0.00000000E+00  0.00000000E+00  1.77533291E-02  1.92680085E+00
  1.53453376E+00 -1.40541164E+00  5.53083576E-16  5.16098347E-01  6.02423261E+00
  5.08390209E-01  0.00000000E+00  1.50522868E-14 -1.11415070E-17 -1.07923361E-15
 -1.27668990E-15 -8.76634861E-16  2.35986142E-01 -5.62516900E-18 -5.29922342E-16
 -8.78332733E-16 -9.41109660E-17  6.77733827E-02  2.82163418E-20 -7.43646187E-18
 -1.66582060E-17 -2.01035490E-18  1.03579202E-03 -8.88127730E-23 -1.81246360E-19
 -4.66806813E-19 -1.52746663E-19  6.04876582E-05 -7.39229307E-22  1.31075186E-19
  2.56484885E-19  1.64912089E-19  2.66828458E-04  4.87093787E-19 -3.24383930E-18
 -2.55914195E-18 -3.98392096E-18  1.32527894E-02 -1.41835078E-15 -1.81944861E-18
  4.98394060E-20  9.81101196E-18  0.00000000E+00  1.90462396E-22  2.54162766E-22
  1.84019192E-22 -8.75942138E-08  0.00000000E+00  0.00000000E+00  0.00000000E+00
  0.00000000E+00  0.00000000E+00  0.00000000E+00  0.00000000E+00  6.60945058E-22
 -6.16473462E-16 -1.00941929E-14 -3.25863173E-15 -9.25916705E-15  1.96855883E+00
  7.53729457E-17 -9.86776143E-16  3.20159491E-16 -1.14591399E-15  4.89883315E-01
 -3.24879367E-14 -1.07076406E-19  6.05396992E-18  1.05173487E-17 -1.20284597E-18
  1.77956807E-02 -1.30284607E-21 -1.63757277E-18 -3.45806638E-18  1.05740624E-18
  5.35196140E-04  0.00000000E+00 -9.12226126E-21 -2.48976203E-20  4.67232241E-21
  3.73035220E-06  0.00000000E+00  1.30326953E-21  3.85470742E-21  7.56556967E-23
  8.15473672E-07 -5.51924990E-24  1.39423365E-19  3.47547574E-19  7.10101633E-20
  2.79244543E-05  4.56068744E-20  1.69536717E-17  3.27630961E-17  6.90776891E-18
  3.95805131E-03 -3.73273126E-18 -1.32360624E-21  5.41532285E-20  1.10275589E-16
  0.00000000E+00  0.00000000E+00  0.00000000E+00  0.00000000E+00  0.00000000E+00
  0.00000000E+00  0.00000000E+00  0.00000000E+00  0.00000000E+00  0.00000000E+00
  0.00000000E+00  0.00000000E+00  0.00000000E+00 -4.79107286E-17 -6.15375936E-17
 -9.97389631E-17  2.60017046E-17  5.06622245E-01  9.18869557E-16  7.12579733E-15
  7.32441936E-15  1.36019329E-15  2.80199452E+00 -6.92914807E-16  1.38112652E-14
 -1.28385841E-18  2.97455406E-16  3.84926510E-16 -2.70920379E-16  8.62107666E-02
 -1.61238281E-20 -3.31631522E-19 -6.91209746E-19  4.49175700E-19  1.98416054E-03
  1.03864172E-22  2.27629296E-20  5.20546693E-20 -2.51878226E-20  5.00179788E-05
 -6.14861572E-23  2.11382658E-19  5.49644036E-19 -1.05336326E-19  4.64439861E-05
 -2.02185226E-20  1.75603517E-17  3.65829340E-17 -8.67671247E-19  2.20435694E-03
  1.05058976E-17  7.24263069E-16  1.15307793E-15 -1.51814661E-16  9.77200425E-02
 -1.34330783E-18 -2.29942997E-21  1.03460638E-17  4.20036814E-15  0.00000000E+00
 -1.12939597E-22  8.80834161E-23  4.11664030E-23 -2.17823814E-08  0.00000000E+00
  0.00000000E+00  0.00000000E+00  0.00000000E+00  0.00000000E+00  6.60945058E-22
  0.00000000E+00  0.00000000E+00 -4.20930575E-17  1.26466359E-15  6.08583233E-16
 -1.51659306E-15  4.34988190E-01  1.02347124E-15  1.39336431E-14 -1.68280994E-15
 -1.28118119E-14  2.44759008E+00  2.51230679E-17  4.46848036E-15  4.02868244E-14
Multipole Matrix (0,1,1)                   R   N=        1830
 -4.00029000E-16 -9.93521585E-17 -4.00029000E-16  0.00000000E+00  0.00000000E+00
 -4.00029000E-16 -5.45641570E-17 -6.36908017E-16  0.00000000E+00 -4.00029000E-16
  3.78533143E-02  4.41848287E-01  0.00000000E+00  5.08390209E-01 -4.00029000E-16
 -3.90864242E-21 -4.18489571E-16  4.48796966E-16 -5.18065970E-16  6.00497311E-03
 -1.20061914E-14 -2.34068790E-17 -1.59801528E-15  1.01278684E-15 -1.80429784E-15
  3.64838639E-01 -2.98188640E-15 -1.20061914E-14 -2.90445533E-17 -1.28464120E-15
  1.07923193E-16 -1.68026363E-15  2.57326704E-01  0.00000000E+00  0.00000000E+00
 -1.20061914E-14  3.00007782E-17  6.10577678E-16 -6.35505192E-16  2.77667665E-16
 -1.40634207E-01 -3.45053927E-16 -4.02769188E-15  0.00000000E+00 -1.20061914E-14
  1.75924100E-03  4.51910382E-01 -3.11324132E-01  5.01236911E-01 -1.09173798E-15
  1.79654531E-01  2.09704350E+00  0.00000000E+00  5.08390209E-01 -1.20061914E-14
  0.00000000E+00 -1.36707800E-17  2.98662043E-17 -1.03676157E-17  1.91889058E-04
 -9.25740217E-21 -3.10222671E-16  5.07389688E-16  9.29649933E-17  5.17785728E-03
 -7.97775907E-15 -1.00051664E-18 -1.87479762E-16  2.49050467E-16 -1.73594935E-16
  4.76024572E-02 -4.47498069E-16 -3.63594756E-15  3.85242737E-15 -4.24914063E-16
  6.15570393E-01 -1.98137531E-15 -7.97775907E-15 -2.18172015E-18 -2.82217394E-16
  3.36325168E-16 -2.62652407E-16  6.50826061E-02 -7.22881074E-16 -3.71291632E-15
  3.03545465E-15 -1.89624205E-16  6.31845767E-01  0.00000000E+00  0.00000000E+00
 -7.97775907E-15  6.33486841E-19 -9.44064800E-18  4.18024259E-18 -4.04987270E-17
  9.19393283E-04 -1.59642253E-16 -1.93468554E-15  2.26665087E-15 -1.92195126E-15
  2.78823186E-01 -2.90484711E-16 -3.39072481E-15  0.00000000E+00 -7.97775907E-15
  6.14587762E-05  5.34655018E-02 -7.38469396E-02  4.73264933E-02 -8.69901354E-17
  6.31274761E-03  5.92308212E-01 -6.10536274E-01  2.53812978E-02 -2.13693789E-15
  1.41800422E-01  1.65518594E+00  0.00000000E+00  5.08390209E-01 -7.97775907E-15
  0.00000000E+00 -1.39064913E-19  3.62163527E-19  8.97404930E-20 -1.10132310E-05
  0.00000000E+00 -3.70727949E-19  6.43294802E-19  6.15740747E-19 -3.65231298E-05
 -1.10902408E-21 -8.24562864E-18  3.73974294E-18  1.21524030E-17 -8.34842095E-04
 -4.00029000E-16 -1.39064913E-19 -3.89110417E-19  1.13323369E-18 -7.13054511E-19
  6.55017803E-04 -1.98010856E-17 -1.34936015E-16  1.79957284E-16  6.63414982E-17
  4.60572764E-02 -2.66355942E-16 -5.16033325E-16  2.33083902E-16  1.48761567E-16
  2.50420899E-01 -9.93521585E-17 -4.00029000E-16 -3.62163527E-19 -1.13323369E-18
  2.76653175E-18 -1.04395961E-18  1.16410291E-03 -3.41458945E-17 -1.39828384E-16
  1.47799790E-16  8.47089258E-17  5.05450603E-02 -1.34742512E-16 -1.48258166E-16
 -2.60564866E-16  8.68926586E-17  8.12777921E-02  0.00000000E+00  0.00000000E+00
 -4.00029000E-16 -8.97404930E-20  7.13054511E-19 -1.04395961E-18 -8.97401637E-19
  9.83286847E-03 -3.07005262E-17 -1.94342927E-16  2.62122343E-16  7.88034116E-17
  6.74459011E-02 -4.12809068E-16 -7.81023376E-16  3.81634661E-16  2.58106717E-16
  3.93235531E-01  5.45641570E-17  6.36908017E-16  0.00000000E+00 -4.00029000E-16
  1.10132310E-05 -6.55017803E-04  1.16410291E-03  9.83286847E-03 -1.02672014E-18
  2.36741017E-04  3.37765636E-02 -3.60584661E-02 -9.26238990E-03 -8.65851899E-17
  4.54835762E-03  1.40055728E-01 -4.85861729E-02  4.41677016E-03 -5.37285585E-16
 -3.78533143E-02 -4.41848287E-01  0.00000000E+00  5.08390209E-01 -4.00029000E-16
  0.00000000E+00 -1.98010856E-17  3.41458945E-17  3.07005262E-17 -2.36741017E-04
  0.00000000E+00 -4.17824173E-18  3.51599902E-18  1.06334747E-17 -5.23246854E-05
  0.00000000E+00 -1.85931559E-17 -8.57190154E-18  4.24275537E-17 -2.28399074E-04
 -3.90864242E-21 -4.18489571E-16 -4.48796966E-16  5.18065970E-16 -6.00497311E-03
 -1.20061914E-14 -3.70727949E-19 -1.34936015E-16  1.39828384E-16  1.94342927E-16
 -3.37765636E-02 -4.17824173E-18 -1.16880303E-17  1.09993037E-17  2.69749887E-17
  3.11140867E-03 -1.18565305E-17 -3.57971136E-17 -1.57705248E-17  7.46787649E-17
 -1.58200304E-03 -2.34068790E-17 -1.59801528E-15 -1.01278684E-15  1.80429784E-15
 -3.64838639E-01 -2.98188640E-15 -1.20061914E-14 -6.43294802E-19 -1.79957284E-16
  1.47799790E-16  2.62122343E-16 -3.60584661E-02 -3.51599902E-18 -1.09993037E-17
 -5.30403440E-19  2.57769794E-17  1.78675087E-03  5.46791958E-18  1.94891132E-17
 -2.17680238E-17 -4.03330988E-17  2.28725616E-04  2.90445533E-17  1.28464120E-15
  1.07923193E-16 -1.68026363E-15  2.57326704E-01  0.00000000E+00  0.00000000E+00
 -1.20061914E-14 -6.15740747E-19 -6.63414982E-17  8.47089258E-17  7.88034116E-17
 -9.26238990E-03 -1.06334747E-17 -2.69749887E-17  2.57769794E-17  5.66597771E-17
  1.49539132E-02 -2.71454340E-17 -6.21930224E-17 -3.14334991E-17  1.17851179E-16
  2.15405728E-02 -3.00007782E-17 -6.10577678E-16 -6.35505192E-16  2.77667665E-16
 -1.40634207E-01  3.45053927E-16  4.02769188E-15  0.00000000E+00 -1.20061914E-14
  3.65231298E-05 -4.60572764E-02  5.05450603E-02  6.74459011E-02 -8.65851899E-17
  5.23246854E-05 -3.11140867E-03  1.78675087E-03  1.49539132E-02 -3.08415684E-17
  1.75009877E-04 -1.97153892E-02 -5.94483605E-03  5.17823611E-02 -8.56065032E-17
 -1.75924100E-03 -4.51910382E-01 -3.11324132E-01  5.01236911E-01 -1.09173798E-15
 -1.79654531E-01 -2.09704350E+00  0.00000000E+00  5.08390209E-01 -1.20061914E-14
 -1.10902408E-21 -2.66355942E-16  1.34742512E-16  4.12809068E-16 -4.54835762E-03
  0.00000000E+00 -1.18565305E-17 -5.46791958E-18  2.71454340E-17 -1.75009877E-04
  0.00000000E+00 -2.77241654E-18 -4.88584636E-18  5.60087769E-18 -4.12421510E-05
  0.00000000E+00 -1.36707800E-17 -2.98662043E-17  1.03676157E-17 -1.91889058E-04
 -9.25740217E-21 -3.10222671E-16 -5.07389688E-16 -9.29649933E-17 -5.17785728E-03
 -7.97775907E-15 -8.24562864E-18 -5.16033325E-16  1.48258166E-16  7.81023376E-16
 -1.40055728E-01 -1.85931559E-17 -3.57971136E-17 -1.94891132E-17  6.21930224E-17
  1.97153892E-02 -2.77241654E-18 -7.75797402E-18 -1.52892494E-17  1.22372060E-17
  2.45305857E-03 -1.00051664E-18 -1.87479762E-16 -2.49050467E-16  1.73594935E-16
 -4.76024572E-02 -4.47498069E-16 -3.63594756E-15 -3.85242737E-15  4.24914063E-16
 -6.15570393E-01 -1.98137531E-15 -7.97775907E-15 -3.73974294E-18 -2.33083902E-16
 -2.60564866E-16  3.81634661E-16 -4.85861729E-02  8.57190154E-18  1.57705248E-17
 -2.17680238E-17 -3.14334991E-17 -5.94483605E-03  4.88584636E-18  1.52892494E-17
  2.15588796E-17 -2.60017086E-17 -2.95012330E-03  2.18172015E-18  2.82217394E-16
  3.36325168E-16 -2.62652407E-16  6.50826061E-02  7.22881074E-16  3.71291632E-15
  3.03545465E-15 -1.89624205E-16  6.31845767E-01  0.00000000E+00  0.00000000E+00
 -7.97775907E-15 -1.21524030E-17 -1.48761567E-16  8.68926586E-17  2.58106717E-16
  4.41677016E-03 -4.24275537E-17 -7.46787649E-17 -4.03330988E-17  1.17851179E-16
  5.17823611E-02 -5.60087769E-18 -1.22372060E-17 -2.60017086E-17  1.57105587E-17
  1.29244165E-02 -6.33486841E-19  9.44064800E-18  4.18024259E-18 -4.04987270E-17
  9.19393283E-04  1.59642253E-16  1.93468554E-15  2.26665087E-15 -1.92195126E-15
  2.78823186E-01  2.90484711E-16  3.39072481E-15  0.00000000E+00 -7.97775907E-15
  8.34842095E-04 -2.50420899E-01  8.12777921E-02  3.93235531E-01 -5.37285585E-16
  2.28399074E-04  1.58200304E-03  2.28725616E-04  2.15405728E-02 -8.56065032E-17
  4.12421510E-05 -2.45305857E-03 -2.95012330E-03  1.29244165E-02 -2.04702164E-17
 -6.14587762E-05 -5.34655018E-02 -7.38469396E-02  4.73264933E-02 -8.69901354E-17
 -6.31274761E-03 -5.92308212E-01 -6.10536274E-01  2.53812978E-02 -2.13693789E-15
 -1.41800422E-01 -1.65518594E+00  0.00000000E+00  5.08390209E-01 -7.97775907E-15
 -3.70163163E-18 -1.10010554E-15  3.85209463E-16 -1.65702508E-15  1.42230942E-01
 -8.06993401E-16 -1.17602515E-14 -3.52105808E-15 -1.27482911E-14  1.15227879E+00
 -4.58783803E-17 -1.89733591E-15 -1.94007890E-15 -1.89545219E-15  2.02951727E-01
 -1.45302333E-20 -3.72806287E-17 -3.94307102E-17 -6.22577351E-17  6.88123224E-03
 -1.18313588E-19 -1.64491208E-18 -1.25669761E-18 -4.69403273E-18  4.84555312E-04
 -5.76672017E-19 -1.20039236E-17  9.59435461E-19 -2.91646020E-17  2.89903177E-03
 -3.83949477E-14 -5.82576782E-20 -4.29678877E-17  6.24850060E-17 -4.84031984E-17
  8.01795400E-03 -6.56073501E-17 -1.70550969E-15  2.12845578E-15 -9.48477345E-16
  1.99718129E-01 -5.36183894E-16 -7.81348361E-15  4.89440494E-15 -7.38681936E-15
  9.09426298E-01 -1.01821889E-18 -4.85010165E-16  8.81357625E-17 -8.20576078E-16
  7.27286668E-02 -9.18903160E-19 -4.30075670E-18  4.38730769E-18 -1.17966435E-17
 -3.05964372E-04 -7.84893969E-20 -1.09133932E-18  1.74559715E-18 -2.75320907E-18
  3.81991938E-04 -1.58403397E-15 -2.55093537E-14 -1.45302333E-20 -3.72806287E-17
  3.94307102E-17  6.22577351E-17 -6.88123224E-03 -1.18313588E-19 -1.64491208E-18
  1.25669761E-18  4.69403273E-18 -4.84555312E-04 -5.76672017E-19 -1.20039236E-17
 -9.59435461E-19  2.91646020E-17 -2.89903177E-03 -3.70163163E-18 -1.10010554E-15
 -3.85209463E-16  1.65702508E-15 -1.42230942E-01 -8.06993401E-16 -1.17602515E-14
  3.52105808E-15  1.27482911E-14 -1.15227879E+00 -4.58783803E-17 -1.89733591E-15
  1.94007890E-15  1.89545219E-15 -2.02951727E-01 -3.38316183E-20 -7.87675484E-19
 -3.83949477E-14 -1.01821889E-18 -4.85010165E-16 -8.81357625E-17  8.20576078E-16
 -7.27286668E-02 -9.18903160E-19 -4.30075670E-18 -4.38730769E-18  1.17966435E-17
  3.05964372E-04 -7.84893969E-20 -1.09133932E-18 -1.74559715E-18  2.75320907E-18
 -3.81991938E-04 -5.82576782E-20 -4.29678877E-17 -6.24850060E-17  4.84031984E-17
 -8.01795400E-03 -6.56073501E-17 -1.70550969E-15 -2.12845578E-15  9.48477345E-16
 -1.99718129E-01 -5.36183894E-16 -7.81348361E-15 -4.89440494E-15  7.38681936E-15
 -9.09426298E-01 -7.87675484E-19 -2.24366398E-20 -1.58403397E-15 -2.55093537E-14
  0.00000000E+00 -1.62509359E-22  6.54197689E-22  1.42738389E-22 -6.43360429E-09
  0.00000000E+00 -2.83489276E-21  8.95394176E-21  5.32361255E-21 -1.23524789E-07
  0.00000000E+00 -1.48536058E-18  2.76608751E-18  2.39390433E-18 -5.93133953E-05
 -6.10984733E-23 -4.47485044E-17  7.27557696E-17  1.73863227E-17 -1.75918854E-03
  0.00000000E+00 -2.34754852E-18  5.43392195E-18 -1.53158071E-18 -7.48172780E-05
  0.00000000E+00 -4.63871087E-21  1.67163717E-20 -1.77618618E-21 -1.57368177E-07
 -2.27454510E-22 -1.24680685E-18 -2.31084205E-18 -4.45014269E-22 -1.77261576E-15
 -3.06206413E-23 -3.72540784E-20  8.12977108E-20  8.82978579E-20 -4.97359996E-05
 -2.45178039E-20 -1.80167409E-18  3.39887520E-18  4.11708999E-19  6.79174712E-04
 -7.92836015E-18 -3.36653643E-17  5.56859435E-17  1.64682090E-18  1.73889030E-02
 -1.18300115E-17 -2.90397926E-16  3.03372101E-16  3.02039330E-16 -1.66565157E-01
 -1.29657894E-17 -2.71065582E-16  4.12485697E-16 -2.31967882E-17 -5.66968299E-02
 -1.77675819E-20 -6.64729400E-18  1.32436252E-17  1.03779308E-18 -1.43342752E-03
 -5.75282800E-19 -9.20279535E-17 -3.90500052E-16 -1.36439178E-18 -4.40251087E-16
 -1.77261576E-15 -1.23448992E-22 -8.51340771E-20  1.79850352E-19  1.92714606E-19
 -1.06422284E-04 -7.72649223E-20 -3.12810068E-18  5.59013956E-18  9.00457526E-19
  1.18521119E-03 -1.47404304E-17 -4.01600581E-17  5.66420939E-17  1.00802864E-17
  2.05053202E-02 -1.98675218E-17 -3.41723284E-16  2.89944837E-16  3.54080906E-16
 -1.81724293E-01 -3.00562861E-17 -3.80556619E-16  5.24391243E-16 -4.59860368E-17
 -8.15997718E-02 -6.41035166E-20 -1.30557389E-17  2.45435909E-17  1.98633251E-18
 -2.83393798E-03 -9.22872811E-19 -6.66430281E-17 -4.35742965E-16 -2.70694622E-18
  0.00000000E+00  0.00000000E+00 -1.77261576E-15 -2.91496261E-23  5.82905800E-20
 -1.24969643E-19 -6.82305254E-21  8.19809051E-05 -4.50854708E-20 -3.22004454E-18
  6.00839471E-18  1.26677756E-18  1.22504786E-03 -1.25592873E-17 -6.28828528E-17
  9.53843653E-17  1.75053298E-17  3.42494951E-02 -2.70456145E-18  1.98769187E-16
 -1.98327939E-16 -1.48338456E-16  8.21684721E-02  9.38309132E-18  2.07821133E-16
 -3.24602006E-16 -5.74999380E-17  4.17806166E-02  8.24737609E-21  4.15551795E-18
 -8.31092228E-18 -1.84299947E-18  8.83449454E-04 -1.03830126E-18 -1.75294686E-16
  4.67758147E-16  1.19782028E-18  1.14868175E-16  1.34081539E-15  0.00000000E+00
 -1.77261576E-15  2.75054484E-09 -5.24736248E-05  1.13908489E-04  1.26930709E-04
 -1.48342499E-20  3.13003539E-07  6.08281415E-04 -1.03333301E-03 -5.21347169E-05
 -7.99415267E-19  1.13916163E-04  8.86457755E-03 -9.67038689E-03  9.02140678E-03
 -3.48704477E-17 -9.36943396E-04 -1.86262191E-01  2.01466840E-01  1.60381568E-01
 -1.67138894E-16 -1.52959251E-04 -5.28510767E-02  7.55007400E-02 -5.73773494E-03
 -1.15669704E-16 -2.61792069E-07 -1.41646412E-03  2.79230256E-03  2.06213650E-04
 -2.23073166E-18  1.36249499E-04  1.58187361E-02 -5.37035735E-02 -2.31761447E-04
 -7.96773295E-02 -9.30045156E-01  0.00000000E+00  5.08390209E-01 -1.77261576E-15
  0.00000000E+00  0.00000000E+00  0.00000000E+00  0.00000000E+00  0.00000000E+00
  0.00000000E+00 -1.62926504E-22  6.54334579E-22  1.35512273E-22  4.39328866E-09
  0.00000000E+00 -3.36436866E-19  9.18824861E-19  1.92216355E-19  8.72291687E-06
  0.00000000E+00 -1.56443820E-18  3.62947969E-18 -1.09237365E-18  4.31555204E-05
  0.00000000E+00 -3.29244848E-21  1.05359405E-20 -5.63456653E-21  1.02690501E-07
  0.00000000E+00 -3.82322371E-25  1.77381272E-24 -5.39539513E-25  3.61294080E-12
 -7.29163691E-23 -2.65782261E-18 -4.68657191E-21  0.00000000E+00  1.54951459E-22
 -5.06092903E-17  5.40812929E-17 -6.12076467E-17  1.69429732E-03 -1.43858870E-15
  0.00000000E+00 -1.06007171E-20  2.74155952E-20 -1.08310027E-20  4.41498108E-06
 -1.05604536E-21 -1.50683508E-18  3.26323452E-18  1.70673116E-19  2.62648971E-04
 -1.55501580E-18 -7.22354231E-17  1.20440390E-16 -6.30021084E-18  1.52438012E-02
 -3.74300238E-19 -4.57640378E-18  7.25422021E-18 -1.91618681E-17  7.55329998E-04
 -3.66094489E-20 -2.45045001E-18  4.69904653E-18 -7.12279063E-19 -1.08422940E-03
 -2.26315813E-24 -2.01312089E-20  4.85868128E-20  4.13239988E-21 -1.22561293E-05
 -6.50270154E-19 -3.54098798E-16 -4.50694475E-18 -4.54702568E-21 -6.39638441E-17
 -2.76277964E-17  4.61030513E-17 -2.98115417E-17 -1.07640607E-01 -3.57291327E-16
 -1.43858870E-15  0.00000000E+00 -2.74440011E-20  6.78338139E-20 -2.80208497E-20
  1.14223647E-05 -4.24806542E-21 -3.23659325E-18  6.61883922E-18  3.83352551E-19
  5.66607387E-04 -4.25316600E-18 -1.14640015E-16  1.77608506E-16 -7.73107614E-18
  2.46555858E-02 -8.69591262E-19 -1.07743243E-17  1.61763489E-17 -2.92151618E-17
  8.19933461E-04 -1.16833692E-19 -4.30842163E-18  7.85969130E-18 -1.46290925E-18
 -1.91765714E-03 -1.04996002E-23 -4.78811267E-20  1.10458952E-19  9.42001436E-21
 -2.91204836E-05 -1.29788472E-18 -4.15375217E-16 -6.17895462E-18 -1.06814276E-20
 -6.89299568E-17 -3.70519224E-17  6.26441580E-18 -4.93078654E-17 -7.27053595E-02
  0.00000000E+00  0.00000000E+00 -1.43858870E-15  0.00000000E+00 -9.95289000E-21
  2.57559653E-20 -3.32311275E-21  4.13068613E-06 -9.86983407E-22 -1.29575609E-18
  2.82005101E-18 -1.24438806E-19  2.25038146E-04 -1.05249945E-18 -6.06087220E-17
  1.02191713E-16 -1.63168294E-17  1.22071328E-02  2.71313651E-19 -2.29521978E-17
  3.27258971E-17 -5.11340435E-18  1.79095347E-02  5.95433795E-20  3.62357544E-18
 -6.90746237E-18  1.12058723E-18  1.63526272E-03  3.14943784E-24  3.25007194E-20
 -7.79604386E-20  3.58089185E-21  1.98888627E-05 -7.57140429E-19 -4.07956877E-16
  7.45457006E-18  7.07319323E-21  7.48789116E-17 -1.27894516E-16  5.63775361E-17
 -1.08389369E-16  2.40939989E-01 -1.50587840E-16 -1.75775834E-15  0.00000000E+00
 -1.43858870E-15  0.00000000E+00  4.41722208E-06 -1.14298098E-05  4.50428447E-06
 -3.34213587E-21  1.33592317E-08  2.59907965E-04 -5.59112796E-04 -2.96444505E-05
 -4.88072328E-19  2.19043023E-05  1.43443490E-02 -2.29761100E-02  9.27509127E-04
 -2.78022350E-17 -3.20366391E-05  4.38682509E-03 -6.57996048E-03  1.98614403E-02
 -6.43808565E-18 -4.69019840E-07 -9.98319874E-04  1.73123792E-03 -1.96507939E-04
 -1.08168932E-18 -1.08521263E-11 -1.20982551E-05  2.86402713E-05  2.68501322E-06
 -6.79141670E-21  9.02985688E-05  5.12494176E-02 -1.15256071E-03 -1.59161212E-06
 -3.03725553E-03 -1.84684849E-02  1.70996199E-02  1.48697431E-01 -1.63523182E-16
  4.93249468E-02  5.75752577E-01  0.00000000E+00  5.08390209E-01 -1.43858870E-15
 -1.54855842E-23 -1.75715801E-19  3.43060937E-19  2.60261199E-19 -6.07195162E-05
 -2.88903161E-21 -2.28545653E-20  6.79442674E-20 -2.37302096E-21  1.59394445E-05
 -4.60798256E-19 -2.17685150E-18  4.05181780E-18  4.29266646E-18 -3.60804884E-04
 -2.56373407E-18 -4.68340695E-16  4.89879137E-16  5.43044848E-16 -9.38885625E-02
 -1.39956075E-17 -4.71774227E-16  6.79509595E-16  2.06243516E-16 -6.58756161E-02
 -3.87783825E-20 -1.19383568E-17  2.19065184E-17  6.68064614E-18 -1.77729049E-03
 -1.64467022E-20 -3.06887557E-18 -1.49358953E-15 -4.38478291E-18 -1.40781359E-16
 -3.97700154E-15  8.42817218E-16  4.74902199E-15 -6.74485973E-01 -5.87071343E-18
 -2.54236441E-16 -1.16443689E-16  4.11329638E-16 -5.89334820E-02 -1.72295379E-14
  0.00000000E+00 -2.16376483E-22  5.81822717E-22 -3.37737046E-22  1.35389742E-07
 -2.95371035E-23 -6.16756672E-20  1.43021731E-19  4.47023740E-21  1.24295052E-05
 -4.31520146E-20 -4.30155132E-18  7.91740065E-18 -6.36901142E-19  1.03569517E-03
 -1.89525713E-20  1.22215403E-19 -9.72829373E-20 -5.18163815E-19 -6.83356958E-04
 -2.72843968E-21 -4.92997728E-19  9.96081714E-19 -6.82637953E-20 -1.62263259E-04
  0.00000000E+00 -3.09041714E-21  7.79454665E-21  4.87901038E-22 -1.26580788E-06
 -3.32598213E-20 -3.55765187E-17 -1.50605863E-18 -7.07805698E-22 -9.13065584E-18
 -1.77730758E-17  2.98500960E-17  1.76359411E-17 -4.17597222E-02 -8.30306032E-17
 -4.10840605E-16  3.91835985E-16 -5.69111056E-16  1.81573861E-01 -1.77742433E-16
 -4.07729598E-16 -1.69298585E-23 -2.17646805E-19  4.65005490E-19 -2.09846423E-19
  4.90180802E-05 -9.08104926E-20 -1.88849438E-17  3.45288128E-17 -6.05369872E-18
  2.49063890E-03 -1.09193582E-17 -4.15417181E-16  5.89978457E-16 -2.14451980E-16
  5.97752679E-02 -1.99730923E-19 -6.95685323E-17  8.55864560E-17 -1.06006297E-16
  1.53092781E-02 -3.55933108E-20 -1.92922664E-19  5.16214606E-19 -2.73131744E-19
 -2.00583805E-04 -1.30447738E-22 -1.71493680E-21  5.85390043E-21 -9.76892986E-21
  6.56826327E-07 -1.43152846E-17 -2.68405900E-15 -3.91149169E-19 -5.25861994E-22
 -7.53281726E-18 -2.24761950E-16  1.04774931E-16 -4.12951133E-16  2.79694970E-02
 -1.17883242E-16 -3.65052497E-15 -7.73280919E-16 -4.62299556E-15  5.26636707E-01
 -2.04674747E-17 -9.25635904E-16 -1.62511233E-14 -6.10984733E-23 -4.47485044E-17
 -7.27557696E-17 -1.73863227E-17  1.75918854E-03  0.00000000E+00 -2.34754852E-18
 -5.43392195E-18  1.53158071E-18  7.48172780E-05  0.00000000E+00 -4.63871087E-21
 -1.67163717E-20  1.77618618E-21  1.57368177E-07  0.00000000E+00 -1.62509359E-22
 -6.54197689E-22 -1.42738389E-22  6.43360429E-09  0.00000000E+00 -2.83489276E-21
 -8.95394176E-21 -5.32361255E-21  1.23524789E-07  0.00000000E+00 -1.48536058E-18
 -2.76608751E-18 -2.39390433E-18  5.93133953E-05 -2.31084205E-18 -4.45014269E-22
 -2.27454510E-22 -1.24680685E-18  0.00000000E+00  0.00000000E+00  0.00000000E+00
  0.00000000E+00  0.00000000E+00  0.00000000E+00  0.00000000E+00  0.00000000E+00
  0.00000000E+00  0.00000000E+00  0.00000000E+00  0.00000000E+00  0.00000000E+00
 -1.77261576E-15 -1.18300115E-17 -2.90397926E-16 -3.03372101E-16 -3.02039330E-16
  1.66565157E-01 -1.29657894E-17 -2.71065582E-16 -4.12485697E-16  2.31967882E-17
  5.66968299E-02 -1.77675819E-20 -6.64729400E-18 -1.32436252E-17 -1.03779308E-18
  1.43342752E-03 -3.06206413E-23 -3.72540784E-20 -8.12977108E-20 -8.82978579E-20
  4.97359996E-05 -2.45178039E-20 -1.80167409E-18 -3.39887520E-18 -4.11708999E-19
 -6.79174712E-04 -7.92836015E-18 -3.36653643E-17 -5.56859435E-17 -1.64682090E-18
 -1.73889030E-02 -3.90500052E-16 -1.36439178E-18 -5.75282800E-19 -9.20279535E-17
  0.00000000E+00  0.00000000E+00  0.00000000E+00  0.00000000E+00  0.00000000E+00
  0.00000000E+00  0.00000000E+00  0.00000000E+00  0.00000000E+00  0.00000000E+00
 -2.54358279E-22  0.00000000E+00 -1.06857717E-21 -4.40251087E-16 -1.77261576E-15
  1.98675218E-17  3.41723284E-16  2.89944837E-16  3.54080906E-16 -1.81724293E-01
  3.00562861E-17  3.80556619E-16  5.24391243E-16 -4.59860368E-17 -8.15997718E-02
  6.41035166E-20  1.30557389E-17  2.45435909E-17  1.98633251E-18 -2.83393798E-03
  1.23448992E-22  8.51340771E-20  1.79850352E-19  1.92714606E-19 -1.06422284E-04
  7.72649223E-20  3.12810068E-18  5.59013956E-18  9.00457526E-19  1.18521119E-03
  1.47404304E-17  4.01600581E-17  5.66420939E-17  1.00802864E-17  2.05053202E-02
  4.35742965E-16  2.70694622E-18  9.22872811E-19  6.66430281E-17  0.00000000E+00
  0.00000000E+00  0.00000000E+00  0.00000000E+00  0.00000000E+00  0.00000000E+00
  0.00000000E+00  0.00000000E+00  0.00000000E+00  0.00000000E+00  6.57218522E-22
  0.00000000E+00  2.95843577E-21  0.00000000E+00  0.00000000E+00 -1.77261576E-15
  2.70456145E-18 -1.98769187E-16 -1.98327939E-16 -1.48338456E-16  8.21684721E-02
 -9.38309132E-18 -2.07821133E-16 -3.24602006E-16 -5.74999380E-17  4.17806166E-02
 -8.24737609E-21 -4.15551795E-18 -8.31092228E-18 -1.84299947E-18  8.83449454E-04
  2.91496261E-23 -5.82905800E-20 -1.24969643E-19 -6.82305254E-21  8.19809051E-05
  4.50854708E-20  3.22004454E-18  6.00839471E-18  1.26677756E-18  1.22504786E-03
  1.25592873E-17  6.28828528E-17  9.53843653E-17  1.75053298E-17  3.42494951E-02
 -4.67758147E-16 -1.19782028E-18  1.03830126E-18  1.75294686E-16  0.00000000E+00
  0.00000000E+00  0.00000000E+00  0.00000000E+00  1.98411955E-07  0.00000000E+00
  0.00000000E+00  0.00000000E+00  0.00000000E+00  0.00000000E+00  4.83713187E-22
  0.00000000E+00 -7.90260753E-22 -1.14868175E-16 -1.34081539E-15  0.00000000E+00
 -1.77261576E-15  9.36943396E-04  1.86262191E-01  2.01466840E-01  1.60381568E-01
 -1.67138894E-16  1.52959251E-04  5.28510767E-02  7.55007400E-02 -5.73773494E-03
 -1.15669704E-16  2.61792069E-07  1.41646412E-03  2.79230256E-03  2.06213650E-04
 -2.23073166E-18 -2.75054484E-09  5.24736248E-05  1.13908489E-04  1.26930709E-04
 -1.48342499E-20 -3.13003539E-07 -6.08281415E-04 -1.03333301E-03 -5.21347169E-05
 -7.99415267E-19 -1.13916163E-04 -8.86457755E-03 -9.67038689E-03  9.02140678E-03
 -3.48704477E-17  5.37035735E-02  2.31761447E-04 -1.36249499E-04 -1.58187361E-02
  0.00000000E+00  0.00000000E+00  0.00000000E+00  1.98411955E-07  0.00000000E+00
  0.00000000E+00  0.00000000E+00  0.00000000E+00  0.00000000E+00  0.00000000E+00
 -1.16980118E-07  0.00000000E+00  2.06093844E-07  7.96773295E-02  9.30045156E-01
  0.00000000E+00  5.08390209E-01 -1.77261576E-15  0.00000000E+00 -1.56443820E-18
 -3.62947969E-18  1.09237365E-18 -4.31555204E-05  0.00000000E+00 -3.29244848E-21
 -1.05359405E-20  5.63456653E-21 -1.02690501E-07  0.00000000E+00 -3.82322371E-25
 -1.77381272E-24  5.39539513E-25 -3.61294080E-12  0.00000000E+00  0.00000000E+00
  0.00000000E+00  0.00000000E+00  0.00000000E+00  0.00000000E+00 -1.62926504E-22
 -6.54334579E-22 -1.35512273E-22 -4.39328866E-09  0.00000000E+00 -3.36436866E-19
 -9.18824861E-19 -1.92216355E-19 -8.72291687E-06 -4.68657191E-21  0.00000000E+00
 -7.29163691E-23 -2.65782261E-18  0.00000000E+00  0.00000000E+00  0.00000000E+00
  0.00000000E+00  0.00000000E+00  0.00000000E+00  0.00000000E+00  0.00000000E+00
  0.00000000E+00  0.00000000E+00  0.00000000E+00  0.00000000E+00  0.00000000E+00
  1.54951459E-22 -5.06092903E-17 -5.40812929E-17  6.12076467E-17 -1.69429732E-03
 -1.43858870E-15 -3.74300238E-19 -4.57640378E-18 -7.25422021E-18  1.91618681E-17
 -7.55329998E-04 -3.66094489E-20 -2.45045001E-18 -4.69904653E-18  7.12279063E-19
  1.08422940E-03 -2.26315813E-24 -2.01312089E-20 -4.85868128E-20 -4.13239988E-21
  1.22561293E-05  0.00000000E+00 -1.06007171E-20 -2.74155952E-20  1.08310027E-20
 -4.41498108E-06 -1.05604536E-21 -1.50683508E-18 -3.26323452E-18 -1.70673116E-19
 -2.62648971E-04 -1.55501580E-18 -7.22354231E-17 -1.20440390E-16  6.30021084E-18
 -1.52438012E-02 -4.50694475E-18 -4.54702568E-21 -6.50270154E-19 -3.54098798E-16
  0.00000000E+00  0.00000000E+00  0.00000000E+00  0.00000000E+00  0.00000000E+00
  0.00000000E+00  0.00000000E+00  0.00000000E+00  0.00000000E+00  0.00000000E+00
  0.00000000E+00  0.00000000E+00  0.00000000E+00 -6.39638441E-17 -2.76277964E-17
 -4.61030513E-17  2.98115417E-17  1.07640607E-01 -3.57291327E-16 -1.43858870E-15
  8.69591262E-19  1.07743243E-17  1.61763489E-17 -2.92151618E-17  8.19933461E-04
  1.16833692E-19  4.30842163E-18  7.85969130E-18 -1.46290925E-18 -1.91765714E-03
  1.04996002E-23  4.78811267E-20  1.10458952E-19  9.42001436E-21 -2.91204836E-05
  0.00000000E+00  2.74440011E-20  6.78338139E-20 -2.80208497E-20  1.14223647E-05
  4.24806542E-21  3.23659325E-18  6.61883922E-18  3.83352551E-19  5.66607387E-04
  4.25316600E-18  1.14640015E-16  1.77608506E-16 -7.73107614E-18  2.46555858E-02
  6.17895462E-18  1.06814276E-20  1.29788472E-18  4.15375217E-16  0.00000000E+00
  0.00000000E+00  0.00000000E+00  0.00000000E+00  0.00000000E+00  0.00000000E+00
  0.00000000E+00  0.00000000E+00  0.00000000E+00  0.00000000E+00  0.00000000E+00
  0.00000000E+00  0.00000000E+00  6.89299568E-17  3.70519224E-17  6.26441580E-18
 -4.93078654E-17 -7.27053595E-02  0.00000000E+00  0.00000000E+00 -1.43858870E-15
 -2.71313651E-19  2.29521978E-17  3.27258971E-17 -5.11340435E-18  1.79095347E-02
 -5.95433795E-20 -3.62357544E-18 -6.90746237E-18  1.12058723E-18  1.63526272E-03
 -3.14943784E-24 -3.25007194E-20 -7.79604386E-20  3.58089185E-21  1.98888627E-05
  0.00000000E+00  9.95289000E-21  2.57559653E-20 -3.32311275E-21  4.13068613E-06
  9.86983407E-22  1.29575609E-18  2.82005101E-18 -1.24438806E-19  2.25038146E-04
  1.05249945E-18  6.06087220E-17  1.02191713E-16 -1.63168294E-17  1.22071328E-02
 -7.45457006E-18 -7.07319323E-21  7.57140429E-19  4.07956877E-16  0.00000000E+00
  0.00000000E+00  0.00000000E+00  0.00000000E+00  0.00000000E+00  0.00000000E+00
  0.00000000E+00  0.00000000E+00  0.00000000E+00  0.00000000E+00  0.00000000E+00
  0.00000000E+00  0.00000000E+00 -7.48789116E-17  1.27894516E-16  5.63775361E-17
 -1.08389369E-16  2.40939989E-01  1.50587840E-16  1.75775834E-15  0.00000000E+00
 -1.43858870E-15  3.20366391E-05 -4.38682509E-03 -6.57996048E-03  1.98614403E-02
 -6.43808565E-18  4.69019840E-07  9.98319874E-04  1.73123792E-03 -1.96507939E-04
 -1.08168932E-18  1.08521263E-11  1.20982551E-05  2.86402713E-05  2.68501322E-06
 -6.79141670E-21  0.00000000E+00 -4.41722208E-06 -1.14298098E-05  4.50428447E-06
 -3.34213587E-21 -1.33592317E-08 -2.59907965E-04 -5.59112796E-04 -2.96444505E-05
 -4.88072328E-19 -2.19043023E-05 -1.43443490E-02 -2.29761100E-02  9.27509127E-04
 -2.78022350E-17  1.15256071E-03  1.59161212E-06 -9.02985688E-05 -5.12494176E-02
  0.00000000E+00  0.00000000E+00  0.00000000E+00  0.00000000E+00  0.00000000E+00
  0.00000000E+00  0.00000000E+00  0.00000000E+00  0.00000000E+00  0.00000000E+00
  0.00000000E+00  0.00000000E+00  0.00000000E+00  3.03725553E-03  1.84684849E-02
  1.70996199E-02  1.48697431E-01 -1.63523182E-16 -4.93249468E-02 -5.75752577E-01
  0.00000000E+00  5.08390209E-01 -1.43858870E-15 -2.56373407E-18 -4.68340695E-16
 -4.89879137E-16 -5.43044848E-16  9.38885625E-02 -1.39956075E-17 -4.71774227E-16
 -6.79509595E-16 -2.06243516E-16  6.58756161E-02 -3.87783825E-20 -1.19383568E-17
 -2.19065184E-17 -6.68064614E-18  1.77729049E-03 -1.54855842E-23 -1.75715801E-19
 -3.43060937E-19 -2.60261199E-19  6.07195162E-05 -2.88903161E-21 -2.28545653E-20
 -6.79442674E-20  2.37302096E-21 -1.59394445E-05 -4.60798256E-19 -2.17685150E-18
 -4.05181780E-18 -4.29266646E-18  3.60804884E-04 -1.49358953E-15 -4.38478291E-18
 -1.64467022E-20 -3.06887557E-18  0.00000000E+00 -2.54358279E-22 -6.57218522E-22
 -4.83713187E-22  1.16980118E-07  0.00000000E+00  0.00000000E+00  0.00000000E+00
  0.00000000E+00  0.00000000E+00  0.00000000E+00  0.00000000E+00 -4.76061851E-21
 -1.40781359E-16 -3.97700154E-15 -8.42817218E-16 -4.74902199E-15  6.74485973E-01
 -5.87071343E-18 -2.54236441E-16  1.16443689E-16 -4.11329638E-16  5.89334820E-02
 -1.72295379E-14 -1.89525713E-20  1.22215403E-19  9.72829373E-20  5.18163815E-19
  6.83356958E-04 -2.72843968E-21 -4.92997728E-19 -9.96081714E-19  6.82637953E-20
  1.62263259E-04  0.00000000E+00 -3.09041714E-21 -7.79454665E-21 -4.87901038E-22
  1.26580788E-06  0.00000000E+00 -2.16376483E-22 -5.81822717E-22  3.37737046E-22
 -1.35389742E-07 -2.95371035E-23 -6.16756672E-20 -1.43021731E-19 -4.47023740E-21
 -1.24295052E-05 -4.31520146E-20 -4.30155132E-18 -7.91740065E-18  6.36901142E-19
 -1.03569517E-03 -1.50605863E-18 -7.07805698E-22 -3.32598213E-20 -3.55765187E-17
  0.00000000E+00  0.00000000E+00  0.00000000E+00  0.00000000E+00  0.00000000E+00
  0.00000000E+00  0.00000000E+00  0.00000000E+00  0.00000000E+00  0.00000000E+00
  0.00000000E+00  0.00000000E+00  0.00000000E+00 -9.13065584E-18 -1.77730758E-17
 -2.98500960E-17 -1.76359411E-17  4.17597222E-02 -8.30306032E-17 -4.10840605E-16
 -3.91835985E-16  5.69111056E-16 -1.81573861E-01 -1.77742433E-16 -4.07729598E-16
 -1.99730923E-19 -6.95685323E-17 -8.55864560E-17  1.06006297E-16 -1.53092781E-02
 -3.55933108E-20 -1.92922664E-19 -5.16214606E-19  2.73131744E-19  2.00583805E-04
 -1.30447738E-22 -1.71493680E-21 -5.85390043E-21  9.76892986E-21 -6.56826327E-07
 -1.69298585E-23 -2.17646805E-19 -4.65005490E-19  2.09846423E-19 -4.90180802E-05
 -9.08104926E-20 -1.88849438E-17 -3.45288128E-17  6.05369872E-18 -2.49063890E-03
 -1.09193582E-17 -4.15417181E-16 -5.89978457E-16  2.14451980E-16 -5.97752679E-02
 -3.91149169E-19 -5.25861994E-22 -1.43152846E-17 -2.68405900E-15  0.00000000E+00
 -1.06857717E-21 -2.95843577E-21  7.90260753E-22 -2.06093844E-07  0.00000000E+00
  0.00000000E+00  0.00000000E+00  0.00000000E+00  0.00000000E+00 -4.76061851E-21
  0.00000000E+00  0.00000000E+00 -7.53281726E-18 -2.24761950E-16 -1.04774931E-16
  4.12951133E-16 -2.79694970E-02 -1.17883242E-16 -3.65052497E-15  7.73280919E-16
  4.62299556E-15 -5.26636707E-01 -2.04674747E-17 -9.25635904E-16 -1.62511233E-14
Multipole Matrix (0,0,2)                   R   N=        1830
  3.10650896E-02  2.63532865E-02  8.41350389E-01  0.00000000E+00  0.00000000E+00
  5.08390209E-01  0.00000000E+00  0.00000000E+00  0.00000000E+00  5.08390209E-01
 -1.09128314E-16 -1.27381603E-15  0.00000000E+00  0.00000000E+00  1.52517063E+00
  6.56892907E-08  3.82669024E-03 -4.12288351E-03  4.65375179E-03 -3.24960854E-17
  3.10650896E-02  3.82669024E-03  3.34770192E-01 -1.97294320E-01  2.22698215E-01
 -1.77841925E-15  2.63532865E-02  8.41350389E-01  4.12288351E-03  1.97294320E-01
  9.52796011E-03  1.58363290E-01 -1.25855925E-15  0.00000000E+00  0.00000000E+00
  5.08390209E-01 -4.65375179E-03 -2.22698215E-01  1.58363290E-01 -2.89281251E-02
  1.42061312E-15  0.00000000E+00  0.00000000E+00  0.00000000E+00  5.08390209E-01
  3.96635252E-18 -1.22273851E-15  8.30957629E-16 -9.37952903E-16  4.49478737E-01
 -6.90107853E-16 -8.05538376E-15  0.00000000E+00  0.00000000E+00  1.52517063E+00
  0.00000000E+00  1.91607772E-04 -4.14654078E-04  1.38508286E-04 -1.09697684E-18
  6.62090275E-08  3.83073410E-03 -6.09815801E-03 -1.24400436E-03 -1.92883844E-17
  3.10650896E-02  1.91607772E-04  6.17353317E-02 -7.87564657E-02  2.63072852E-02
 -2.40515124E-16  3.83073410E-03  3.34960153E-01 -2.91612506E-01 -5.94880010E-02
 -2.33583748E-15  2.63532865E-02  8.41350389E-01  4.14654078E-04  7.87564657E-02
 -8.45455362E-02  3.58099404E-02 -3.28215932E-16  6.09815801E-03  2.91612506E-01
 -1.56428562E-01 -6.24958848E-02 -2.39690216E-15  0.00000000E+00  0.00000000E+00
  5.08390209E-01 -1.38508286E-04 -2.63072852E-02  3.58099404E-02  1.06974395E-02
  1.09635063E-16  1.24400436E-03  5.94880010E-02 -6.24958848E-02  1.37179751E-01
 -4.88960230E-16  0.00000000E+00  0.00000000E+00  0.00000000E+00  5.08390209E-01
  1.23800488E-19 -1.47713762E-16  2.05449368E-16 -6.86269384E-17  6.79774605E-02
 -2.61470542E-17 -2.44028133E-15  2.51564800E-15  5.13183995E-16  4.49786125E-01
 -5.80969421E-16 -6.78144962E-15  0.00000000E+00  0.00000000E+00  1.52517063E+00
  0.00000000E+00  4.45043950E-05 -1.14690104E-04 -2.33917038E-05  6.54686116E-20
  0.00000000E+00  1.91846304E-04 -3.27622250E-04 -2.90188448E-04  6.25047500E-19
  6.59921234E-08  3.82904972E-03 -1.97080071E-03 -5.90066913E-03  1.32438959E-17
  3.10650896E-02  4.45043950E-05  2.74072409E-02 -4.03539906E-02 -8.23042759E-03
  9.97548992E-18  1.91846304E-04  6.17784499E-02 -6.21941588E-02 -5.50879142E-02
 -8.48973544E-17  3.82904972E-03  3.34881044E-01 -9.42708966E-02 -2.82251455E-01
 -5.56103569E-16  2.63532865E-02  8.41350389E-01  1.14690104E-04  4.03539906E-02
 -5.26623519E-02 -1.26978340E-02  1.49474367E-17  3.27622250E-04  6.21941588E-02
 -4.41346133E-02 -5.91769596E-02 -9.53056748E-17  1.97080071E-03  9.42708966E-02
  1.17863369E-01 -9.58773541E-02 -1.73385404E-16  0.00000000E+00  0.00000000E+00
  5.08390209E-01  2.33917038E-05  8.23042759E-03 -1.26978340E-02  7.00564701E-03
  3.04861536E-18  2.90188448E-04  5.50879142E-02 -5.91769596E-02 -2.97393866E-02
 -8.44161403E-17  5.90066913E-03  2.82251455E-01 -9.58773541E-02 -1.37175229E-01
 -5.19123974E-16  0.00000000E+00  0.00000000E+00  0.00000000E+00  5.08390209E-01
 -6.54686116E-20 -9.97548992E-18  1.49474367E-17  3.04861536E-18  2.87863290E-02
 -1.44536836E-18 -2.42193123E-16  2.59521160E-16  2.29868523E-16  6.80282119E-02
 -3.01004426E-17 -1.21636446E-15  4.16098600E-16  1.24581859E-15  4.49658105E-01
  1.09128314E-16  1.27381603E-15  0.00000000E+00  0.00000000E+00  1.52517063E+00
  0.00000000E+00  1.91846304E-04 -3.27622250E-04 -2.90188448E-04  1.44536836E-18
  0.00000000E+00  4.45512879E-05 -3.70980651E-05 -1.11135718E-04  4.14448173E-19
  0.00000000E+00  1.91633907E-04  8.74522903E-05 -4.28393494E-04  1.72149495E-18
  6.56892907E-08  3.82669024E-03  4.12288351E-03 -4.65375179E-03  3.24960854E-17
  3.10650896E-02  1.91846304E-04  6.17784499E-02 -6.21941588E-02 -5.50879142E-02
  2.42193123E-16  4.45512879E-05  2.74231714E-02 -1.30471375E-02 -3.90856769E-02
  6.31181339E-17  1.91633907E-04  6.17400570E-02  1.66091307E-02 -8.13614315E-02
  1.55707819E-16  3.82669024E-03  3.34770192E-01  1.97294320E-01 -2.22698215E-01
  1.77841925E-15  2.63532865E-02  8.41350389E-01  3.27622250E-04  6.21941588E-02
 -4.41346133E-02 -5.91769596E-02  2.59521160E-16  3.70980651E-05  1.30471375E-02
  3.09695008E-03 -1.94852441E-02  3.05609280E-17 -8.74522903E-05 -1.66091307E-02
  1.78933740E-02  2.33547129E-02 -4.37723347E-17 -4.12288351E-03 -1.97294320E-01
  9.52796011E-03  1.58363290E-01 -1.25855925E-15  0.00000000E+00  0.00000000E+00
  5.08390209E-01  2.90188448E-04  5.50879142E-02 -5.91769596E-02 -2.97393866E-02
  2.29868523E-16  1.11135718E-04  3.90856769E-02 -1.94852441E-02 -4.87712008E-02
  9.15522320E-17  4.28393494E-04  8.13614315E-02  2.33547129E-02 -9.17443103E-02
  2.14423011E-16  4.65375179E-03  2.22698215E-01  1.58363290E-01 -2.89281251E-02
  1.42061312E-15  0.00000000E+00  0.00000000E+00  0.00000000E+00  5.08390209E-01
 -6.25047500E-19  8.48973544E-17 -9.53056748E-17 -8.44161403E-17  6.80282119E-02
 -4.14448173E-19 -6.31181339E-17  3.05609280E-17  9.15522320E-17  2.88038800E-02
 -1.56756679E-18 -9.43046043E-17 -2.59731353E-17  1.27231913E-16  6.79830221E-02
 -3.96635252E-18  1.22273851E-15  8.30957629E-16 -9.37952903E-16  4.49478737E-01
  6.90107853E-16  8.05538376E-15  0.00000000E+00  0.00000000E+00  1.52517063E+00
  6.59921234E-08  3.82904972E-03 -1.97080071E-03 -5.90066913E-03  3.01004426E-17
  0.00000000E+00  1.91633907E-04  8.74522903E-05 -4.28393494E-04  1.56756679E-18
  0.00000000E+00  4.44893366E-05  7.75841818E-05 -8.75968399E-05  3.48419072E-19
  0.00000000E+00  1.91607772E-04  4.14654078E-04 -1.38508286E-04  1.09697684E-18
  6.62090275E-08  3.83073410E-03  6.09815801E-03  1.24400436E-03  1.92883844E-17
  3.10650896E-02  3.82904972E-03  3.34881044E-01 -9.42708966E-02 -2.82251455E-01
  1.21636446E-15  1.91633907E-04  6.17400570E-02  1.66091307E-02 -8.13614315E-02
  9.43046043E-17  4.44893366E-05  2.74021237E-02  2.73021528E-02 -3.08256432E-02
  5.30973459E-17  1.91607772E-04  6.17353317E-02  7.87564657E-02 -2.63072852E-02
  2.40515124E-16  3.83073410E-03  3.34960153E-01  2.91612506E-01  5.94880010E-02
  2.33583748E-15  2.63532865E-02  8.41350389E-01  1.97080071E-03  9.42708966E-02
  1.17863369E-01 -9.58773541E-02  4.16098600E-16 -8.74522903E-05 -1.66091307E-02
  1.78933740E-02  2.33547129E-02 -2.59731353E-17 -7.75841818E-05 -2.73021528E-02
 -1.89096722E-02  3.21817327E-02 -5.38388376E-17 -4.14654078E-04 -7.87564657E-02
 -8.45455362E-02  3.58099404E-02 -3.28215932E-16 -6.09815801E-03 -2.91612506E-01
 -1.56428562E-01 -6.24958848E-02 -2.39690216E-15  0.00000000E+00  0.00000000E+00
  5.08390209E-01  5.90066913E-03  2.82251455E-01 -9.58773541E-02 -1.37175229E-01
  1.24581859E-15  4.28393494E-04  8.13614315E-02  2.33547129E-02 -9.17443103E-02
  1.27231913E-16  8.75968399E-05  3.08256432E-02  3.21817327E-02 -2.67413954E-02
  6.07870307E-17  1.38508286E-04  2.63072852E-02  3.58099404E-02  1.06974395E-02
  1.09635063E-16 -1.24400436E-03 -5.94880010E-02 -6.24958848E-02  1.37179751E-01
 -4.88960230E-16  0.00000000E+00  0.00000000E+00  0.00000000E+00  5.08390209E-01
 -1.32438959E-17  5.56103569E-16 -1.73385404E-16 -5.19123974E-16  4.49658105E-01
 -1.72149495E-18 -1.55707819E-16 -4.37723347E-17  2.14423011E-16  6.79830221E-02
 -3.48419072E-19 -5.30973459E-17 -5.38388376E-17  6.07870307E-17  2.87806914E-02
 -1.23800488E-19  1.47713762E-16  2.05449368E-16 -6.86269384E-17  6.79774605E-02
  2.61470542E-17  2.44028133E-15  2.51564800E-15  5.13183995E-16  4.49786125E-01
  5.80969421E-16  6.78144962E-15  0.00000000E+00  0.00000000E+00  1.52517063E+00
  5.47312554E-04  9.84558784E-02 -2.92754872E-02  1.05976002E-01 -7.35490123E-16
  6.04184372E-03  4.11417169E-01  9.31331195E-02  2.78658794E-01 -4.96142505E-15
  5.47427989E-04  9.84695999E-02  8.70965583E-02  6.71183981E-02 -9.22901681E-16
  9.79239944E-06  7.71156714E-03  7.59534538E-03  9.31277743E-03 -4.52382685E-17
  1.31391278E-06  2.27518852E-03  1.24843973E-03  3.73868611E-03 -9.04190511E-18
  9.78908218E-06  7.70996629E-03 -4.74193236E-04  1.20057480E-02 -3.32756232E-17
  6.49524236E-01  9.77830437E-06  7.70476370E-03 -1.06279630E-02  5.58864887E-03
 -4.31357746E-17  5.47366306E-04  9.84622679E-02 -1.06420879E-01  2.76375025E-02
 -8.56645033E-16  6.04150533E-03  4.11406964E-01 -1.94846909E-01  2.19903580E-01
 -4.17651106E-15  5.47499844E-04  9.84781405E-02 -1.45953058E-02  1.08992484E-01
 -5.39502851E-16  9.78462875E-06  7.70781683E-03 -4.26751141E-03  1.12284620E-02
 -2.29125637E-17  1.31180494E-06  2.27298436E-03 -2.61124122E-03  2.94789733E-03
 -7.60405440E-18  5.66832248E-02  6.49524236E-01  9.79239944E-06  7.71156714E-03
 -7.59534538E-03 -9.31277743E-03  4.52382685E-17  1.31391278E-06  2.27518852E-03
 -1.24843973E-03 -3.73868611E-03  9.04190511E-18  9.78908218E-06  7.70996629E-03
  4.74193236E-04 -1.20057480E-02  3.32756232E-17  5.47312554E-04  9.84558784E-02
  2.92754872E-02 -1.05976002E-01  7.35490123E-16  6.04184372E-03  4.11417169E-01
 -9.31331195E-02 -2.78658794E-01  4.96142505E-15  5.47427989E-04  9.84695999E-02
 -8.70965583E-02 -6.71183981E-02  9.22901681E-16  1.62869428E-04  1.08393643E-03
  6.49524236E-01  5.47499844E-04  9.84781405E-02  1.45953058E-02 -1.08992484E-01
  5.39502851E-16  9.78462875E-06  7.70781683E-03  4.26751141E-03 -1.12284620E-02
  2.29125637E-17  1.31180494E-06  2.27298436E-03  2.61124122E-03 -2.94789733E-03
  7.60405440E-18  9.77830437E-06  7.70476370E-03  1.06279630E-02 -5.58864887E-03
  4.31357746E-17  5.47366306E-04  9.84622679E-02  1.06420879E-01 -2.76375025E-02
  8.56645033E-16  6.04150533E-03  4.11406964E-01  1.94846909E-01 -2.19903580E-01
  4.17651106E-15  1.08393643E-03  1.62680996E-04  5.66832248E-02  6.49524236E-01
  0.00000000E+00  1.19862656E-08 -4.78749749E-08 -9.76700034E-09  3.26304269E-23
  0.00000000E+00  2.57964788E-07 -8.06012991E-07 -4.64009575E-07  1.16084117E-21
  0.00000000E+00  1.19542768E-04 -2.20023215E-04 -1.83948137E-04  4.99356322E-19
  4.48709354E-09  2.69470031E-03 -4.36451331E-03 -8.90840283E-04  6.35676210E-18
  0.00000000E+00  1.19457996E-04 -2.74330439E-04  8.29770067E-05  3.30015725E-20
  0.00000000E+00  2.57602975E-07 -9.22131530E-07  1.10997830E-07  1.58176907E-22
  2.26892047E-08  1.06491345E-04  1.06471835E-04  2.26600805E-08  3.10650896E-02
  1.19862656E-08  3.26437802E-04 -6.97228699E-04 -1.42242016E-04  3.48480812E-19
  2.57964788E-07  1.68034073E-03 -2.83892415E-03 -1.63432600E-03 -1.91486271E-19
  1.19542768E-04  4.74131521E-02 -5.08786295E-02 -4.25365528E-02 -1.19664484E-17
  2.69470031E-03  2.76317723E-01 -2.59318134E-01 -5.29293929E-02  5.56552497E-16
  1.19457996E-04  4.73943932E-02 -6.34556326E-02  1.91934897E-02  1.58945606E-16
  2.57602975E-07  1.67907786E-03 -3.25000803E-03  3.91206487E-04  4.15797466E-18
  1.99681202E-04  3.40766503E-02  3.40726827E-02  1.99528209E-04  2.63532865E-02
  8.41350389E-01  4.78749749E-08  6.97228699E-04 -1.39542253E-03 -3.05835228E-04
  7.47784596E-19  8.06012991E-07  2.83892415E-03 -4.32348581E-03 -2.80141288E-03
 -4.09017547E-19  2.20023215E-04  5.08786295E-02 -4.07533405E-02 -4.83728996E-02
 -1.66013634E-17  4.36451331E-03  2.59318134E-01 -1.66415383E-01 -5.83092076E-02
  6.08016240E-16  2.74330439E-04  6.34556326E-02 -7.29361951E-02  2.72330523E-02
  2.29957371E-16  9.22131530E-07  3.25000803E-03 -5.83998377E-03  7.68244525E-04
  8.24319456E-18  3.18852203E-04  2.00645749E-02  3.42504659E-02  3.93692332E-04
  0.00000000E+00  0.00000000E+00  5.08390209E-01  9.76700034E-09  1.42242016E-04
 -3.05835228E-04  4.12985592E-05  1.52555953E-19  4.64009575E-07  1.63432600E-03
 -2.80141288E-03 -1.06999175E-03 -2.35465260E-19  1.83948137E-04  4.25365528E-02
 -4.83728996E-02 -2.33354292E-02 -1.38793984E-17  8.90840283E-04  5.29293929E-02
 -5.83092076E-02  1.07358710E-01  1.24102121E-16 -8.29770067E-05 -1.91934897E-02
  2.72330523E-02  8.86184164E-03 -6.95554399E-17 -1.10997830E-07 -3.91206487E-04
  7.68244525E-04  4.49851397E-04 -9.92240992E-19  2.56814402E-04  4.03068125E-02
 -2.92185274E-02 -1.11290067E-04  0.00000000E+00  0.00000000E+00  0.00000000E+00
  5.08390209E-01 -2.20095775E-23 -5.37386176E-20  1.12416099E-19  2.29340710E-20
  3.11076524E-04 -2.03334626E-21 -5.73694646E-18  9.80685682E-18  5.64566020E-18
  1.62821874E-03 -8.08070799E-19 -1.36466128E-16  1.54006794E-16  1.28755790E-16
  5.13187016E-02  1.41673263E-18  4.60720247E-16 -4.96801450E-16 -1.01402084E-16
  3.57780586E-01  7.74916588E-19  2.29618324E-16 -3.27274566E-16  9.89910709E-17
  5.12971520E-02  1.37613355E-21  6.27387949E-18 -1.23513150E-17  1.48673927E-18
  1.62697711E-03 -1.05877884E-18 -1.59559259E-16  2.52798988E-16  1.12415947E-18
  2.29736350E-16  2.68163078E-15  0.00000000E+00  0.00000000E+00  1.52517063E+00
  0.00000000E+00  0.00000000E+00  0.00000000E+00  0.00000000E+00  0.00000000E+00
  0.00000000E+00  1.05527185E-08 -4.21461143E-08 -9.53512426E-09 -1.08209173E-23
  0.00000000E+00  2.18108381E-05 -5.91199160E-05 -1.40001399E-05 -2.95602393E-20
  0.00000000E+00  1.31805939E-04 -3.02700821E-04  7.98448501E-05 -4.57911371E-19
  0.00000000E+00  3.82586451E-07 -1.21046533E-06  6.07662001E-07 -2.00622853E-21
  0.00000000E+00  1.06552594E-11 -4.93992155E-11  1.47133927E-11 -5.63856079E-26
  4.18554347E-09  1.54590110E-04  5.90452952E-07  0.00000000E+00  2.15582755E-07
  4.49713417E-03 -5.08173190E-03  5.21966549E-03 -2.20576781E-17  3.10650896E-02
  0.00000000E+00  1.37376978E-05 -3.54764738E-05  5.79986463E-07 -2.56203948E-20
  1.05527185E-08  3.05030644E-04 -6.51268921E-04 -1.47342885E-04 -9.15348364E-19
  2.18108381E-05  1.85156139E-02 -2.83280625E-02 -6.70834576E-03 -5.94948226E-17
  1.31805939E-04  5.00693714E-02 -6.71901333E-02  1.77230643E-02 -7.62035261E-17
  3.82586451E-07  2.07558443E-03 -3.55869194E-03  1.78648806E-03 -5.73625952E-19
  1.06552594E-11  3.56265726E-05 -8.42329203E-05  2.50884962E-05 -2.06907263E-20
  7.28961130E-05  4.32265457E-02  1.40509271E-03  2.66185643E-06  4.49713417E-03
  3.64763319E-01 -2.17501762E-01  2.23405418E-01 -4.24629464E-16  2.63532865E-02
  8.41350389E-01  0.00000000E+00  3.54764738E-05 -8.74229612E-05  1.49981596E-06
 -6.62687550E-20  4.21461143E-08  6.51268921E-04 -1.30263593E-03 -3.16619064E-04
 -1.97545071E-18  5.91199160E-05  2.83280625E-02 -3.87458884E-02 -1.06834935E-02
 -9.63015135E-17  3.02700821E-04  6.71901333E-02 -7.75527765E-02  2.52376012E-02
 -1.07776605E-16  1.21046533E-06  3.55869194E-03 -5.52695081E-03  3.11221029E-03
 -8.88522067E-19  4.93992155E-11  8.42329203E-05 -1.88380348E-04  5.94489389E-05
 -4.87055457E-20  1.45178534E-04  4.52728399E-02  1.87183414E-03  6.26386975E-06
  5.08173190E-03  2.17501762E-01  7.53003992E-03  1.63039590E-01 -3.26758724E-16
  0.00000000E+00  0.00000000E+00  5.08390209E-01  0.00000000E+00 -5.79986463E-07
  1.49981596E-06  4.29290473E-06  1.08339349E-21  9.53512426E-09  1.47342885E-04
 -3.16619064E-04  2.52172588E-05 -4.46925377E-19  1.40001399E-05  6.70834576E-03
 -1.06834935E-02  3.83851378E-03 -2.28050842E-17 -7.98448501E-05 -1.77230643E-02
  2.52376012E-02  1.14687691E-02  2.84287531E-17 -6.07662001E-07 -1.78648806E-03
  3.11221029E-03 -8.89765658E-04  4.46044248E-19 -1.47133927E-11 -2.50884962E-05
  5.94489389E-05 -6.49124633E-06  1.45067854E-20  6.33318143E-05  3.17224253E-02
 -1.69692939E-03 -2.56136313E-06 -5.21966549E-03 -2.23405418E-01  1.63039590E-01
 -1.20379218E-03  3.35627945E-16  0.00000000E+00  0.00000000E+00  0.00000000E+00
  5.08390209E-01  0.00000000E+00 -1.59483194E-20  4.12848751E-20 -6.74945002E-22
  1.29522733E-05 -6.60321756E-23 -1.34687221E-18  2.89794620E-18  6.55630480E-19
  2.90547183E-04 -1.11800646E-19 -7.70702077E-17  1.23544064E-16  2.92563707E-17
  1.91053899E-02  2.71769438E-19 -9.88163520E-18  1.61055126E-17 -4.24822845E-18
  5.43774374E-02  3.09943593E-21  6.78841153E-18 -1.17776283E-17  5.91245120E-18
  2.01775655E-03  7.82884833E-26  9.43773373E-20 -2.23466452E-19  6.65587421E-20
  3.36462694E-05 -4.90548073E-19 -2.91101944E-16  7.22088055E-18  1.10769566E-20
  1.88968048E-17  1.27810956E-16 -1.15387921E-16  1.18519898E-16  4.98783559E-01
 -3.01175679E-16 -3.51551669E-15  0.00000000E+00  0.00000000E+00  1.52517063E+00
  8.25214546E-09  1.09238624E-04 -2.13101577E-04 -9.18459994E-05  3.82077252E-19
  3.14821684E-08  2.42795407E-04 -3.77445190E-04 -3.15438212E-04  4.58995271E-19
  7.41002873E-06  6.50216703E-03 -6.50042933E-03 -7.98459356E-03  1.35649217E-17
  4.60395986E-04  8.78402638E-02 -7.88551206E-02 -6.18407905E-02  4.30400656E-16
  1.20212954E-04  3.68087579E-02 -4.77668494E-02 -5.94148121E-03  2.50055428E-16
  5.09615505E-07  1.28604216E-03 -2.30159364E-03 -3.48130333E-04  7.17374696E-18
  2.20313620E-05  3.83150114E-03  6.22402168E-02  3.00341250E-04  6.06070781E-03
  4.11985261E-01 -6.63726328E-02 -2.86370337E-01  2.77831400E-15  5.97677370E-04
  1.04357239E-01  3.66144440E-02 -1.09252329E-01  3.45256550E-16  6.49524236E-01
  0.00000000E+00  6.15266383E-07 -1.65441250E-06 -3.57166386E-08 -8.04250010E-22
  2.96421194E-10  1.50701083E-05 -3.46367336E-05 -7.67865899E-06 -4.30884689E-20
  6.19543339E-07  1.44633585E-03 -2.53021757E-03 -5.76408236E-04 -4.01921841E-18
  5.98725785E-06  5.70859658E-03 -9.08216261E-03  1.09381498E-03 -4.15136823E-18
  2.75296310E-08  2.24108825E-04 -4.33200778E-04  1.43287118E-04  1.96755710E-19
  0.00000000E+00  2.36811496E-06 -5.92652307E-06  1.21379072E-06  1.17325343E-21
  4.11735687E-06  5.61493222E-03  2.88944704E-04  2.24615702E-07  5.97703511E-04
  1.04360259E-01 -1.08235984E-01  3.95256623E-02 -3.15766196E-17  6.06066137E-03
  4.11983864E-01 -2.88042333E-01 -5.86915045E-02 -1.21333046E-15  5.49449801E-02
  6.49524236E-01  3.23413217E-09  6.25166181E-05 -1.33356121E-04  3.12918524E-05
 -2.76648639E-19  8.08515685E-07  1.69771121E-03 -3.00807833E-03  8.29081144E-05
 -1.06816512E-17  1.38762862E-04  4.03390652E-02 -5.15311602E-02  7.62546063E-03
 -2.74613754E-16  9.51977999E-05  3.17361178E-02 -3.33227933E-02  2.60960833E-02
 -1.32491676E-16  3.79958617E-07  1.07806936E-03 -1.47963856E-03  1.31082687E-03
 -2.35033063E-18  2.21959425E-09  4.99618113E-05 -9.69409297E-05  5.36354377E-05
 -1.28119390E-19  7.82503782E-04  1.32323994E-01  3.84070600E-04  3.08985494E-06
  5.97677355E-04  1.04357237E-01 -3.66144434E-02  1.09252328E-01 -4.18135382E-16
  6.06070768E-03  4.11985257E-01  6.63726320E-02  2.86370336E-01 -3.12630156E-15
  1.77870150E-02  1.51838584E-01  6.49524236E-01  4.48709354E-09  2.69470031E-03
  4.36451331E-03  8.90840283E-04 -6.35676210E-18  0.00000000E+00  1.19457996E-04
  2.74330439E-04 -8.29770067E-05 -3.30015725E-20  0.00000000E+00  2.57602975E-07
  9.22131530E-07 -1.10997830E-07 -1.58176907E-22  0.00000000E+00  1.19862656E-08
  4.78749749E-08  9.76700034E-09 -3.26304269E-23  0.00000000E+00  2.57964788E-07
  8.06012991E-07  4.64009575E-07 -1.16084117E-21  0.00000000E+00  1.19542768E-04
  2.20023215E-04  1.83948137E-04 -4.99356322E-19  1.06471835E-04  2.26600805E-08
  2.26892047E-08  1.06491345E-04  0.00000000E+00  0.00000000E+00  0.00000000E+00
  0.00000000E+00  0.00000000E+00  0.00000000E+00  0.00000000E+00  0.00000000E+00
  0.00000000E+00  0.00000000E+00  0.00000000E+00  0.00000000E+00  0.00000000E+00
  3.10650896E-02  2.69470031E-03  2.76317723E-01  2.59318134E-01  5.29293929E-02
 -5.56552497E-16  1.19457996E-04  4.73943932E-02  6.34556326E-02 -1.91934897E-02
 -1.58945606E-16  2.57602975E-07  1.67907786E-03  3.25000803E-03 -3.91206487E-04
 -4.15797466E-18  1.19862656E-08  3.26437802E-04  6.97228699E-04  1.42242016E-04
 -3.48480812E-19  2.57964788E-07  1.68034073E-03  2.83892415E-03  1.63432600E-03
  1.91486271E-19  1.19542768E-04  4.74131521E-02  5.08786295E-02  4.25365528E-02
  1.19664484E-17  3.40726827E-02  1.99528209E-04  1.99681202E-04  3.40766503E-02
  0.00000000E+00  6.33037532E-07  1.81616467E-06  3.70564095E-07 -5.34230018E-22
  0.00000000E+00  0.00000000E+00  0.00000000E+00  0.00000000E+00  0.00000000E+00
  3.07198814E-07  0.00000000E+00  2.16969689E-07  2.63532865E-02  8.41350389E-01
 -4.36451331E-03 -2.59318134E-01 -1.66415383E-01 -5.83092076E-02  6.08016240E-16
 -2.74330439E-04 -6.34556326E-02 -7.29361951E-02  2.72330523E-02  2.29957371E-16
 -9.22131530E-07 -3.25000803E-03 -5.83998377E-03  7.68244525E-04  8.24319456E-18
 -4.78749749E-08 -6.97228699E-04 -1.39542253E-03 -3.05835228E-04  7.47784596E-19
 -8.06012991E-07 -2.83892415E-03 -4.32348581E-03 -2.80141288E-03 -4.09017547E-19
 -2.20023215E-04 -5.08786295E-02 -4.07533405E-02 -4.83728996E-02 -1.66013634E-17
 -3.42504659E-02 -3.93692332E-04 -3.18852203E-04 -2.00645749E-02  0.00000000E+00
 -1.81616467E-06 -5.01210710E-06 -1.06313668E-06  1.53268904E-21  0.00000000E+00
  0.00000000E+00  0.00000000E+00  0.00000000E+00  0.00000000E+00 -7.93749476E-07
  0.00000000E+00 -6.00696800E-07  0.00000000E+00  0.00000000E+00  5.08390209E-01
 -8.90840283E-04 -5.29293929E-02 -5.83092076E-02  1.07358710E-01  1.24102121E-16
  8.29770067E-05  1.91934897E-02  2.72330523E-02  8.86184164E-03 -6.95554399E-17
  1.10997830E-07  3.91206487E-04  7.68244525E-04  4.49851397E-04 -9.92240992E-19
 -9.76700034E-09 -1.42242016E-04 -3.05835228E-04  4.12985592E-05  1.52555953E-19
 -4.64009575E-07 -1.63432600E-03 -2.80141288E-03 -1.06999175E-03 -2.35465260E-19
 -1.83948137E-04 -4.25365528E-02 -4.83728996E-02 -2.33354292E-02 -1.38793984E-17
  2.92185274E-02  1.11290067E-04 -2.56814402E-04 -4.03068125E-02  0.00000000E+00
 -3.70564095E-07 -1.06313668E-06 -1.85068549E-08  3.12724685E-22  0.00000000E+00
  0.00000000E+00  0.00000000E+00  0.00000000E+00  0.00000000E+00 -2.96806502E-07
  0.00000000E+00  7.90852981E-08  0.00000000E+00  0.00000000E+00  0.00000000E+00
  5.08390209E-01 -1.41673263E-18 -4.60720247E-16 -4.96801450E-16 -1.01402084E-16
  3.57780586E-01 -7.74916588E-19 -2.29618324E-16 -3.27274566E-16  9.89910709E-17
  5.12971520E-02 -1.37613355E-21 -6.27387949E-18 -1.23513150E-17  1.48673927E-18
  1.62697711E-03  2.20095775E-23  5.37386176E-20  1.12416099E-19  2.29340710E-20
  3.11076524E-04  2.03334626E-21  5.73694646E-18  9.80685682E-18  5.64566020E-18
  1.62821874E-03  8.08070799E-19  1.36466128E-16  1.54006794E-16  1.28755790E-16
  5.13187016E-02 -2.52798988E-16 -1.12415947E-18  1.05877884E-18  1.59559259E-16
  0.00000000E+00  5.34230018E-22  1.53268904E-21  3.12724685E-22  5.95235866E-07
  0.00000000E+00  0.00000000E+00  0.00000000E+00  0.00000000E+00  0.00000000E+00
  9.73128750E-22  0.00000000E+00 -1.01919136E-21 -2.29736350E-16 -2.68163078E-15
  0.00000000E+00  0.00000000E+00  1.52517063E+00  0.00000000E+00  1.31805939E-04
  3.02700821E-04 -7.98448501E-05  4.57911371E-19  0.00000000E+00  3.82586451E-07
  1.21046533E-06 -6.07662001E-07  2.00622853E-21  0.00000000E+00  1.06552594E-11
  4.93992155E-11 -1.47133927E-11  5.63856079E-26  0.00000000E+00  0.00000000E+00
  0.00000000E+00  0.00000000E+00  0.00000000E+00  0.00000000E+00  1.05527185E-08
  4.21461143E-08  9.53512426E-09  1.08209173E-23  0.00000000E+00  2.18108381E-05
  5.91199160E-05  1.40001399E-05  2.95602393E-20  5.90452952E-07  0.00000000E+00
  4.18554347E-09  1.54590110E-04  0.00000000E+00  0.00000000E+00  0.00000000E+00
  0.00000000E+00  0.00000000E+00  0.00000000E+00  0.00000000E+00  0.00000000E+00
  0.00000000E+00  0.00000000E+00  0.00000000E+00  0.00000000E+00  0.00000000E+00
  2.15582755E-07  4.49713417E-03  5.08173190E-03 -5.21966549E-03  2.20576781E-17
  3.10650896E-02  1.31805939E-04  5.00693714E-02  6.71901333E-02 -1.77230643E-02
  7.62035261E-17  3.82586451E-07  2.07558443E-03  3.55869194E-03 -1.78648806E-03
  5.73625952E-19  1.06552594E-11  3.56265726E-05  8.42329203E-05 -2.50884962E-05
  2.06907263E-20  0.00000000E+00  1.37376978E-05  3.54764738E-05 -5.79986463E-07
  2.56203948E-20  1.05527185E-08  3.05030644E-04  6.51268921E-04  1.47342885E-04
  9.15348364E-19  2.18108381E-05  1.85156139E-02  2.83280625E-02  6.70834576E-03
  5.94948226E-17  1.40509271E-03  2.66185643E-06  7.28961130E-05  4.32265457E-02
  0.00000000E+00  0.00000000E+00  0.00000000E+00  0.00000000E+00  0.00000000E+00
  0.00000000E+00  0.00000000E+00  0.00000000E+00  0.00000000E+00  0.00000000E+00
  0.00000000E+00  0.00000000E+00  0.00000000E+00  4.49713417E-03  3.64763319E-01
  2.17501762E-01 -2.23405418E-01  4.24629464E-16  2.63532865E-02  8.41350389E-01
 -3.02700821E-04 -6.71901333E-02 -7.75527765E-02  2.52376012E-02 -1.07776605E-16
 -1.21046533E-06 -3.55869194E-03 -5.52695081E-03  3.11221029E-03 -8.88522067E-19
 -4.93992155E-11 -8.42329203E-05 -1.88380348E-04  5.94489389E-05 -4.87055457E-20
  0.00000000E+00 -3.54764738E-05 -8.74229612E-05  1.49981596E-06 -6.62687550E-20
 -4.21461143E-08 -6.51268921E-04 -1.30263593E-03 -3.16619064E-04 -1.97545071E-18
 -5.91199160E-05 -2.83280625E-02 -3.87458884E-02 -1.06834935E-02 -9.63015135E-17
 -1.87183414E-03 -6.26386975E-06 -1.45178534E-04 -4.52728399E-02  0.00000000E+00
  0.00000000E+00  0.00000000E+00  0.00000000E+00  0.00000000E+00  0.00000000E+00
  0.00000000E+00  0.00000000E+00  0.00000000E+00  0.00000000E+00  0.00000000E+00
  0.00000000E+00  0.00000000E+00 -5.08173190E-03 -2.17501762E-01  7.53003992E-03
  1.63039590E-01 -3.26758724E-16  0.00000000E+00  0.00000000E+00  5.08390209E-01
  7.98448501E-05  1.77230643E-02  2.52376012E-02  1.14687691E-02  2.84287531E-17
  6.07662001E-07  1.78648806E-03  3.11221029E-03 -8.89765658E-04  4.46044248E-19
  1.47133927E-11  2.50884962E-05  5.94489389E-05 -6.49124633E-06  1.45067854E-20
  0.00000000E+00  5.79986463E-07  1.49981596E-06  4.29290473E-06  1.08339349E-21
 -9.53512426E-09 -1.47342885E-04 -3.16619064E-04  2.52172588E-05 -4.46925377E-19
 -1.40001399E-05 -6.70834576E-03 -1.06834935E-02  3.83851378E-03 -2.28050842E-17
  1.69692939E-03  2.56136313E-06 -6.33318143E-05 -3.17224253E-02  0.00000000E+00
  0.00000000E+00  0.00000000E+00  0.00000000E+00  0.00000000E+00  0.00000000E+00
  0.00000000E+00  0.00000000E+00  0.00000000E+00  0.00000000E+00  0.00000000E+00
  0.00000000E+00  0.00000000E+00  5.21966549E-03  2.23405418E-01  1.63039590E-01
 -1.20379218E-03  3.35627945E-16  0.00000000E+00  0.00000000E+00  0.00000000E+00
  5.08390209E-01 -2.71769438E-19  9.88163520E-18  1.61055126E-17 -4.24822845E-18
  5.43774374E-02 -3.09943593E-21 -6.78841153E-18 -1.17776283E-17  5.91245120E-18
  2.01775655E-03 -7.82884833E-26 -9.43773373E-20 -2.23466452E-19  6.65587421E-20
  3.36462694E-05  0.00000000E+00  1.59483194E-20  4.12848751E-20 -6.74945002E-22
  1.29522733E-05  6.60321756E-23  1.34687221E-18  2.89794620E-18  6.55630480E-19
  2.90547183E-04  1.11800646E-19  7.70702077E-17  1.23544064E-16  2.92563707E-17
  1.91053899E-02 -7.22088055E-18 -1.10769566E-20  4.90548073E-19  2.91101944E-16
  0.00000000E+00  0.00000000E+00  0.00000000E+00  0.00000000E+00  0.00000000E+00
  0.00000000E+00  0.00000000E+00  0.00000000E+00  0.00000000E+00  0.00000000E+00
  0.00000000E+00  0.00000000E+00  0.00000000E+00 -1.88968048E-17 -1.27810956E-16
 -1.15387921E-16  1.18519898E-16  4.98783559E-01  3.01175679E-16  3.51551669E-15
  0.00000000E+00  0.00000000E+00  1.52517063E+00  4.60395986E-04  8.78402638E-02
  7.88551206E-02  6.18407905E-02 -4.30400656E-16  1.20212954E-04  3.68087579E-02
  4.77668494E-02  5.94148121E-03 -2.50055428E-16  5.09615505E-07  1.28604216E-03
  2.30159364E-03  3.48130333E-04 -7.17374696E-18  8.25214546E-09  1.09238624E-04
  2.13101577E-04  9.18459994E-05 -3.82077252E-19  3.14821684E-08  2.42795407E-04
  3.77445190E-04  3.15438212E-04 -4.58995271E-19  7.41002873E-06  6.50216703E-03
  6.50042933E-03  7.98459356E-03 -1.35649217E-17  6.22402168E-02  3.00341250E-04
  2.20313620E-05  3.83150114E-03  0.00000000E+00  3.07198814E-07  7.93749476E-07
  2.96806502E-07 -9.73128750E-22  0.00000000E+00  0.00000000E+00  0.00000000E+00
  0.00000000E+00  0.00000000E+00  8.27889881E-08  0.00000000E+00  4.19724818E-07
  6.06070781E-03  4.11985261E-01  6.63726328E-02  2.86370337E-01 -2.77831400E-15
  5.97677370E-04  1.04357239E-01 -3.66144440E-02  1.09252329E-01 -3.45256550E-16
  6.49524236E-01  5.98725785E-06  5.70859658E-03  9.08216261E-03 -1.09381498E-03
  4.15136823E-18  2.75296310E-08  2.24108825E-04  4.33200778E-04 -1.43287118E-04
 -1.96755710E-19  0.00000000E+00  2.36811496E-06  5.92652307E-06 -1.21379072E-06
 -1.17325343E-21  0.00000000E+00  6.15266383E-07  1.65441250E-06  3.57166386E-08
  8.04250010E-22  2.96421194E-10  1.50701083E-05  3.46367336E-05  7.67865899E-06
  4.30884689E-20  6.19543339E-07  1.44633585E-03  2.53021757E-03  5.76408236E-04
  4.01921841E-18  2.88944704E-04  2.24615702E-07  4.11735687E-06  5.61493222E-03
  0.00000000E+00  0.00000000E+00  0.00000000E+00  0.00000000E+00  0.00000000E+00
  0.00000000E+00  0.00000000E+00  0.00000000E+00  0.00000000E+00  0.00000000E+00
  0.00000000E+00  0.00000000E+00  0.00000000E+00  5.97703511E-04  1.04360259E-01
  1.08235984E-01 -3.95256623E-02  3.15766196E-17  6.06066137E-03  4.11983864E-01
  2.88042333E-01  5.86915045E-02  1.21333046E-15  5.49449801E-02  6.49524236E-01
  9.51977999E-05  3.17361178E-02  3.33227933E-02 -2.60960833E-02  1.32491676E-16
  3.79958617E-07  1.07806936E-03  1.47963856E-03 -1.31082687E-03  2.35033063E-18
  2.21959425E-09  4.99618113E-05  9.69409297E-05 -5.36354377E-05  1.28119390E-19
  3.23413217E-09  6.25166181E-05  1.33356121E-04 -3.12918524E-05  2.76648639E-19
  8.08515685E-07  1.69771121E-03  3.00807833E-03 -8.29081144E-05  1.06816512E-17
  1.38762862E-04  4.03390652E-02  5.15311602E-02 -7.62546063E-03  2.74613754E-16
  3.84070600E-04  3.08985494E-06  7.82503782E-04  1.32323994E-01  0.00000000E+00
  2.16969689E-07  6.00696800E-07 -7.90852981E-08  1.01919136E-21  0.00000000E+00
  0.00000000E+00  0.00000000E+00  0.00000000E+00  0.00000000E+00  4.19724818E-07
  0.00000000E+00  0.00000000E+00  5.97677355E-04  1.04357237E-01  3.66144434E-02
 -1.09252328E-01  4.18135382E-16  6.06070768E-03  4.11985257E-01 -6.63726320E-02
 -2.86370336E-01  3.12630156E-15  1.77870150E-02  1.51838584E-01  6.49524236E-01
Number of independent functions            I               60
Alpha MO coefficients                      R   N=        3600
  7.00241282E-01  3.15682938E-02 -1.53054678E-03 -3.31570706E-04 -1.72348525E-16
 -6.30967655E-03 -7.46873246E-03 -2.76128910E-03  3.55029508E-03 -2.87579130E-17
  6.74052495E-03  7.49801048E-03 -1.15572657E-03 -4.35268496E-03  2.41624626E-16
 -7.00241282E-01 -3.15682938E-02 -1.53054678E-03 -3.31570706E-04  3.66102524E-18
  6.30967654E-03  7.46873246E-03 -2.76128910E-03  3.55029508E-03 -7.26819141E-17
 -6.74052496E-03 -7.49801049E-03 -1.15572657E-03 -4.35268496E-03 -1.44267023E-16
  2.23298366E-04 -2.38329074E-04 -2.23298366E-04  2.38329074E-04  9.70151345E-03
  5.50430832E-03  3.81771387E-03  8.49349774E-04 -1.78746039E-16  1.08452945E-04
 -2.85752997E-04 -1.93852695E-04 -5.38137557E-05 -8.58074062E-17 -1.55276362E-04
  2.56482883E-05  1.38443513E-04 -9.70151346E-03 -5.50430832E-03  3.81771387E-03
  8.49349775E-04  4.84122876E-18 -1.08452945E-04  2.85752997E-04 -1.93852695E-04
 -5.38137558E-05  2.05717470E-17  1.55276362E-04 -2.56482883E-05 -1.38443513E-04
 -7.00271279E-01 -3.13501443E-02  1.18025157E-03  2.60263038E-04  1.21467688E-16
  6.97571784E-03  6.80040038E-03  3.01043932E-03 -3.43347464E-03 -3.85072945E-17
  7.45423303E-03  6.84001477E-03 -1.42521000E-03 -4.34173337E-03 -1.10395597E-16
 -7.00271280E-01 -3.13501443E-02 -1.18025157E-03 -2.60263038E-04 -3.84204156E-17
  6.97571784E-03  6.80040039E-03 -3.01043933E-03  3.43347464E-03 -1.83022614E-18
  7.45423302E-03  6.84001477E-03  1.42521000E-03  4.34173337E-03  2.25729278E-16
 -8.39762028E-05 -9.83045744E-05 -8.39762031E-05 -9.83045742E-05  9.86162201E-03
  5.58486600E-03  3.87277388E-03  8.60497429E-04  1.14100961E-16  1.03479118E-04
 -2.86214024E-04 -2.00521514E-04 -5.29634527E-05  6.85523648E-17 -1.64262364E-04
  2.45933407E-05  1.26323554E-04  9.86162200E-03  5.58486599E-03 -3.87277387E-03
 -8.60497428E-04 -1.30926091E-16  1.03479117E-04 -2.86214024E-04  2.00521514E-04
  5.29634526E-05  4.52688692E-17 -1.64262364E-04  2.45933407E-05  1.26323554E-04
  8.66012301E-03 -7.66747586E-03  2.03456293E-03  3.69244158E-03  1.71237612E-16
  1.01654087E-01  1.14326527E-02 -4.36694455E-03 -1.27486925E-03  3.53884064E-18
 -6.92814775E-01 -3.21686033E-02 -1.55560414E-03  1.04636504E-03  1.81832541E-17
 -8.66012300E-03  7.66747585E-03  2.03456293E-03  3.69244157E-03 -2.68870942E-18
 -1.01654087E-01 -1.14326527E-02 -4.36694456E-03 -1.27486925E-03 -1.43262704E-16
  6.92814776E-01  3.21686033E-02 -1.55560414E-03  1.04636504E-03 -4.26937146E-17
 -1.08206568E-03  6.21356376E-03  1.08206569E-03 -6.21356377E-03  2.08980962E-03
 -1.64269319E-04 -8.02080443E-05 -1.99291494E-05  3.63160927E-16  2.44453264E-03
  1.97519326E-04  1.09085160E-04  8.27287506E-05  6.40771923E-18  3.56979948E-05
  1.46682188E-05 -2.60931659E-04 -2.08980963E-03  1.64269318E-04 -8.02080442E-05
 -1.99291495E-05  6.85703798E-17 -2.44453264E-03 -1.97519326E-04  1.09085160E-04
  8.27287507E-05 -1.41522293E-16 -3.56979949E-05 -1.46682189E-05  2.60931660E-04
  6.93617957E-03 -5.04701282E-03  9.48226610E-04  4.81303905E-03 -6.42041119E-17
 -1.16677872E-01 -1.16775928E-02  4.33741554E-03  1.16832429E-03 -1.30686620E-17
  6.90463022E-01  3.19376262E-02  1.41093981E-03 -7.47514500E-04  1.46724110E-16
  6.93617958E-03 -5.04701283E-03 -9.48226612E-04 -4.81303905E-03  1.45050387E-17
 -1.16677872E-01 -1.16775928E-02 -4.33741554E-03 -1.16832428E-03  5.20272167E-17
  6.90463021E-01  3.19376262E-02 -1.41093981E-03  7.47514499E-04 -6.55052181E-17
  1.09843627E-03 -6.27288194E-03  1.09843627E-03 -6.27288194E-03 -5.04934245E-03
 -1.17527629E-04 -3.66636122E-05  5.99947183E-05 -4.16726275E-17 -2.20058855E-03
 -1.56245983E-04 -8.24196528E-05 -8.67841642E-05 -2.73921279E-16 -2.46329644E-05
 -1.31771460E-05  2.63147032E-04 -5.04934245E-03 -1.17527629E-04  3.66636122E-05
 -5.99947183E-05 -2.29117837E-16 -2.20058855E-03 -1.56245983E-04  8.24196527E-05
  8.67841641E-05  1.01947098E-16 -2.46329644E-05 -1.31771460E-05  2.63147032E-04
 -6.02379448E-03  5.68997006E-03 -2.86827055E-03  3.81748305E-03 -5.27669539E-17
 -6.92969284E-01 -3.01185789E-02 -2.27111209E-04  1.28355104E-03 -6.74677324E-18
 -1.02661986E-01  2.25837259E-03  4.24724246E-03  8.74812257E-04  5.03828507E-17
  6.02379448E-03 -5.68997005E-03 -2.86827055E-03  3.81748305E-03 -5.49587919E-17
  6.92969284E-01  3.01185789E-02 -2.27111209E-04  1.28355104E-03  2.26680545E-16
  1.02661986E-01 -2.25837259E-03  4.24724246E-03  8.74812256E-04 -1.21031483E-16
  6.11574898E-03  7.34418316E-04 -6.11574897E-03 -7.34418316E-04 -3.54279791E-03
  2.79077829E-05  4.67431123E-05  3.73843341E-05 -7.71313243E-17 -9.43555871E-05
 -1.72454739E-05 -8.92894634E-06  8.39096228E-06 -5.77760549E-17 -8.12282673E-06
  4.28459097E-06 -1.26765781E-05  3.54279792E-03 -2.79077823E-05  4.67431123E-05
  3.73843340E-05 -1.42743819E-16  9.43555887E-05  1.72454739E-05 -8.92894632E-06
  8.39096220E-06 -8.65996076E-17  8.12282662E-06 -4.28459097E-06  1.26765781E-05
 -8.82098415E-03  6.96448680E-03 -3.38264608E-03  2.58997467E-03  1.21937637E-16
 -6.90067163E-01 -2.96979128E-02 -4.24205830E-04  9.37078226E-04 -1.65610356E-16
 -1.17282310E-01  1.23144447E-03  4.21286565E-03  9.29922547E-04 -1.32255092E-16
 -8.82098415E-03  6.96448680E-03  3.38264609E-03 -2.58997467E-03  6.88262793E-17
 -6.90067163E-01 -2.96979128E-02  4.24205830E-04 -9.37078227E-04 -1.91463142E-16
 -1.17282310E-01  1.23144447E-03 -4.21286565E-03 -9.29922548E-04 -6.12241889E-17
  6.20555770E-03  1.00625368E-03  6.20555771E-03  1.00625368E-03  2.97192531E-02
  1.17126115E-03 -1.28055184E-05  7.32682864E-05  1.26706670E-16  1.38542898E-03
 -1.79194988E-04 -3.65878764E-05  1.46679527E-04 -3.18744136E-16 -1.93074823E-04
  1.51866323E-05 -1.70296026E-05  2.97192531E-02  1.17126115E-03  1.28055183E-05
 -7.32682865E-05 -3.02433342E-16  1.38542898E-03 -1.79194988E-04  3.65878764E-05
 -1.46679527E-04 -2.62753328E-16 -1.93074823E-04  1.51866323E-05 -1.70296026E-05
 -1.13617053E-02  4.99067878E-03  3.77089486E-03  7.12873030E-04  1.08843299E-16
 -2.83484657E-02 -1.17590456E-03 -1.51841686E-04 -1.21281819E-04 -1.10677469E-16
 -9.80610023E-03 -2.64514877E-04  2.79273705E-04 -3.88452360E-05 -2.72773615E-16
 -1.13617053E-02  4.99067878E-03 -3.77089486E-03 -7.12873030E-04  2.17544034E-16
 -2.83484657E-02 -1.17590456E-03  1.51841686E-04  1.21281819E-04 -2.22474647E-16
 -9.80610023E-03 -2.64514877E-04 -2.79273705E-04  3.88452360E-05 -6.41088439E-17
  3.01253040E-04  2.42538708E-04  3.01253040E-04  2.42538708E-04 -6.99512885E-01
 -3.08485864E-02  1.29219781E-03 -1.31057119E-03 -9.09277455E-17  2.01606315E-02
  8.48250757E-03  3.29005701E-03 -3.37518088E-03  1.18159802E-16  6.28666032E-03
 -3.30044467E-04 -3.18907247E-04 -6.99512885E-01 -3.08485864E-02 -1.29219781E-03
  1.31057119E-03 -1.52023613E-16  2.01606315E-02  8.48250757E-03 -3.29005701E-03
  3.37518088E-03  9.34918376E-17  6.28666032E-03 -3.30044467E-04 -3.18907247E-04
  1.08099831E-02 -4.72119317E-03 -3.94366793E-03 -6.56043064E-04 -2.83788629E-16
  3.70228301E-03  2.69659098E-04  4.25153104E-05  4.39922175E-05  1.17842055E-16
 -1.38095072E-03 -2.42451292E-04  2.56296686E-05 -1.65824082E-05  2.88932075E-16
 -1.08099831E-02  4.72119317E-03 -3.94366793E-03 -6.56043064E-04 -2.26221104E-16
 -3.70228301E-03 -2.69659098E-04  4.25153105E-05  4.39922175E-05  1.12553108E-16
  1.38095072E-03  2.42451292E-04  2.56296686E-05 -1.65824082E-05  1.54136113E-16
 -6.04538201E-05  1.46236075E-04  6.04538201E-05 -1.46236075E-04 -7.00151908E-01
 -3.08872986E-02  1.27812576E-03 -1.31431422E-03 -3.39888633E-16  2.00437804E-02
  8.48033157E-03  3.28884365E-03 -3.37829660E-03  1.64499931E-16  6.28948372E-03
 -3.30134050E-04 -3.15655932E-04  7.00151908E-01  3.08872986E-02  1.27812576E-03
 -1.31431422E-03  2.59930436E-17 -2.00437804E-02 -8.48033157E-03  3.28884365E-03
 -3.37829660E-03  2.70663415E-16 -6.28948372E-03  3.30134050E-04  3.15655932E-04
 -4.78741373E-04 -7.35577215E-05  2.81648826E-05 -3.09921315E-05  1.12757177E-16
 -1.83496909E-03  5.86556764E-05  1.03901163E-05 -3.65337432E-05 -6.67236210E-17
 -2.72352499E-03 -1.46255014E-05 -1.43707843E-04  4.56804747E-06  2.28913810E-17
 -4.78741374E-04 -7.35577215E-05 -2.81648826E-05  3.09921315E-05 -1.46202471E-16
 -1.83496909E-03  5.86556765E-05 -1.03901163E-05  3.65337432E-05 -1.42391524E-16
 -2.72352499E-03 -1.46255014E-05  1.43707843E-04 -4.56804747E-06 -1.40027209E-17
  3.04659049E-05 -1.45948375E-04  3.04659048E-05 -1.45948375E-04 -2.09102772E-02
  6.71496508E-03 -3.22316945E-03  3.34563814E-03 -5.47069403E-17 -7.00205941E-01
 -3.09852800E-02 -1.10382802E-03  1.05925726E-03  3.34154308E-16  4.45747408E-05
  6.29403921E-03  6.34475295E-03 -2.09102772E-02  6.71496508E-03  3.22316945E-03
 -3.34563814E-03 -2.56505561E-16 -7.00205941E-01 -3.09852799E-02  1.10382802E-03
 -1.05925726E-03 -2.16415977E-16  4.45747408E-05  6.29403921E-03  6.34475295E-03
  4.57611238E-04  8.26622240E-05 -3.10066055E-05  3.56533559E-05 -5.72091664E-17
  5.61967008E-04  2.76815113E-05 -1.10554761E-04  8.62626858E-06 -5.44227106E-17
 -2.48160222E-03 -4.24978084E-05 -1.70711184E-04 -8.15943044E-07  1.02710970E-16
 -4.57611238E-04 -8.26622240E-05 -3.10066055E-05  3.56533559E-05 -4.00220391E-16
 -5.61967007E-04 -2.76815113E-05 -1.10554761E-04  8.62626858E-06 -1.79674300E-16
  2.48160222E-03  4.24978084E-05 -1.70711184E-04 -8.15943039E-07 -1.00481865E-16
 -1.55316826E-05 -1.48030519E-04  1.55316826E-05  1.48030519E-04 -2.08784865E-02
  6.71599169E-03 -3.22435032E-03  3.34624218E-03  2.66618444E-16 -7.00209822E-01
 -3.09862943E-02 -1.10443455E-03  1.05954467E-03  1.26508297E-16  4.37369667E-05
  6.29402191E-03  6.34468994E-03  2.08784865E-02 -6.71599169E-03 -3.22435032E-03
  3.34624218E-03 -2.50976723E-16  7.00209822E-01  3.09862943E-02 -1.10443455E-03
  1.05954467E-03  1.92702474E-16 -4.37369667E-05 -6.29402191E-03 -6.34468994E-03
  1.12509861E-01 -2.86267966E-01  5.63762619E-02  1.37408360E-02 -9.57137324E-17
  9.65873048E-02 -2.38024483E-01  1.12025734E-02  6.65382071E-02 -8.58861372E-17
  9.83792209E-02 -2.43084926E-01 -3.40803992E-02  5.75904326E-02  4.07765960E-17
  1.12509861E-01 -2.86267966E-01 -5.63762619E-02 -1.37408360E-02 -5.90577545E-17
  9.65873048E-02 -2.38024483E-01 -1.12025734E-02 -6.65382071E-02  1.72307041E-16
  9.83792209E-02 -2.43084926E-01  3.40803992E-02 -5.75904326E-02  5.18437612E-17
 -3.57551498E-02 -3.79923506E-02 -3.57551498E-02 -3.79923506E-02  4.03421602E-02
 -1.02236775E-01 -2.51046029E-02 -1.53707728E-02 -4.10444065E-16  2.07430205E-02
 -5.24093822E-02 -1.87076824E-02  1.11832379E-02  2.84972945E-16 -1.70474531E-02
 -6.86731616E-03 -1.05248791E-02  4.03421602E-02 -1.02236775E-01  2.51046029E-02
  1.53707728E-02 -1.83807723E-16  2.07430205E-02 -5.24093822E-02  1.87076824E-02
 -1.11832379E-02  1.20669016E-16 -1.70474531E-02 -6.86731616E-03 -1.05248791E-02
  1.12192142E-01 -2.99435344E-01 -1.75916123E-02  8.70326986E-03 -1.47848207E-17
  3.86903339E-02 -9.95349827E-02 -6.66257652E-02  3.36404805E-02  6.27452256E-19
 -5.35802123E-02  1.38425862E-01 -4.75914553E-02 -5.76883668E-02  2.32281338E-16
 -1.12192142E-01  2.99435344E-01 -1.75916123E-02  8.70326986E-03 -1.55892223E-16
 -3.86903339E-02  9.95349827E-02 -6.66257652E-02  3.36404805E-02 -2.75319311E-16
  5.35802123E-02 -1.38425862E-01 -4.75914553E-02 -5.76883668E-02  1.16145428E-16
 -2.15747701E-02  3.27764646E-02  2.15747701E-02 -3.27764646E-02 -1.04658507E-01
  2.69741130E-01  8.02782626E-03  4.68265016E-02  2.90041516E-17 -7.79593485E-02
  2.02708854E-01  5.40231441E-02 -3.98529868E-02 -1.96218288E-16  5.13541113E-02
  3.35186301E-02  4.17142698E-02  1.04658507E-01 -2.69741130E-01  8.02782626E-03
  4.68265016E-02 -1.60033958E-16  7.79593485E-02 -2.02708854E-01  5.40231441E-02
 -3.98529868E-02  1.73328466E-16 -5.13541113E-02 -3.35186301E-02 -4.17142698E-02
 -5.17172730E-03  1.76387810E-02  9.54908032E-02  5.74102594E-03 -2.46082762E-16
  4.09260547E-02 -1.05290353E-01  3.01744542E-02  2.17412622E-02 -1.03727014E-16
  3.23318731E-02 -8.32498795E-02 -4.89021938E-02  4.33550336E-03  9.98676182E-17
 -5.17172730E-03  1.76387810E-02 -9.54908032E-02 -5.74102594E-03 -4.23602521E-17
  4.09260547E-02 -1.05290353E-01 -3.01744542E-02 -2.17412622E-02  5.31797029E-17
  3.23318731E-02 -8.32498795E-02  4.89021938E-02 -4.33550336E-03 -7.42082257E-17
 -1.72623019E-02 -7.00695818E-03 -1.72623019E-02 -7.00695818E-03 -1.20898559E-01
  3.15052237E-01 -5.80818059E-02  6.60387178E-02 -9.37497487E-17 -1.22622980E-01
  3.25487146E-01  6.52390528E-02 -5.88229547E-02  2.07284990E-16  6.45776675E-02
  6.26239221E-02  6.81601005E-02 -1.20898559E-01  3.15052237E-01  5.80818059E-02
 -6.60387178E-02 -6.78643124E-16 -1.22622980E-01  3.25487146E-01 -6.52390528E-02
  5.88229547E-02 -1.04273315E-15  6.45776675E-02  6.26239221E-02  6.81601005E-02
 -2.30679590E-02  6.34789339E-02 -3.65451561E-02  1.40432856E-01 -7.00887398E-16
 -1.37259685E-01  3.67065183E-01 -4.58553441E-02 -2.14991144E-02  3.06087632E-16
 -1.15797230E-01  3.10769585E-01  7.11446760E-02  2.76138487E-02  2.74303331E-16
  2.30679590E-02 -6.34789339E-02 -3.65451561E-02  1.40432856E-01 -4.66384877E-16
  1.37259685E-01 -3.67065183E-01 -4.58553441E-02 -2.14991144E-02  1.10598631E-16
  1.15797230E-01 -3.10769585E-01  7.11446760E-02  2.76138487E-02 -1.01334193E-15
  8.54364853E-02  7.54167126E-02 -8.54364853E-02 -7.54167126E-02  2.15694173E-04
 -2.35308046E-03 -2.12961415E-02  2.27243090E-02 -2.70443696E-16 -1.57146765E-02
  4.15943264E-02  8.22784930E-03  4.61869412E-04  3.07392659E-16 -8.04124075E-03
  8.02071327E-03  1.42587053E-02 -2.15694173E-04  2.35308046E-03 -2.12961415E-02
  2.27243090E-02 -6.45183273E-16  1.57146765E-02 -4.15943264E-02  8.22784930E-03
  4.61869413E-04 -4.73133983E-16  8.04124075E-03 -8.02071327E-03 -1.42587053E-02
  9.61319974E-02 -2.66343473E-01  7.06783960E-02  3.32117952E-02 -3.28981853E-16
  3.20474703E-02 -8.65735926E-02 -9.06311979E-02  4.00855383E-02 -1.35499888E-16
 -7.71452379E-02  2.09646370E-01 -3.48099073E-02 -6.40608301E-02  3.15380236E-16
 -9.61319974E-02  2.66343473E-01  7.06783960E-02  3.32117952E-02 -3.18198616E-17
 -3.20474703E-02  8.65735926E-02 -9.06311979E-02  4.00855383E-02  6.33258761E-18
  7.71452379E-02 -2.09646370E-01 -3.48099073E-02 -6.40608301E-02 -1.42701065E-16
 -1.97842886E-02  4.56181211E-02  1.97842886E-02 -4.56181211E-02  6.73108160E-02
 -1.76475216E-01  1.15536157E-01 -5.28533196E-02 -2.65301161E-16  1.12593473E-01
 -3.06957556E-01 -3.43985760E-02  4.77663541E-02 -1.07885523E-16 -3.98386718E-02
 -7.09251572E-02 -6.60650838E-02 -6.73108160E-02  1.76475216E-01  1.15536157E-01
 -5.28533196E-02  1.78677070E-16 -1.12593473E-01  3.06957556E-01 -3.43985760E-02
  4.77663541E-02 -3.75827435E-16  3.98386718E-02  7.09251572E-02  6.60650838E-02
 -6.35992787E-02  1.90951311E-01  4.54714945E-02  1.78134197E-01 -4.64953876E-16
 -2.66583379E-02  7.71745003E-02  1.83272560E-01 -2.30196727E-02  7.43577990E-17
  9.82195971E-02 -2.82383901E-01  8.25792369E-03 -4.45254976E-02  2.30743245E-16
 -6.35992787E-02  1.90951311E-01 -4.54714945E-02 -1.78134197E-01  3.15451470E-16
 -2.66583379E-02  7.71745003E-02 -1.83272560E-01  2.30196727E-02  1.73485807E-17
  9.82195971E-02 -2.82383901E-01 -8.25792369E-03  4.45254976E-02 -2.96019642E-16
  4.21513277E-02 -1.16633540E-01  4.21513277E-02 -1.16633540E-01 -4.87167682E-02
  1.48664800E-01  1.01623156E-01 -8.22306922E-02  4.46817148E-16  6.36817865E-02
 -1.86476010E-01  1.72642641E-02 -3.53829060E-02  2.26172547E-18  7.36187936E-02
 -6.05660320E-02 -7.92505713E-02 -4.87167682E-02  1.48664800E-01 -1.01623156E-01
  8.22306922E-02 -3.06210256E-16  6.36817865E-02 -1.86476010E-01 -1.72642641E-02
  3.53829060E-02 -4.94252628E-16  7.36187936E-02 -6.05660320E-02 -7.92505713E-02
 -6.78865188E-02  2.05192879E-01  9.13014525E-02 -1.74146310E-01  2.84710645E-16
  1.10218120E-01 -3.22491734E-01  9.96409405E-03 -6.19035922E-02  2.12756195E-16
 -3.58968720E-02  1.05674759E-01 -1.79339675E-01 -1.19247991E-01  1.78413366E-16
 -6.78865188E-02  2.05192879E-01 -9.13014525E-02  1.74146310E-01 -7.90870860E-16
  1.10218120E-01 -3.22491734E-01 -9.96409405E-03  6.19035922E-02 -3.45764157E-16
 -3.58968720E-02  1.05674759E-01  1.79339675E-01  1.19247991E-01 -3.70260680E-16
 -1.34126259E-01  4.69758059E-02 -1.34126259E-01  4.69758059E-02 -1.38727388E-02
  4.49237016E-02  1.05628387E-01  1.49731147E-02 -1.02455156E-15  5.77009327E-02
 -1.73792719E-01  4.85698691E-02  8.56843575E-03 -2.87680401E-16 -7.89439428E-03
 -7.47390741E-02 -4.05904684E-02 -1.38727388E-02  4.49237016E-02 -1.05628387E-01
 -1.49731147E-02 -8.50456858E-17  5.77009327E-02 -1.73792719E-01 -4.85698691E-02
 -8.56843575E-03  9.86626849E-17 -7.89439428E-03 -7.47390741E-02 -4.05904684E-02
 -6.05712414E-03  1.34566347E-02 -1.42258826E-01 -6.07298656E-02  3.13773543E-16
 -4.52952501E-02  1.38307675E-01 -9.24388397E-03 -1.36462230E-02  3.07644288E-16
  2.43812818E-02 -7.44908407E-02  7.57579995E-02  3.91259843E-02  7.06423897E-17
  6.05712414E-03 -1.34566347E-02 -1.42258826E-01 -6.07298656E-02 -1.34177801E-16
  4.52952501E-02 -1.38307675E-01 -9.24388397E-03 -1.36462230E-02 -1.27128473E-16
 -2.43812818E-02  7.44908407E-02  7.57579995E-02  3.91259843E-02 -5.35425423E-16
  3.53966249E-02 -4.88775153E-02 -3.53966249E-02  4.88775153E-02 -1.01096207E-01
  3.13970683E-01  5.17905882E-02 -1.18378866E-01 -4.52677365E-16  8.48877145E-02
 -2.67535977E-01  8.10472291E-02 -1.30768246E-01  1.48432227E-16  1.61728777E-01
 -1.14938104E-01 -1.54162439E-01  1.01096207E-01 -3.13970683E-01  5.17905882E-02
 -1.18378866E-01  7.81984864E-16 -8.48877145E-02  2.67535977E-01  8.10472291E-02
 -1.30768246E-01  1.08010937E-15 -1.61728777E-01  1.14938104E-01  1.54162439E-01
 -4.46966902E-02  1.32013869E-01 -1.64269936E-01  2.87350285E-03  2.73077381E-16
  1.83513512E-02 -6.43861763E-02  8.23207162E-02 -1.89158091E-01  7.00472709E-16
  5.19416045E-02 -1.68776438E-01  4.14010210E-02 -1.97899261E-01  6.33459489E-16
 -4.46966902E-02  1.32013869E-01  1.64269936E-01 -2.87350285E-03  1.29347525E-16
  1.83513512E-02 -6.43861763E-02 -8.23207162E-02  1.89158091E-01  1.84679359E-17
  5.19416045E-02 -1.68776438E-01 -4.14010210E-02  1.97899261E-01  3.67922687E-16
 -1.06322859E-01 -1.50935403E-01 -1.06322859E-01 -1.50935403E-01  6.00090061E-02
 -1.85956612E-01 -2.91528899E-02  6.63239991E-02 -2.03391616E-16 -5.89731273E-02
  1.88444523E-01 -7.69830360E-02  7.10760791E-02 -2.24178858E-16 -1.01533492E-01
  9.47910572E-02  8.39779940E-02  6.00090061E-02 -1.85956612E-01  2.91528899E-02
 -6.63239991E-02  3.28616134E-16 -5.89731273E-02  1.88444523E-01  7.69830360E-02
 -7.10760791E-02  1.27717986E-15 -1.01533492E-01  9.47910572E-02  8.39779940E-02
  3.45487998E-02 -1.16745794E-01 -1.17335231E-01 -6.61508288E-02  1.34105607E-16
  1.65637900E-02 -6.30870528E-02 -1.49368964E-01 -1.25699167E-01  6.48549625E-16
 -1.79421472E-02  4.85492295E-02  1.47034456E-01 -7.79817469E-02  7.46945215E-16
  3.45487998E-02 -1.16745794E-01  1.17335231E-01  6.61508288E-02  3.43609869E-16
  1.65637900E-02 -6.30870528E-02  1.49368964E-01  1.25699167E-01 -2.59011864E-16
 -1.79421472E-02  4.85492295E-02 -1.47034456E-01  7.79817469E-02 -1.06493302E-15
 -1.17768635E-01 -9.05737682E-02 -1.17768635E-01 -9.05737682E-02 -5.26944313E-02
  1.66806216E-01 -1.76671995E-01 -9.97972144E-02  1.09566146E-15  2.31283742E-02
 -8.57663483E-02  1.78643823E-03 -2.23417253E-01  1.57402583E-15  1.42382914E-01
 -7.27083162E-03 -1.74999438E-01 -5.26944313E-02  1.66806216E-01  1.76671995E-01
  9.97972144E-02 -2.45419762E-16  2.31283742E-02 -8.57663483E-02 -1.78643823E-03
  2.23417253E-01 -1.26360565E-15  1.42382914E-01 -7.27083162E-03 -1.74999438E-01
  7.46710014E-03 -2.83956380E-02 -1.42688861E-01  1.96740094E-01 -7.38351271E-16
 -8.99221489E-03  2.95069079E-02  2.31716479E-01 -4.57162870E-02 -3.50838038E-17
  3.04154851E-02 -9.96688128E-02 -1.63523559E-01 -1.22048633E-01  6.84429378E-17
 -7.46710014E-03  2.83956380E-02 -1.42688861E-01  1.96740094E-01 -1.38383513E-15
  8.99221489E-03 -2.95069079E-02  2.31716479E-01 -4.57162870E-02 -2.52422814E-16
 -3.04154851E-02  9.96688128E-02 -1.63523559E-01 -1.22048633E-01 -2.43519938E-16
  3.52401294E-02 -2.36089276E-02 -3.52401294E-02  2.36089276E-02 -1.37804597E-02
  3.93442094E-02  7.29632171E-02  1.97488744E-01 -1.52288883E-15  1.96568932E-02
 -7.35398199E-02  2.09383458E-01  3.36872506E-02 -5.80344439E-16 -1.19191234E-01
 -1.55127217E-01  2.39731121E-02  1.37804597E-02 -3.93442094E-02  7.29632171E-02
  1.97488744E-01 -2.25312111E-16 -1.96568932E-02  7.35398199E-02  2.09383458E-01
  3.36872506E-02 -1.70435880E-16  1.19191234E-01  1.55127217E-01 -2.39731121E-02
  4.69292547E-02 -1.60407159E-01  1.45471717E-01  1.59110826E-01  6.73711146E-15
 -2.56047550E-02  9.06102902E-02  6.42876266E-02  8.11493111E-02  5.66333260E-15
  1.35306355E-02 -5.46246404E-02  8.76138255E-02 -2.93138442E-01  6.60085909E-15
 -4.69292547E-02  1.60407159E-01  1.45471717E-01  1.59110826E-01  6.61765599E-15
  2.56047550E-02 -9.06102902E-02  6.42876266E-02  8.11493111E-02  4.65172467E-15
 -1.35306355E-02  5.46246404E-02  8.76138255E-02 -2.93138442E-01  4.87646588E-15
  1.08131990E-01 -2.44952624E-01 -1.08131990E-01  2.44952624E-01  6.75888676E-03
 -2.48314836E-02 -1.09722656E-01  5.98938055E-03  3.04003109E-15 -9.42991054E-03
  2.68356067E-02 -1.03659851E-01 -1.63781399E-01  2.10863978E-15 -7.38795595E-03
  1.01158265E-01 -1.42055032E-01 -6.75888676E-03  2.48314836E-02 -1.09722656E-01
  5.98938055E-03  3.26786443E-15  9.42991054E-03 -2.68356067E-02 -1.03659851E-01
 -1.63781399E-01  2.69635017E-15  7.38795595E-03 -1.01158265E-01  1.42055032E-01
 -5.34182685E-02  1.89326737E-01  6.14797186E-02  1.69785958E-01 -1.01462206E-14
  4.84928958E-02 -1.69976848E-01  5.42675762E-02 -2.35059007E-01 -6.70831236E-15
 -5.61486511E-02  1.93197717E-01 -1.40328123E-01 -2.13865932E-02 -6.85254139E-15
  5.34182685E-02 -1.89326737E-01  6.14797186E-02  1.69785958E-01 -9.60794158E-15
 -4.84928958E-02  1.69976848E-01  5.42675762E-02 -2.35059007E-01 -6.93846744E-15
  5.61486511E-02 -1.93197717E-01 -1.40328123E-01 -2.13865932E-02 -9.07986380E-15
 -2.24516731E-01  1.27402594E-01  2.24516731E-01 -1.27402594E-01 -6.40602350E-03
  1.27418649E-02 -1.91539122E-01 -3.66336131E-02 -3.33155183E-15  1.08657627E-02
 -4.68206504E-02 -5.38482383E-03 -1.83595375E-01 -2.08336870E-15  7.15963950E-02
  1.02126159E-02 -1.28371036E-01  6.40602350E-03 -1.27418649E-02 -1.91539122E-01
 -3.66336131E-02 -4.49437466E-15 -1.08657627E-02  4.68206504E-02 -5.38482384E-03
 -1.83595375E-01 -1.94132622E-15 -7.15963950E-02 -1.02126159E-02  1.28371036E-01
 -1.51283248E-02  5.13604971E-02  4.30471568E-03  6.11131032E-03 -5.70464755E-15
  2.45149044E-02 -8.30474115E-02  5.34782817E-02  1.51912010E-03 -4.38215101E-15
 -2.15608572E-02  7.89791149E-02 -1.12153053E-01  2.51785441E-02 -4.27007550E-15
 -1.51283248E-02  5.13604971E-02 -4.30471568E-03 -6.11131032E-03 -4.99617360E-15
  2.45149044E-02 -8.30474115E-02 -5.34782817E-02 -1.51912010E-03 -3.70653879E-15
 -2.15608572E-02  7.89791149E-02  1.12153053E-01 -2.51785441E-02 -4.42838820E-15
 -1.68658026E-02  9.40142144E-02 -1.68658026E-02  9.40142144E-02  1.71782825E-02
 -4.10536201E-02  5.44405355E-02 -2.93078870E-01 -2.11259692E-15 -8.29851895E-04
  2.15569871E-02 -3.40834574E-01  5.17999830E-02 -1.78670919E-15  1.76096251E-01
  2.32092308E-01  3.87982169E-03  1.71782825E-02 -4.10536201E-02 -5.44405355E-02
  2.93078870E-01 -2.70758337E-15 -8.29851895E-04  2.15569871E-02  3.40834574E-01
 -5.17999830E-02 -2.85831224E-16  1.76096251E-01  2.32092308E-01  3.87982169E-03
 -1.16734636E-03  7.01141347E-03  1.48574242E-01 -6.82120063E-02  1.48946175E-14
  2.59959686E-02 -8.03997909E-02  1.01687838E-01  3.13993974E-01  1.06713406E-14
  6.04854160E-03 -1.48614660E-02 -1.95506559E-01  1.63581352E-01  1.05886670E-14
  1.16734636E-03 -7.01141347E-03  1.48574242E-01 -6.82120063E-02  1.36286576E-14
 -2.59959686E-02  8.03997909E-02  1.01687838E-01  3.13993974E-01  9.83045236E-15
 -6.04854160E-03  1.48614660E-02 -1.95506559E-01  1.63581352E-01  1.09944356E-14
  2.17863563E-01  1.83261217E-01 -2.17863563E-01 -1.83261217E-01 -4.44337534E-03
  5.70206614E-03 -1.48819591E-01  4.43330076E-02  5.28168850E-15  4.73644208E-03
 -2.73984475E-02  5.85111416E-02 -1.55637851E-01  4.07621356E-15 -1.38186232E-02
 -3.02056865E-02 -9.46160490E-02  4.44337534E-03 -5.70206614E-03 -1.48819591E-01
  4.43330076E-02  6.64281644E-15 -4.73644208E-03  2.73984475E-02  5.85111416E-02
 -1.55637851E-01  4.46031478E-15  1.38186232E-02  3.02056865E-02  9.46160490E-02
  6.80679259E-03 -2.62311641E-02 -1.19000418E-01  1.24134050E-01  1.65691074E-14
 -1.01967238E-02  3.92069467E-02  2.30353704E-01  2.55129431E-02  1.39180166E-14
  1.16329893E-02 -3.63217683E-02 -2.19563637E-01 -3.60666235E-02  1.43074829E-14
 -6.80679259E-03  2.62311641E-02 -1.19000418E-01  1.24134050E-01  1.65851550E-14
  1.01967238E-02 -3.92069467E-02  2.30353704E-01  2.55129431E-02  1.29119083E-14
 -1.16329893E-02  3.63217683E-02 -2.19563637E-01 -3.60666235E-02  1.32977251E-14
  8.63540079E-02  7.63055915E-02 -8.63540079E-02 -7.63055915E-02 -1.06871244E-03
  2.36845391E-02  1.34027185E-01 -2.51115341E-01  5.36481048E-15  1.44364373E-02
 -3.27267383E-02 -2.47144624E-01  1.30716160E-01  1.68728518E-15  1.72498400E-01
  1.48713630E-01  5.83376667E-02  1.06871244E-03 -2.36845391E-02  1.34027185E-01
 -2.51115341E-01  5.94039691E-15 -1.44364373E-02  3.27267383E-02 -2.47144624E-01
  1.30716160E-01  2.36277065E-15 -1.72498400E-01 -1.48713630E-01 -5.83376667E-02
 -2.71210894E-15  9.89279884E-15  1.17906460E-14 -1.46408803E-14  3.60224188E-01
  1.60253013E-15 -5.87392223E-15 -2.39766736E-14 -6.97833033E-15  2.88012452E-01
 -3.05765438E-15  9.64508215E-15  2.15657444E-14 -1.33173911E-14  2.93481307E-01
  2.57999338E-15 -8.74901581E-15 -9.22411224E-15  1.39212056E-14  3.60224188E-01
 -7.63422978E-16  3.56265938E-15 -3.33587833E-15 -3.30693705E-14  2.88012452E-01
  2.08375269E-15 -7.39671682E-15  4.09057010E-15  1.13344470E-14  2.93481307E-01
 -1.10506682E-14 -1.69509650E-14  2.83204785E-14 -1.19542873E-14 -5.73726861E-16
  2.20616568E-15  4.35495371E-15  1.26139595E-15  1.46238287E-01 -4.51686665E-17
  7.21592040E-17  3.95728880E-15  7.75194041E-15  8.39251978E-02  2.21701411E-15
 -4.27422728E-15  5.34282095E-15 -3.55542916E-16  2.67886844E-15 -1.42308713E-14
  1.42562977E-14  1.46238287E-01  6.72945478E-16 -1.20916107E-15  2.15809703E-14
 -7.23328519E-15  8.39251978E-02  8.35315366E-15  1.58769786E-14 -1.02598298E-16
 -2.45105734E-02  8.78402475E-02 -1.07598051E-02 -1.01859579E-01  1.35026169E-15
 -5.32793406E-03  2.91275057E-02  1.49459318E-01  1.57091618E-01  1.52128139E-15
  2.73471457E-03 -7.68042759E-03 -1.62457357E-01 -7.56533869E-02  2.39376894E-15
 -2.45105734E-02  8.78402475E-02  1.07598051E-02  1.01859579E-01  1.18191092E-15
 -5.32793406E-03  2.91275057E-02 -1.49459318E-01 -1.57091618E-01  1.04757635E-15
  2.73471457E-03 -7.68042759E-03  1.62457357E-01  7.56533869E-02 -9.75460951E-16
  1.67684671E-01 -1.26762239E-03  1.67684671E-01 -1.26762239E-03  2.44929625E-02
 -9.88077396E-02 -1.00023248E-01  1.66188066E-01 -8.06614818E-17 -8.85819400E-03
  2.11130972E-02 -1.09302752E-01 -2.90287478E-01 -4.41534555E-17 -1.59984365E-01
  1.46188286E-01 -2.47305036E-01  2.44929625E-02 -9.88077396E-02  1.00023248E-01
 -1.66188066E-01  1.04697668E-16 -8.85819400E-03  2.11130972E-02  1.09302752E-01
  2.90287478E-01 -9.46278983E-16 -1.59984365E-01  1.46188286E-01 -2.47305036E-01
  1.57988467E-02 -6.91917953E-02 -2.51973685E-01 -7.46071625E-02  1.60666615E-15
 -7.28801927E-03  2.35311053E-02 -1.15446277E-02 -5.53726668E-02  4.47882773E-15
  1.10418322E-02 -3.70801298E-02 -3.52366376E-02  1.25682573E-01  6.29030132E-15
 -1.57988467E-02  6.91917953E-02 -2.51973685E-01 -7.46071625E-02  6.20325518E-15
  7.28801927E-03 -2.35311053E-02 -1.15446277E-02 -5.53726668E-02  3.55041168E-15
 -1.10418322E-02  3.70801298E-02 -3.52366376E-02  1.25682573E-01 -6.16474174E-16
 -2.50694368E-02  4.91000510E-02  2.50694368E-02 -4.91000510E-02  4.49736461E-03
 -1.62902876E-02  1.72287082E-01  1.94499754E-01  1.73756122E-15 -2.31318321E-03
  9.19274369E-03 -1.99196813E-01 -2.02077939E-01  5.47411412E-16 -2.33257177E-01
  2.24997664E-01 -2.30927792E-01 -4.49736461E-03  1.62902876E-02  1.72287082E-01
  1.94499754E-01 -2.60474417E-15  2.31318321E-03 -9.19274369E-03 -1.99196813E-01
 -2.02077939E-01 -2.64175716E-15  2.33257177E-01 -2.24997664E-01  2.30927792E-01
  1.53112096E-03  5.59924160E-04  1.72561179E-01 -2.59565122E-01 -2.03593683E-14
  8.73856152E-05  7.57847813E-03 -1.89582233E-01  2.33720811E-01 -1.68734737E-14
 -2.04655225E-03 -5.08556920E-03  1.69379584E-01 -2.28176921E-01 -1.59202712E-14
  1.53112096E-03  5.59924161E-04 -1.72561179E-01  2.59565122E-01 -2.04818039E-14
  8.73856152E-05  7.57847813E-03  1.89582233E-01 -2.33720811E-01 -1.58499568E-14
 -2.04655225E-03 -5.08556920E-03 -1.69379584E-01  2.28176921E-01 -1.79937028E-14
  1.65324108E-01 -2.86183510E-01  1.65324108E-01 -2.86183510E-01 -9.72593068E-03
  4.68372863E-02  1.40498777E-01 -3.94088123E-02 -6.61429831E-15  3.95699104E-03
 -6.44005272E-03 -7.82313249E-02  1.06258820E-01 -3.95171404E-15  3.72792310E-02
  4.79238671E-02  3.20791517E-02 -9.72593068E-03  4.68372863E-02 -1.40498777E-01
  3.94088123E-02 -9.46275966E-15  3.95699104E-03 -6.44005272E-03  7.82313249E-02
 -1.06258820E-01 -5.55285053E-15  3.72792310E-02  4.79238671E-02  3.20791517E-02
 -1.39783631E-02  6.90383460E-02  2.37280802E-01  1.61205370E-01 -3.15449582E-15
 -2.68715653E-03  3.36739762E-03 -1.87189759E-01 -1.15250475E-01  6.73526876E-16
 -2.21597205E-03  9.12903330E-03  1.82961569E-01  1.79312749E-01  2.22928920E-15
 -1.39783631E-02  6.90383460E-02 -2.37280802E-01 -1.61205370E-01  2.54942952E-15
 -2.68715653E-03  3.36739762E-03  1.87189759E-01  1.15250475E-01 -6.78671818E-16
 -2.21597205E-03  9.12903330E-03 -1.82961569E-01 -1.79312749E-01 -3.83948526E-15
 -1.88133453E-01 -1.40005661E-02 -1.88133453E-01 -1.40005661E-02 -1.37619511E-02
  5.71370885E-02  2.35520592E-01  1.46553672E-01  2.29992084E-15 -4.00491763E-04
  5.90377926E-03 -1.47279616E-01 -8.94634332E-02  2.27766511E-15 -1.89352605E-01
  1.64227301E-01 -1.42239868E-01 -1.37619511E-02  5.71370885E-02 -2.35520592E-01
 -1.46553672E-01 -1.71123644E-15 -4.00491763E-04  5.90377926E-03  1.47279616E-01
  8.94634332E-02  1.19871536E-16 -1.89352605E-01  1.64227301E-01 -1.42239868E-01
 -2.73829539E-16  7.32213043E-16 -3.51528276E-16 -7.17658850E-16 -3.84341599E-01
  1.22219085E-16 -6.80558836E-16  2.74893414E-15  1.12811251E-15 -1.35223769E-01
  1.63550012E-17  4.50121122E-16 -2.05090845E-15 -9.23771076E-16  1.53895434E-01
  2.07217602E-16 -9.92859089E-16  3.75686394E-15  1.54263638E-15  3.84341599E-01
  4.89527144E-17 -4.02429962E-16 -1.59126428E-15  1.62252808E-15  1.35223769E-01
 -9.47331162E-17  1.43041297E-16  1.35156359E-15 -6.96973501E-16 -1.53895434E-01
  1.25079554E-15  1.68556801E-16  1.01614990E-16  1.71936686E-15 -2.74174617E-17
  2.61323815E-16 -2.37230706E-15 -8.59881653E-16  3.36531748E-01  1.78726593E-16
 -9.10472399E-16  1.97871958E-15  2.75531559E-15  2.65628779E-01  2.63068750E-15
 -3.00876841E-15  3.22270182E-15  5.41747043E-16 -1.78777245E-15  7.65010238E-16
 -1.04026953E-15 -3.36531748E-01 -1.72884386E-16  8.35879709E-16  1.03640710E-15
  2.28727433E-16 -2.65628779E-01 -6.11796126E-16 -3.27968386E-16 -4.72453777E-17
 -5.36344614E-17  6.20393597E-16  1.78702942E-15  9.80216882E-16  2.69948904E-02
  1.43515192E-16 -6.05201987E-16 -1.31189333E-15  8.53537496E-16  1.54205601E-01
 -1.05531305E-16  3.11886586E-16  1.68457592E-15  8.30198235E-16  1.50638664E-01
  1.37934372E-17 -5.10261313E-16  6.82371032E-16  4.87144493E-16  2.69948904E-02
 -2.48799184E-16  1.07054007E-15  1.06836924E-16  1.95122698E-15  1.54205601E-01
  1.70788824E-16 -3.75009460E-16 -1.93502436E-16  1.58219320E-16  1.50638664E-01
 -6.31741814E-16 -1.38943927E-15 -4.99923102E-16  1.00762013E-15 -2.50602063E-17
  4.42442016E-17 -1.21838203E-15 -1.70743539E-15 -4.00288796E-01 -4.26409556E-17
  4.83246170E-16  1.69340771E-15  2.52699645E-16 -4.46860952E-01  1.22954961E-16
 -1.11816463E-15 -1.92328861E-16  1.31949330E-16 -4.46074486E-16 -1.86248852E-15
 -1.11087072E-15 -4.00288796E-01 -8.40351597E-17  8.05353839E-16  2.31786255E-15
 -7.37043670E-16 -4.46860952E-01 -9.04328332E-16  6.26913680E-16 -7.42099851E-16
 -4.95537344E-17  1.49277338E-16  2.72178185E-16 -9.61043097E-16  1.51858270E-02
  1.76318269E-16 -5.14433012E-16  8.29506814E-16  1.05222010E-15  4.63004648E-01
 -1.19214233E-16  1.16718384E-15 -3.30161542E-16  2.12959578E-16  4.57512973E-01
  3.00151068E-16 -1.61919874E-15  1.58634232E-15 -6.95422559E-16 -1.51858270E-02
 -1.70071026E-16  6.32742754E-16 -1.36205666E-15 -5.05977749E-16 -4.63004648E-01
  3.57755214E-17 -4.10001416E-16  4.70891818E-16 -6.64402976E-16 -4.57512973E-01
  5.50625459E-16 -5.39850208E-16  1.20535570E-16  9.93662522E-16  1.67502458E-16
 -4.68374813E-16 -1.17660206E-15 -6.71372321E-16 -7.81080283E-03 -4.02287994E-17
 -1.33152040E-16  1.42502105E-15  2.36710782E-15  3.85954806E-03  2.08454098E-15
 -2.10034664E-15  3.15096187E-15  1.29583066E-16 -6.46772632E-16  3.39661685E-16
 -1.07440081E-16  7.81080283E-03 -9.67673685E-18  5.22286408E-17  7.93109037E-16
  8.44436516E-17 -3.85954806E-03  9.91390966E-16 -1.77622705E-16 -3.90637678E-18
  2.48022619E-16 -1.36428111E-15  1.12496951E-16 -1.57632738E-15 -3.74931504E-01
 -1.07896362E-16  8.44563005E-16 -3.52812856E-16 -2.20299064E-16 -1.91038695E-01
  1.28831812E-16 -6.87576388E-16  3.01941110E-16 -1.97811207E-16  2.05809296E-01
  1.71277880E-16  7.76047769E-17  6.76348602E-20  6.94992756E-16  3.74931504E-01
 -8.60939620E-17  3.46940490E-16  4.02106604E-16 -3.09456407E-16  1.91038695E-01
  2.03145011E-17  2.91590831E-16  1.56522280E-16  1.53338087E-16 -2.05809296E-01
  3.78223397E-16  9.90952320E-17 -2.30161703E-16 -1.11626054E-15  1.24101460E-16
 -5.49796818E-16 -4.13336166E-16 -8.23985079E-16 -2.46599294E-01 -1.41642224E-16
  4.51937271E-16  1.18749957E-15 -5.09023831E-16 -4.14999537E-01  4.88479815E-16
 -4.89923099E-16  3.30250700E-16 -3.02321699E-16  8.89833090E-16 -2.28178659E-16
  5.80028225E-16  2.46599294E-01  1.04021866E-16 -6.93123893E-16 -1.15520104E-15
  7.09083046E-16  4.14999537E-01  4.91211515E-16  5.20018967E-16 -7.39123049E-17
  2.03550557E-16 -5.61404935E-16 -1.13973959E-16 -1.10124598E-15 -4.67279233E-01
 -9.42741129E-17  2.59743725E-16 -3.58018101E-16  1.25441568E-16  2.48888440E-01
  8.82981532E-17 -7.41998726E-16 -3.77009207E-16  4.91219180E-16  3.13854408E-01
 -1.57872362E-16  5.60263254E-16 -1.10066870E-16 -9.55214952E-16 -4.67279233E-01
  3.88169165E-18 -9.14545015E-17 -1.11179394E-16  7.53888141E-18  2.48888440E-01
 -1.32700706E-16  4.34697022E-16  8.32205990E-17  4.83247346E-16  3.13854408E-01
  7.84061768E-16  2.76249585E-16  1.47738142E-16 -4.91527585E-16  2.97061501E-17
 -3.92207004E-16 -1.85704917E-16 -4.41268462E-16 -2.53743628E-01  8.13454267E-17
 -1.95721904E-16  2.12809513E-16  5.61469763E-16  4.05361595E-01  2.53528276E-16
  2.83404539E-17  1.48376063E-16 -1.01377271E-16  2.23668985E-16 -1.95732836E-16
 -7.15283470E-16 -2.53743628E-01  7.80371366E-17 -6.56572000E-16 -1.12361154E-15
  6.12839972E-16  4.05361595E-01  5.68794363E-16  8.96007696E-16 -9.97714274E-17
 -2.82712694E-17  1.70241201E-16  6.00968877E-16 -8.50957538E-16 -3.47375697E-02
  4.31092578E-17  1.19596936E-16  6.26535135E-16  1.03757695E-15  5.89793648E-01
 -2.56158500E-18  3.09931384E-16  6.61208341E-17 -1.07808538E-15 -5.48101007E-01
  1.98380982E-17 -1.60576116E-16  2.72716884E-16 -4.60952610E-16 -3.47375697E-02
 -3.82406165E-17  1.18773593E-16  8.50737747E-17  1.56807309E-15  5.89793648E-01
  9.13795299E-17 -6.86940955E-16 -8.20555982E-17 -1.15879251E-15 -5.48101007E-01
  1.12845948E-16 -1.38034775E-16  5.62667222E-17  4.22927869E-16  1.10999957E-16
 -2.07387688E-16 -2.34537429E-16  6.68208118E-16 -1.65237747E-03  1.36598085E-16
 -1.07028927E-15 -1.00216902E-17  1.64567024E-16  1.99276622E-02  1.01024092E-15
 -4.68241171E-17  1.55642794E-15  1.50767854E-16 -8.82130096E-16  3.14697527E-16
 -7.02559851E-16 -1.65237747E-03  7.78962058E-18 -8.46559266E-17  1.07475055E-16
  3.89812759E-17  1.99276622E-02  1.04415173E-15 -1.36840969E-16 -3.33147069E-17
  2.39640836E-16 -1.22968309E-15 -4.89574654E-16 -4.35333481E-16 -2.25656656E-02
 -7.15459219E-17  4.89926684E-16  6.15359128E-17 -2.37517350E-16  2.22160921E-01
  1.23766165E-16 -7.02334304E-16 -1.27543661E-16 -4.81040104E-16 -2.11817866E-01
 -6.09008905E-17 -2.40920544E-18  7.30831739E-16 -1.26269540E-16  2.25656656E-02
  1.81562588E-17 -2.64533875E-16  3.80335859E-16 -9.01674562E-16 -2.22160921E-01
 -6.02046391E-17  3.27345750E-16  3.65844324E-16  2.57030339E-16  2.11817866E-01
  2.98858459E-16  6.55084619E-16 -2.66828252E-16 -6.00224803E-16 -9.41243732E-17
  6.14040845E-16  1.28326231E-16  1.07626528E-15  5.49417015E-01  8.87556593E-17
 -1.50489598E-16 -2.27479149E-16 -1.12602640E-15 -5.17569463E-01 -1.65177509E-16
 -3.43584361E-16 -4.76691909E-19 -1.52932672E-16  1.06976634E-15 -2.26840533E-16
 -1.34572132E-15 -5.49417015E-01  1.66444429E-16 -1.20181559E-15 -1.01152647E-15
  5.30365702E-16  5.17569463E-01  4.96722282E-16  1.42002490E-15 -1.23895010E-16
  3.32580741E-16 -6.29861319E-16 -2.97064279E-16  1.08541284E-15  4.58400037E-01
  1.42416948E-16 -6.31694425E-16 -3.19856237E-16 -1.17920289E-15 -1.68907770E-01
 -3.64111978E-17  1.21764001E-16  1.36101927E-16 -6.72522223E-16 -1.93322587E-01
 -2.58702290E-16  2.76844138E-16 -2.27343856E-16  4.41796805E-16  4.58400037E-01
 -6.94223050E-17 -8.03895248E-17 -5.18764492E-16 -1.43745473E-15 -1.68907770E-01
 -2.74776092E-18  8.80727564E-16  1.50767547E-16 -3.13073502E-16 -1.93322587E-01
  1.00733726E-15  7.89645504E-18 -2.05051469E-16 -6.37022892E-16  4.36449987E-17
 -2.95468644E-16 -1.81052460E-16 -1.67418088E-15 -5.48148601E-01  4.39013724E-17
  1.60663629E-16  4.64769150E-16  5.68167693E-16  4.00326358E-01 -3.89661579E-16
  2.38233135E-17  1.44717994E-16 -8.48520166E-17  4.76376783E-17 -3.73493949E-16
 -1.18992722E-15 -5.48148601E-01  1.41566271E-16 -7.13485506E-16 -1.24209856E-15
  4.80132435E-16  4.00326358E-01  5.81768025E-16  1.36786392E-15 -1.84008448E-16
 -2.76565399E-15  1.66478080E-14  9.50392336E-15  6.75317285E-15  5.30987121E-01
 -4.31297241E-15  2.60797658E-14 -9.16866783E-15  1.76433642E-14 -4.86879935E-01
 -7.66856859E-17  3.76430978E-16 -1.45476492E-14  1.59699499E-14  4.85159833E-01
 -1.27520069E-14  7.42446421E-14 -5.28669665E-14 -1.43298956E-14 -5.30987121E-01
  5.54481520E-17  4.93611636E-16 -6.77653552E-15 -3.14363379E-14  4.86879935E-01
 -6.06075281E-15  3.64830261E-14  2.80582307E-15 -1.86290519E-14 -4.85159833E-01
 -3.16938169E-14 -2.88540686E-14 -3.77454923E-14 -3.86042314E-14  9.87164403E-15
 -5.52063445E-14 -6.35974510E-14 -3.31816967E-14  2.65776428E-01 -4.67579701E-15
  2.70465231E-14 -1.95478677E-14 -2.19260605E-14 -1.45008510E-01 -1.45597620E-14
 -5.00652332E-14  2.41432242E-14  1.16434350E-15 -5.48914509E-15  1.66467060E-14
  1.46130643E-14 -2.65776428E-01 -2.45821681E-15  1.43836635E-14  5.36677048E-15
 -1.40193268E-15  1.45008510E-01 -1.21746013E-14 -1.70359606E-14 -1.11792286E-16
  7.96767727E-02 -4.62729616E-01 -3.58251807E-01 -9.50352713E-02  5.08541141E-14
  2.58492740E-02 -1.57235750E-01 -9.00726210E-03 -2.52937799E-01 -4.60941862E-14
  3.57140144E-02 -2.15440044E-01  8.71157814E-02 -1.78748259E-01  4.66774514E-14
  7.96767727E-02 -4.62729616E-01  3.58251807E-01  9.50352713E-02 -5.07569290E-14
  2.58492740E-02 -1.57235750E-01  9.00726210E-03  2.52937799E-01  4.59318038E-14
  3.57140144E-02 -2.15440044E-01 -8.71157814E-02  1.78748259E-01 -4.67246508E-14
  3.73235634E-01  3.72754681E-01  3.73235634E-01  3.72754681E-01 -6.77747342E-02
  3.79260259E-01  4.20028850E-01  1.94483786E-01  2.44289078E-14  3.41930608E-02
 -1.93735540E-01  1.19724477E-01  1.09433170E-01 -1.39303564E-14  5.64045076E-02
  3.22796976E-01 -1.27929452E-01 -6.77747342E-02  3.79260259E-01 -4.20028850E-01
 -1.94483786E-01 -2.44019400E-14  3.41930608E-02 -1.93735540E-01 -1.19724477E-01
 -1.09433170E-01  1.25882638E-14  5.64045076E-02  3.22796976E-01 -1.27929452E-01
 -6.87273899E-02  3.91378756E-01  3.71705000E-01  2.14110140E-01  2.44751859E-14
  2.29573536E-02 -1.30585139E-01  1.23341346E-01  2.51673230E-01 -2.31358193E-14
 -3.26335247E-02  1.89233595E-01  1.13192938E-01  1.66474471E-01  2.20797388E-14
  6.87273899E-02 -3.91378756E-01  3.71705000E-01  2.14110140E-01 -2.48459363E-14
 -2.29573536E-02  1.30585139E-01  1.23341346E-01  2.51673230E-01  2.19764284E-14
  3.26335247E-02 -1.89233595E-01  1.13192938E-01  1.66474471E-01 -2.28699785E-14
 -2.28565302E-01 -1.21842967E-01  2.28565302E-01  1.21842967E-01 -5.06133097E-02
  2.85343644E-01  4.19063328E-01  2.47030187E-01  1.15060072E-14  3.84526779E-03
 -1.78641619E-02  1.64602965E-01  2.90425751E-01 -7.25762388E-15  2.03331066E-01
  2.98460271E-01 -3.44419235E-01  5.06133097E-02 -2.85343644E-01  4.19063328E-01
  2.47030187E-01 -1.37859829E-14 -3.84526779E-03  1.78641619E-02  1.64602965E-01
  2.90425751E-01  7.92445623E-15 -2.03331066E-01 -2.98460271E-01  3.44419235E-01
 -2.68635396E-02  1.46428675E-01  3.70903632E-01 -1.62076325E-01  8.27873419E-15
  1.03883049E-02 -6.20758102E-02  2.20072286E-01 -2.27019262E-01 -7.14848346E-15
  1.38980480E-02 -8.57570472E-02  3.16519724E-01 -3.10479124E-01  8.18355757E-15
  2.68635396E-02 -1.46428675E-01  3.70903632E-01 -1.62076325E-01 -7.72723894E-15
 -1.03883049E-02  6.20758102E-02  2.20072286E-01 -2.27019262E-01  7.58065686E-15
 -1.38980480E-02  8.57570472E-02  3.16519724E-01 -3.10479124E-01 -6.20089416E-15
  1.69680643E-01  4.99402024E-01 -1.69680643E-01 -4.99402024E-01 -9.13751889E-02
  5.30364272E-01  2.06953616E-01 -9.90071420E-02  3.91140127E-15  4.87260425E-02
 -2.83531995E-01 -3.12519277E-02 -1.20419488E-01 -1.90860594E-15 -3.67656732E-01
  1.24467276E-01  2.16438836E-01  9.13751889E-02 -5.30364272E-01  2.06953616E-01
 -9.90071420E-02 -3.23746772E-15 -4.87260425E-02  2.83531995E-01 -3.12519277E-02
 -1.20419488E-01  1.94061633E-15  3.67656732E-01 -1.24467276E-01 -2.16438836E-01
  4.54514668E-02 -2.78141747E-01  2.75804116E-03 -9.55388371E-03  3.39878318E-15
 -4.04125753E-02  2.51597258E-01  1.76108458E-01 -1.00002503E-02 -3.11331112E-15
 -5.75434362E-02  3.56150436E-01 -2.30492711E-01  1.37916486E-01  2.72880827E-15
  4.54514668E-02 -2.78141747E-01 -2.75804116E-03  9.55388371E-03 -3.22651038E-15
 -4.04125753E-02  2.51597258E-01 -1.76108458E-01  1.00002503E-02  3.06861353E-15
 -5.75434362E-02  3.56150436E-01  2.30492711E-01 -1.37916486E-01 -2.68526203E-15
 -2.13935255E-01 -3.78490274E-01 -2.13935255E-01 -3.78490274E-01  4.56409369E-02
 -2.76098661E-01  1.54244579E-01  2.28669252E-01  9.46389794E-16 -4.93567716E-02
  2.97338824E-01  2.40353791E-01  3.37287046E-01 -1.50427076E-15  4.48270547E-01
  1.60394817E-01 -5.23031278E-01  4.56409369E-02 -2.76098661E-01 -1.54244579E-01
 -2.28669252E-01 -1.28688188E-15 -4.93567716E-02  2.97338824E-01 -2.40353791E-01
 -3.37287046E-01  1.12890141E-15  4.48270547E-01  1.60394817E-01 -5.23031278E-01
 -8.09722170E-02  4.88714885E-01 -4.44119830E-02 -1.92981276E-01  5.82163405E-15
  8.51324143E-02 -5.12094595E-01 -5.56102922E-02 -2.21480743E-01 -4.78365638E-15
 -9.83370466E-02  6.02164475E-01 -1.64977078E-01 -1.09166238E-01  4.96571097E-15
  8.09722170E-02 -4.88714885E-01 -4.44119830E-02 -1.92981276E-01 -4.90932563E-15
 -8.51324143E-02  5.12094595E-01 -5.56102922E-02 -2.21480743E-01  5.59024635E-15
  9.83370466E-02 -6.02164475E-01 -1.64977078E-01 -1.09166238E-01 -4.56786965E-15
  5.12100180E-01 -2.93798405E-01 -5.12100180E-01  2.93798405E-01 -3.10067598E-02
  1.94160567E-01  1.14449277E-01 -1.81150760E-01  3.14030702E-15 -6.87239963E-02
  4.38406279E-01 -8.08128289E-02  1.83362176E-01 -2.16930707E-15 -2.20834694E-01
 -2.64751900E-01 -3.34108153E-01  3.10067598E-02 -1.94160567E-01  1.14449277E-01
 -1.81150760E-01 -2.27285497E-15  6.87239963E-02 -4.38406279E-01 -8.08128289E-02
  1.83362176E-01  9.44172183E-16  2.20834694E-01  2.64751900E-01  3.34108153E-01
 -4.72067641E-02  2.85819271E-01  1.76272058E-01 -2.68096215E-01  4.07285378E-15
 -7.50944016E-02  4.67608240E-01 -1.73017125E-01 -1.62962327E-02 -3.43454682E-15
  1.01514384E-01 -6.31519277E-01 -3.87911442E-02  6.29044352E-02  2.98550346E-15
 -4.72067641E-02  2.85819271E-01 -1.76272058E-01  2.68096215E-01 -3.77279821E-15
 -7.50944016E-02  4.67608240E-01  1.73017125E-01  1.62962327E-02  2.21415382E-15
  1.01514384E-01 -6.31519277E-01  3.87911442E-02 -6.29044352E-02 -2.52616906E-15
 -2.01603383E-01  2.03639662E-01 -2.01603383E-01  2.03639662E-01  5.53339322E-02
 -3.43202962E-01 -1.68887299E-01  2.82935044E-01  1.09636559E-15  7.94442823E-02
 -5.10295990E-01  1.75058720E-01 -1.03312122E-01 -6.58926385E-16  4.30974088E-01
  4.05401526E-01  2.71464112E-01  5.53339322E-02 -3.43202962E-01  1.68887299E-01
 -2.82935044E-01 -1.36476258E-15  7.94442823E-02 -5.10295990E-01 -1.75058720E-01
  1.03312122E-01  5.78623578E-17  4.30974088E-01  4.05401526E-01  2.71464112E-01
 -1.54027143E-02  1.06885906E-01 -1.26826483E-01 -1.17084159E-01  8.11000613E-16
  3.81255278E-02 -2.38548066E-01 -2.38202378E-01 -2.78200332E-01 -2.18345984E-17
  1.37813104E-02 -9.11032859E-02 -2.38450700E-02 -2.58570356E-01  1.12744950E-15
  1.54027143E-02 -1.06885906E-01 -1.26826483E-01 -1.17084159E-01 -4.19639311E-16
 -3.81255278E-02  2.38548066E-01 -2.38202378E-01 -2.78200332E-01  1.33531326E-15
 -1.37813104E-02  9.11032859E-02 -2.38450700E-02 -2.58570356E-01  2.48445855E-18
  4.83325601E-01  1.93762563E-01 -4.83325601E-01 -1.93762563E-01  6.64478339E-02
 -4.24683324E-01  4.74069473E-03  2.71907156E-01  9.05902663E-18  3.51533378E-02
 -2.29029647E-01  3.66045003E-01  2.63179560E-02 -3.53375034E-16  4.89368063E-01
  4.70527850E-01 -4.56875368E-02 -6.64478339E-02  4.24683324E-01  4.74069473E-03
  2.71907156E-01 -1.14144393E-15 -3.51533378E-02  2.29029647E-01  3.66045003E-01
  2.63179560E-02  6.62858036E-16 -4.89368063E-01 -4.70527850E-01  4.56875368E-02
 -1.15347770E-01  7.20131443E-01 -9.16916142E-02  6.48566628E-02  4.38284733E-16
  1.09763331E-01 -6.92966538E-01 -2.38418556E-01 -3.28876204E-02 -5.09508380E-16
  3.64278998E-02 -2.34099879E-01  2.60848476E-01  2.46199648E-01  4.19853455E-17
 -1.15347770E-01  7.20131443E-01  9.16916142E-02 -6.48566628E-02 -5.61972462E-16
  1.09763331E-01 -6.92966538E-01  2.38418556E-01  3.28876204E-02  2.62658545E-16
  3.64278998E-02 -2.34099879E-01 -2.60848476E-01 -2.46199648E-01 -2.39681711E-18
  4.26822135E-01  1.40553655E-01  4.26822135E-01  1.40553655E-01  8.50780152E-02
 -5.18677737E-01 -3.00228174E-02  1.01686578E-01  8.77315159E-16 -6.81379335E-02
  4.19651745E-01  2.65438660E-02  3.95209601E-02 -6.79959642E-16  3.50275012E-01
 -1.88350901E-01 -2.67689026E-01  8.50780152E-02 -5.18677737E-01  3.00228174E-02
 -1.01686578E-01 -6.79861211E-16 -6.81379335E-02  4.19651745E-01 -2.65438660E-02
 -3.95209601E-02  4.91286119E-16  3.50275012E-01 -1.88350901E-01 -2.67689026E-01
 -5.88061051E-02  3.67447724E-01 -1.42463811E-01  1.81594320E-01  3.16023021E-15
  5.47707826E-02 -3.42810003E-01 -2.16629120E-01  1.64325194E-01 -3.78391722E-15
 -5.04332824E-02  3.08638425E-01 -1.57072541E-01  1.30501508E-01  2.72692669E-15
  5.88061051E-02 -3.67447724E-01 -1.42463811E-01  1.81594320E-01 -3.84124358E-15
 -5.47707826E-02  3.42810003E-01 -2.16629120E-01  1.64325194E-01  2.81724442E-15
  5.04332824E-02 -3.08638425E-01 -1.57072541E-01  1.30501508E-01 -3.03890735E-15
  8.02353651E-02 -4.38652502E-01 -8.02353651E-02  4.38652502E-01 -6.80287194E-02
  4.20725696E-01 -1.56355679E-01 -1.11194883E-02  1.33987914E-15  1.19633049E-01
 -7.64609776E-01  2.92012204E-02 -1.09987668E-01 -8.48725229E-16 -2.63013876E-01
  3.74665767E-01  5.30382615E-01  6.80287194E-02 -4.20725696E-01 -1.56355679E-01
 -1.11194883E-02 -2.04718579E-15 -1.19633049E-01  7.64609776E-01  2.92012204E-02
 -1.09987668E-01  1.87906978E-15  2.63013876E-01 -3.74665767E-01 -5.30382615E-01
 -5.00490986E-03  2.65591175E-02  6.11895291E-02  3.72892523E-01  8.59029469E-16
  9.63805943E-02 -6.22201330E-01  2.06681579E-01  5.56112752E-02 -1.86372906E-15
 -1.09879887E-01  7.13538839E-01  2.09234994E-01 -6.52329889E-03  1.72475544E-15
 -5.00490986E-03  2.65591175E-02 -6.11895291E-02 -3.72892523E-01 -1.06070125E-15
  9.63805943E-02 -6.22201330E-01 -2.06681579E-01 -5.56112751E-02  1.68621776E-15
 -1.09879887E-01  7.13538839E-01 -2.09234994E-01  6.52329889E-03 -9.75783496E-16
  1.91361303E-01 -2.80269784E-01  1.91361303E-01 -2.80269784E-01  2.35787032E-02
 -1.72342913E-01 -9.54871531E-02  3.78764814E-02  7.13300333E-16  7.33653367E-02
 -4.75625773E-01  3.56859919E-01 -1.63343676E-01  2.58776145E-17  5.66939796E-02
  5.01073542E-01  3.39321326E-01  2.35787032E-02 -1.72342913E-01  9.54871531E-02
 -3.78764814E-02 -4.53482454E-17  7.33653367E-02 -4.75625773E-01 -3.56859919E-01
  1.63343676E-01 -6.68317049E-16  5.66939796E-02  5.01073542E-01  3.39321326E-01
  7.87997905E-02 -5.46361497E-01  5.88349422E-01  1.17212903E-01  1.72635578E-15
 -2.38323080E-02  1.62736018E-01  1.49475221E-01 -4.59897900E-01 -1.19570682E-15
 -3.37293757E-02  2.26150846E-01  5.09366945E-02 -4.19021748E-01  2.62452422E-15
  7.87997905E-02 -5.46361497E-01 -5.88349422E-01 -1.17212903E-01 -1.71378152E-15
 -2.38323080E-02  1.62736018E-01 -1.49475221E-01  4.59897900E-01  8.39239639E-16
 -3.37293757E-02  2.26150846E-01 -5.09366945E-02  4.19021748E-01 -2.05977366E-15
  2.38609353E-01  1.79073829E-01  2.38609353E-01  1.79073829E-01  7.04505949E-02
 -4.55912519E-01  5.08148435E-02  1.18863507E-01  9.23043856E-16 -3.71304638E-02
  2.40174899E-01 -1.46428419E-01 -2.56087319E-01 -6.14295116E-16  2.94808649E-01
 -2.87367853E-01  9.55827767E-02  7.04505949E-02 -4.55912519E-01 -5.08148435E-02
 -1.18863507E-01 -1.12117869E-15 -3.71304638E-02  2.40174899E-01  1.46428419E-01
  2.56087319E-01  6.67850863E-16  2.94808649E-01 -2.87367853E-01  9.55827767E-02
 -2.47242069E-03  2.94395576E-02  1.07869022E-01 -5.67409683E-01  2.46825941E-15
 -1.02550835E-01  7.01536039E-01  7.13718172E-02  3.42436977E-02 -1.30819329E-15
 -2.80063450E-02  2.07037697E-01 -4.87160078E-01 -2.70380525E-01  1.55547690E-15
  2.47242069E-03 -2.94395576E-02  1.07869022E-01 -5.67409683E-01 -3.24230091E-16
  1.02550835E-01 -7.01536039E-01  7.13718172E-02  3.42436977E-02  1.27778882E-15
  2.80063450E-02 -2.07037697E-01 -4.87160078E-01 -2.70380525E-01 -5.61672850E-16
 -3.33990761E-01 -1.63656198E-01  3.33990761E-01  1.63656198E-01  8.50892214E-03
 -7.66292074E-02  1.08736885E-02 -2.84209944E-01  9.37990450E-16 -2.36838673E-03
  3.33372308E-02  4.36934315E-01  2.60251841E-02 -3.86648370E-16 -2.21153229E-01
  3.49705580E-01 -1.04836356E-01 -8.50892214E-03  7.66292074E-02  1.08736885E-02
 -2.84209944E-01 -3.00318298E-16  2.36838673E-03 -3.33372308E-02  4.36934315E-01
  2.60251841E-02  5.52461546E-16  2.21153229E-01 -3.49705580E-01  1.04836356E-01
  1.72042635E-03 -1.14918914E-02  7.33429164E-02 -1.51959156E-01  4.07353251E-16
 -4.94220902E-03  4.72891858E-02 -2.32746803E-01 -6.04998414E-01  7.25973951E-16
  8.22911874E-04 -2.02019773E-02 -4.51179704E-01  4.26639883E-01 -7.13201409E-16
  1.72042635E-03 -1.14918914E-02 -7.33429164E-02  1.51959156E-01 -6.12982765E-16
 -4.94220902E-03  4.72891858E-02  2.32746803E-01  6.04998414E-01 -8.93557896E-16
  8.22911874E-04 -2.02019773E-02  4.51179704E-01 -4.26639883E-01  6.57484707E-16
  5.10554040E-01 -5.03867290E-01  5.10554040E-01 -5.03867290E-01 -3.88872368E-02
  2.74076057E-01 -2.01252087E-01  7.70748671E-02 -6.96838563E-16  4.37712678E-02
 -3.03290252E-01 -1.75071628E-01  1.02436837E-01 -3.78546402E-16 -1.07718288E-01
  1.64251650E-03  1.45968960E-01 -3.88872368E-02  2.74076057E-01  2.01252087E-01
 -7.70748671E-02  8.19351732E-17  4.37712678E-02 -3.03290252E-01  1.75071628E-01
 -1.02436837E-01 -1.95424501E-16 -1.07718288E-01  1.64251650E-03  1.45968960E-01
  7.49317790E-02 -5.31433648E-01 -2.52699906E-02 -2.40424153E-01  8.13584592E-16
  3.33542189E-02 -2.25628152E-01  7.43828807E-01 -2.43111702E-01  3.21219787E-17
 -8.24040806E-02  5.73257211E-01  3.78376675E-01  4.11276459E-01 -3.57949112E-16
 -7.49317790E-02  5.31433648E-01 -2.52699906E-02 -2.40424153E-01  1.48969426E-16
 -3.33542189E-02  2.25628152E-01  7.43828807E-01 -2.43111702E-01  6.57236089E-16
  8.24040806E-02 -5.73257211E-01  3.78376675E-01  4.11276459E-01 -7.72453610E-16
  9.19507578E-02 -2.87059762E-01 -9.19507578E-02  2.87059762E-01  3.94229843E-02
 -2.67507626E-01 -1.28602393E-01 -3.59270324E-02  6.73233354E-16  1.14459630E-02
 -8.14699418E-02  1.97204081E-01 -5.66832582E-02 -9.06137991E-17  7.66611098E-02
  1.71148185E-01  9.78146971E-02 -3.94229843E-02  2.67507626E-01 -1.28602393E-01
 -3.59270324E-02 -2.28117218E-16 -1.14459630E-02  8.14699418E-02  1.97204081E-01
 -5.66832582E-02  3.25228307E-16 -7.66611098E-02 -1.71148185E-01 -9.78146971E-02
 -6.26259563E-02  4.27052262E-01  4.20088448E-02 -2.67354149E-01  2.04493047E-15
  2.09174608E-03 -1.85092841E-03  1.16109867E-01  1.67824691E-01 -2.08147943E-15
 -6.17204257E-02  4.24987015E-01 -8.62298168E-02 -2.12805586E-01  1.64355523E-15
  6.26259563E-02 -4.27052262E-01  4.20088448E-02 -2.67354149E-01 -8.95591365E-16
 -2.09174608E-03  1.85092841E-03  1.16109867E-01  1.67824691E-01  1.04112584E-15
  6.17204257E-02 -4.24987015E-01 -8.62298168E-02 -2.12805586E-01 -3.85006140E-16
 -1.09831559E-01 -1.53384520E-01  1.09831559E-01  1.53384520E-01  4.95472080E-02
 -3.67248588E-01  4.89796310E-01  2.36274286E-01  8.37692379E-17 -2.04857615E-02
  1.50287937E-01 -1.73680257E-01 -6.15596407E-01  5.58010102E-16  3.92631366E-01
 -2.95026958E-01  4.50066253E-01 -4.95472080E-02  3.67248588E-01  4.89796310E-01
  2.36274286E-01 -8.35966740E-16  2.04857615E-02 -1.50287937E-01 -1.73680257E-01
 -6.15596407E-01  1.95147469E-15 -3.92631366E-01  2.95026958E-01 -4.50066253E-01
  1.32487145E-02 -6.99873627E-02 -3.75545218E-01 -1.33991440E-01  1.92052099E-15
  1.69108456E-02 -1.20807835E-01  2.35793624E-01  1.76165061E-01 -2.27252571E-15
 -2.80230572E-02  1.88772405E-01  9.27129030E-02  2.75190650E-01  7.43405665E-16
  1.32487145E-02 -6.99873627E-02  3.75545218E-01  1.33991440E-01 -1.68389085E-15
  1.69108456E-02 -1.20807835E-01 -2.35793624E-01 -1.76165061E-01  1.61250419E-15
 -2.80230572E-02  1.88772405E-01 -9.27129030E-02 -2.75190650E-01 -3.51376901E-16
 -1.46135628E-01 -2.29181707E-01 -1.46135628E-01 -2.29181707E-01 -1.44751658E-02
  9.21268531E-02  3.29956577E-01  4.92279679E-01 -5.51467917E-16  1.95964063E-02
 -1.46530381E-01 -4.78166012E-01 -3.40063162E-01  2.01881710E-16  3.80922400E-01
 -3.56667758E-01  4.28020603E-01 -1.44751658E-02  9.21268531E-02 -3.29956577E-01
 -4.92279679E-01  1.93288133E-16  1.95964063E-02 -1.46530381E-01  4.78166012E-01
  3.40063162E-01  3.15561627E-16  3.80922400E-01 -3.56667758E-01  4.28020603E-01
 -4.68003849E-03  2.32365340E-02  2.23856480E-01 -1.95418597E-01  1.06524769E-15
  1.94568301E-02 -1.40533652E-01  4.69922584E-01 -4.59842745E-02 -4.79426143E-16
 -1.70453881E-02  1.24463888E-01  4.87298439E-01  6.20692602E-02  5.25771428E-16
 -4.68003849E-03  2.32365340E-02 -2.23856480E-01  1.95418597E-01 -9.36244472E-16
  1.94568301E-02 -1.40533652E-01 -4.69922584E-01  4.59842745E-02  3.73512177E-16
 -1.70453881E-02  1.24463888E-01 -4.87298439E-01 -6.20692602E-02 -6.09763686E-18
 -1.55239155E-02  1.89743072E-01 -1.55239155E-02  1.89743072E-01 -5.97876477E-02
  4.67116225E-01 -5.39761712E-01  3.43406261E-01 -5.54539531E-16  5.38995227E-02
 -4.20347104E-01 -3.54062001E-01  5.65162524E-01 -1.43908112E-15 -1.98892429E-02
 -1.41539086E-02 -2.03098424E-01 -5.97876477E-02  4.67116225E-01  5.39761712E-01
 -3.43406261E-01  3.46144156E-16  5.38995227E-02 -4.20347104E-01  3.54062001E-01
 -5.65162524E-01  8.54272380E-16 -1.98892429E-02 -1.41539086E-02 -2.03098424E-01
  5.89414183E-03 -4.13422245E-02  1.26584890E-01 -4.42525949E-01  1.57890072E-15
 -4.03741427E-02  3.02472448E-01  1.28033371E-01 -1.27690330E-01 -8.93021095E-16
 -2.38506247E-02  1.81894216E-01 -1.83256219E-01 -1.24510392E-01  9.77249688E-16
 -5.89414183E-03  4.13422245E-02  1.26584890E-01 -4.42525949E-01  3.56001148E-16
  4.03741427E-02 -3.02472448E-01  1.28033371E-01 -1.27690330E-01  8.58476926E-16
  2.38506247E-02 -1.81894216E-01 -1.83256219E-01 -1.24510392E-01  3.01200276E-16
 -4.72118830E-02 -6.20710392E-02  4.72118830E-02  6.20710392E-02 -6.29267133E-02
  4.93272911E-01 -4.11764131E-01  6.75111431E-01 -1.59939273E-15  6.87644172E-02
 -5.42932450E-01 -5.55479397E-01  4.33488405E-01 -9.67281218E-16  2.14551921E-01
 -1.31212136E-01 -1.09388875E-02  6.29267133E-02 -4.93272911E-01 -4.11764131E-01
  6.75111431E-01 -1.14734177E-15 -6.87644172E-02  5.42932450E-01 -5.55479397E-01
  4.33488405E-01 -7.03193875E-16 -2.14551921E-01  1.31212136E-01  1.09388875E-02
 -6.55185215E-04  2.42204340E-03 -1.23073117E-01  7.12768490E-01 -1.40081451E-15
  9.73846220E-03 -7.66312052E-02 -5.41118942E-01  2.59466399E-01 -7.20709520E-16
 -9.73688468E-03  7.59955099E-02 -3.89448338E-01 -4.70869874E-01  9.56887783E-16
 -6.55185215E-04  2.42204340E-03  1.23073117E-01 -7.12768490E-01  1.14483309E-15
  9.73846220E-03 -7.66312052E-02  5.41118942E-01 -2.59466399E-01  6.98234691E-16
 -9.73688468E-03  7.59955099E-02  3.89448338E-01  4.70869874E-01 -9.25148063E-16
 -2.31875517E-02  4.61223243E-02 -2.31875517E-02  4.61223243E-02 -3.04540335E-02
  2.49089352E-01 -2.54576843E-01  4.59123445E-01 -1.04186966E-15  3.87343879E-02
 -3.17093503E-01 -3.19880970E-01  2.67084632E-01 -4.50771098E-16  1.76601770E-01
 -6.90449696E-02 -3.43862985E-02 -3.04540335E-02  2.49089352E-01  2.54576843E-01
 -4.59123445E-01  1.15833072E-15  3.87343879E-02 -3.17093503E-01  3.19880970E-01
 -2.67084632E-01  3.91108138E-16  1.76601770E-01 -6.90449696E-02 -3.43862985E-02
 -5.76294714E-02  4.47761964E-01 -6.28135253E-01 -1.41650025E-01  1.47517638E-16
  5.70790893E-02 -4.26560573E-01  2.09618495E-01  6.20695874E-01 -1.18266148E-15
 -5.67573231E-02  4.25728909E-01  4.38966139E-01 -5.07736846E-01  1.17611167E-15
  5.76294714E-02 -4.47761964E-01 -6.28135253E-01 -1.41650025E-01  2.23143218E-16
 -5.70790893E-02  4.26560573E-01  2.09618495E-01  6.20695874E-01 -1.13348735E-15
  5.67573231E-02 -4.25728909E-01  4.38966139E-01 -5.07736846E-01  1.14815122E-15
 -2.81372000E-01  3.06798685E-01  2.81372000E-01 -3.06798685E-01  1.12206810E-02
 -6.47529454E-02 -2.66700415E-01 -3.42540613E-02  1.24640814E-16  1.82347452E-03
 -2.40862998E-02  2.96330036E-02  1.80089063E-01 -4.46422862E-16 -4.78679226E-02
  5.09150251E-02 -1.50207931E-01 -1.12206810E-02  6.47529454E-02 -2.66700415E-01
 -3.42540613E-02 -2.40154787E-16 -1.82347452E-03  2.40862998E-02  2.96330036E-02
  1.80089063E-01  9.99406079E-17  4.78679226E-02 -5.09150251E-02  1.50207931E-01
Beta MO coefficients                       R   N=        3600
 -7.00283855E-01 -3.12600782E-02  1.50654664E-03  3.27023437E-04  1.68043433E-16
  7.00668081E-03  7.43506013E-03  2.71891226E-03 -3.50611076E-03  2.88318105E-17
 -7.44264654E-03 -7.46487087E-03  1.13410734E-03  4.29571593E-03 -2.40950815E-16
  7.00283854E-01  3.12600782E-02  1.50654664E-03  3.27023436E-04 -4.24731262E-18
 -7.00668080E-03 -7.43506012E-03  2.71891226E-03 -3.50611076E-03  7.24183203E-17
  7.44264655E-03  7.46487088E-03  1.13410734E-03  4.29571593E-03  1.43888341E-16
 -2.29820504E-04  2.45033766E-04  2.29820504E-04 -2.45033766E-04 -1.05114748E-02
 -5.48168172E-03 -3.76916053E-03 -8.41125217E-04  1.88833301E-16 -4.53000269E-05
  2.98237199E-04  1.95798511E-04  4.77596531E-05 -2.87229249E-17  1.61010467E-04
 -2.66953545E-05 -1.38494954E-04  1.05114748E-02  5.48168173E-03 -3.76916054E-03
 -8.41125218E-04  3.23863894E-17  4.53000268E-05 -2.98237200E-04  1.95798511E-04
  4.77596531E-05  1.35565943E-16 -1.61010467E-04  2.66953545E-05  1.38494954E-04
  7.00311088E-01  3.10472718E-02 -1.16020644E-03 -2.56426080E-04 -1.16469909E-16
 -7.64850689E-03 -6.75360113E-03 -2.97868612E-03  3.39086699E-03  3.83747712E-17
 -8.11864669E-03 -6.79272562E-03  1.41290242E-03  4.29039179E-03  1.09831992E-16
  7.00311090E-01  3.10472718E-02  1.16020644E-03  2.56426080E-04  3.74684908E-17
 -7.64850690E-03 -6.75360114E-03  2.97868613E-03 -3.39086700E-03  9.25020577E-19
 -8.11864668E-03 -6.79272561E-03 -1.41290242E-03 -4.29039178E-03 -2.25222781E-16
  9.07283589E-05  1.05081867E-04  9.07283593E-05  1.05081867E-04 -1.07023427E-02
 -5.56331299E-03 -3.82379426E-03 -8.52193183E-04 -1.03531533E-16 -4.96670790E-05
  2.98275601E-04  2.02577236E-04  4.67454420E-05 -1.81003081E-16  1.70337328E-04
 -2.55155959E-05 -1.26269757E-04 -1.07023427E-02 -5.56331298E-03  3.82379425E-03
  8.52193182E-04  8.41518171E-17 -4.96670787E-05  2.98275600E-04 -2.02577236E-04
 -4.67454419E-05 -1.24428733E-16  1.70337328E-04 -2.55155959E-05 -1.26269756E-04
 -9.59388797E-03  7.75380752E-03 -2.10234876E-03 -3.59100294E-03 -1.66304652E-16
 -1.18264457E-01 -1.21220370E-02  4.35048445E-03  1.29908505E-03 -4.05706711E-18
  6.90154983E-01  3.21397597E-02  1.65824369E-03 -1.01781544E-03 -1.51697985E-17
  9.59388796E-03 -7.75380751E-03 -2.10234876E-03 -3.59100293E-03 -1.20373567E-17
  1.18264458E-01  1.21220370E-02  4.35048445E-03  1.29908505E-03  1.48957007E-16
 -6.90154984E-01 -3.21397597E-02  1.65824369E-03 -1.01781544E-03  4.01738672E-17
  1.22636767E-03 -6.17857925E-03 -1.22636767E-03  6.17857926E-03 -2.93329625E-03
  1.17411522E-04  8.35656817E-05  1.41841334E-05 -1.89115014E-16 -1.55696046E-03
 -1.47294628E-04 -1.03490914E-04 -8.72575756E-05 -5.49657145E-17 -2.89162023E-05
 -2.30087308E-05  2.51038776E-04  2.93329625E-03 -1.17411522E-04  8.35656816E-05
  1.41841335E-05 -1.16406663E-16  1.55696046E-03  1.47294628E-04 -1.03490914E-04
 -8.72575757E-05  5.89243230E-17  2.89162023E-05  2.30087308E-05 -2.51038777E-04
  7.13830704E-03 -4.79489443E-03  8.67655289E-04  4.87760862E-03 -6.80384279E-17
 -1.36194713E-01 -1.24959359E-02  4.31000758E-03  1.19302035E-03 -1.79989783E-17
  6.86844420E-01  3.18897802E-02  1.53173491E-03 -7.15923140E-04  1.43092978E-16
  7.13830706E-03 -4.79489444E-03 -8.67655292E-04 -4.87760862E-03  1.22630248E-17
 -1.36194712E-01 -1.24959359E-02 -4.31000757E-03 -1.19302035E-03  4.86395377E-17
  6.86844419E-01  3.18897802E-02 -1.53173491E-03  7.15923139E-04 -6.59694151E-17
  1.27213418E-03 -6.22578840E-03  1.27213418E-03 -6.22578840E-03 -7.50686933E-03
 -2.41258519E-04 -2.96920739E-05  5.15825973E-05  3.34219774E-17 -1.36871313E-03
 -8.78657734E-05 -6.59837711E-05 -9.94487566E-05 -3.16426565E-16 -3.89595987E-08
 -2.07831805E-05  2.53561474E-04 -7.50686932E-03 -2.41258519E-04  2.96920740E-05
 -5.15825973E-05 -1.44110176E-16 -1.36871313E-03 -8.78657732E-05  6.59837710E-05
  9.94487565E-05  6.91139248E-17 -3.89595988E-08 -2.07831804E-05  2.53561473E-04
  5.83374447E-03 -5.25946315E-03  2.99466634E-03 -3.86689161E-03  6.40067196E-17
  6.89420625E-01  2.97625633E-02  3.23248555E-04 -1.25105222E-03 -1.20239024E-17
  1.19255175E-01 -1.46673150E-03 -4.19964380E-03 -8.98747533E-04 -5.58484520E-17
 -5.83374447E-03  5.25946315E-03  2.99466633E-03 -3.86689161E-03  6.62467480E-17
 -6.89420625E-01 -2.97625633E-02  3.23248555E-04 -1.25105222E-03 -3.46267190E-16
 -1.19255175E-01  1.46673150E-03 -4.19964380E-03 -8.98747532E-04  2.21438321E-16
 -6.07215516E-03 -8.88001866E-04  6.07215516E-03  8.88001865E-04  3.57002672E-02
  1.39730852E-03 -9.92230866E-05  2.24854047E-05  1.85271272E-16 -5.15242083E-04
 -3.61897234E-04 -1.44774320E-04  1.44666109E-04  3.83909413E-17 -2.82315705E-04
  7.22672655E-06  3.01658586E-05 -3.57002673E-02 -1.39730852E-03 -9.92230867E-05
  2.24854049E-05  2.47775154E-17  5.15242085E-04  3.61897235E-04 -1.44774321E-04
  1.44666110E-04  8.98988324E-17  2.82315706E-04 -7.22672659E-06 -3.01658586E-05
 -4.85048428E-03  2.50848201E-04  5.02360382E-03 -7.77326142E-04  2.29991016E-17
  3.55565790E-01  1.52553569E-02  1.56615981E-04 -6.06935073E-04 -1.07600683E-17
  6.44821971E-02 -5.27163303E-04 -2.07335477E-03 -5.55449218E-04 -1.43449113E-16
 -4.85048423E-03  2.50848178E-04 -5.02360381E-03  7.77326147E-04  1.48628517E-16
  3.55565791E-01  1.52553569E-02 -1.56615981E-04  6.06935073E-04 -1.30733811E-16
  6.44821972E-02 -5.27163304E-04  2.07335477E-03  5.55449219E-04 -6.95558349E-17
 -3.15474286E-03 -4.25910213E-04 -3.15474287E-03 -4.25910213E-04 -6.00073283E-01
 -2.63269203E-02  1.04410309E-03 -1.09773143E-03 -1.81094297E-16  8.40688194E-03
  6.83999445E-03  2.75702893E-03 -2.88936234E-03  2.36373436E-16  5.35488711E-03
 -2.14187044E-04 -1.84007776E-04 -6.00073286E-01 -2.63269205E-02 -1.04410310E-03
  1.09773143E-03  1.46848597E-16  8.40688198E-03  6.83999449E-03 -2.75702895E-03
  2.88936236E-03 -3.93787976E-17  5.35488714E-03 -2.14187045E-04 -1.84007777E-04
  1.19136971E-02 -4.94095229E-03 -3.81209966E-03 -8.31091164E-04 -2.91967871E-16
  3.55705493E-02  1.64544217E-03  4.76704970E-05 -1.07622590E-05  1.03703559E-16
  3.33118523E-03 -3.37868670E-04 -1.73314544E-04 -6.19214787E-05  2.98331845E-16
 -1.19136971E-02  4.94095229E-03 -3.81209968E-03 -8.31091158E-04 -2.32928552E-16
 -3.55705472E-02 -1.64544208E-03  4.76704958E-05 -1.07622557E-05  1.03217955E-16
 -3.33118484E-03  3.37868668E-04 -1.73314532E-04 -6.19214756E-05  1.54397089E-16
 -3.41455116E-04  1.10102148E-04  3.41455098E-04 -1.10102151E-04 -6.99446824E-01
 -3.07874233E-02  1.22692271E-03 -1.27034961E-03 -3.17829677E-16  1.05708847E-02
  8.05857722E-03  3.27711011E-03 -3.36517454E-03  1.43334795E-16  6.28892673E-03
 -2.43539957E-04 -2.28212551E-04  6.99446822E-01  3.07874232E-02  1.22692270E-03
 -1.27034961E-03  2.18246747E-16 -1.05708847E-02 -8.05857719E-03  3.27711010E-03
 -3.36517453E-03  9.68780775E-17 -6.28892671E-03  2.43539956E-04  2.28212550E-04
 -1.49082823E-02  8.64053709E-03 -7.59980206E-04  2.42651519E-03  1.58483387E-16
 -5.87906490E-01 -2.50742839E-02 -5.41396039E-04  6.78912317E-04 -2.09750299E-16
 -1.21203010E-01  6.04134048E-05  3.62132909E-03  7.65830305E-04 -2.59524410E-16
 -1.49082823E-02  8.64053710E-03  7.59980203E-04 -2.42651519E-03  1.60001071E-16
 -5.87906490E-01 -2.50742839E-02  5.41396039E-04 -6.78912318E-04 -2.14247178E-16
 -1.21203010E-01  6.04134057E-05 -3.62132909E-03 -7.65830306E-04 -7.47540122E-17
  5.30586684E-03  1.13303542E-03  5.30586684E-03  1.13303542E-03 -3.61057425E-01
 -1.59877895E-02  6.77334865E-04 -6.35421739E-04  1.23644673E-16  6.56868176E-03
  4.27960280E-03  1.78015303E-03 -1.73073325E-03 -2.39354544E-16  3.31020129E-03
 -1.16300656E-04 -1.43932482E-04 -3.61057424E-01 -1.59877895E-02 -6.77334864E-04
  6.35421738E-04 -2.35429396E-16  6.56868175E-03  4.27960279E-03 -1.78015302E-03
  1.73073325E-03 -1.61268521E-16  3.31020129E-03 -1.16300656E-04 -1.43932481E-04
 -2.69152567E-04 -1.51798675E-04 -2.01211117E-05 -3.98595372E-05  1.07534310E-16
 -9.99863934E-04  8.58789476E-05  1.69367718E-05 -3.42448818E-05 -6.49941900E-17
 -1.74358438E-03  1.95725905E-05 -1.47453189E-04  3.62436855E-06  2.78446399E-17
 -2.69152567E-04 -1.51798676E-04  2.01211118E-05  3.98595372E-05 -1.58801834E-16
 -9.99863935E-04  8.58789476E-05 -1.69367718E-05  3.42448818E-05 -1.37998512E-16
 -1.74358438E-03  1.95725905E-05  1.47453188E-04 -3.62436855E-06 -1.37437137E-17
  2.19340085E-05 -1.52859560E-04  2.19340085E-05 -1.52859560E-04 -1.14124933E-02
  7.02446607E-03 -3.18245835E-03  3.30270929E-03  8.66746740E-17 -7.00510479E-01
 -3.06681836E-02 -1.12772482E-03  1.08324709E-03  2.79450544E-16 -4.12807013E-05
  6.20223787E-03  6.25271254E-03 -1.14124933E-02  7.02446606E-03  3.18245835E-03
 -3.30270929E-03 -2.15465518E-16 -7.00510479E-01 -3.06681835E-02  1.12772482E-03
 -1.08324709E-03 -2.00040723E-16 -4.12807013E-05  6.20223786E-03  6.25271253E-03
 -2.49217418E-04 -1.55683532E-04 -2.02015854E-05 -4.25648043E-05  5.98018659E-17
 -3.00440627E-04 -6.77915000E-06  1.04584403E-04 -9.75771835E-06  5.56851191E-17
  1.60823336E-03  1.76780687E-06  1.66349684E-04  1.66044910E-06 -9.92393501E-17
  2.49217418E-04  1.55683532E-04 -2.02015854E-05 -4.25648043E-05  4.00370220E-16
  3.00440626E-04  6.77915003E-06  1.04584403E-04 -9.75771834E-06  1.80311793E-16
 -1.60823336E-03 -1.76780687E-06  1.66349684E-04  1.66044909E-06  1.02650404E-16
  1.23512265E-05  1.53620384E-04 -1.23512265E-05 -1.53620384E-04  1.14146328E-02
 -7.02436721E-03  3.18318709E-03 -3.30325297E-03 -3.44734995E-16  7.00511389E-01
  3.06684714E-02  1.12805744E-03 -1.08336226E-03 -7.12808058E-17  4.17256122E-05
 -6.20219335E-03 -6.25259445E-03 -1.14146328E-02  7.02436721E-03  3.18318709E-03
 -3.30325297E-03  1.63842943E-16 -7.00511390E-01 -3.06684715E-02  1.12805744E-03
 -1.08336226E-03 -1.65989707E-16 -4.17256122E-05  6.20219335E-03  6.25259445E-03
 -1.09940275E-01  2.75840342E-01 -5.58046616E-02 -1.33741959E-02  7.17287653E-17
 -9.81130439E-02  2.43702757E-01 -1.33916792E-02 -6.70336369E-02  7.13377088E-17
 -9.94270747E-02  2.46924162E-01  3.63843924E-02 -5.69126936E-02 -6.78796340E-18
 -1.09940275E-01  2.75840342E-01  5.58046616E-02  1.33741959E-02  6.65715461E-17
 -9.81130439E-02  2.43702757E-01  1.33916792E-02  6.70336369E-02 -1.47478525E-16
 -9.94270747E-02  2.46924162E-01 -3.63843924E-02  5.69126936E-02 -5.06709939E-17
  3.71145927E-02  3.93045563E-02  3.71145927E-02  3.93045563E-02 -4.05587157E-02
  1.04622154E-01  2.60137717E-02  1.51838471E-02  3.96265637E-16 -1.98445220E-02
  4.90258774E-02  1.85261740E-02 -1.09772221E-02 -1.71859680E-16  1.74705247E-02
  6.85298165E-03  1.06724436E-02 -4.05587157E-02  1.04622154E-01 -2.60137717E-02
 -1.51838471E-02  1.75853057E-16 -1.98445220E-02  4.90258774E-02 -1.85261740E-02
  1.09772221E-02  1.98756654E-17  1.74705247E-02  6.85298165E-03  1.06724436E-02
  1.10316968E-01 -2.91062362E-01 -2.12063674E-02  8.03344234E-03  4.04423508E-20
  3.83628502E-02 -9.97836814E-02 -6.74021935E-02  3.31128647E-02 -1.08599364E-17
 -5.34404235E-02  1.39082339E-01 -4.82179276E-02 -5.71498211E-02  2.36432196E-16
 -1.10316968E-01  2.91062362E-01 -2.12063674E-02  8.03344234E-03 -1.24730484E-16
 -3.83628502E-02  9.97836814E-02 -6.74021935E-02  3.31128647E-02 -2.61076289E-16
  5.34404235E-02 -1.39082339E-01 -4.82179276E-02 -5.71498211E-02  1.16645088E-16
 -2.22334873E-02  3.39410708E-02  2.22334873E-02 -3.39410708E-02 -1.07580422E-01
  2.81537247E-01  1.04005361E-02  4.64957949E-02 -2.60137611E-17 -7.55459601E-02
  1.92277163E-01  5.46388968E-02 -4.02007039E-02  3.45447910E-17  5.42270300E-02
  3.39389157E-02  4.25451261E-02  1.07580422E-01 -2.81537247E-01  1.04005361E-02
  4.64957949E-02 -5.15986449E-17  7.55459601E-02 -1.92277163E-01  5.46388968E-02
 -4.02007039E-02 -1.27265427E-16 -5.42270300E-02 -3.39389157E-02 -4.25451261E-02
  8.33745065E-03 -2.63708728E-02 -9.93289814E-02 -6.36849333E-03  2.40959073E-16
 -4.18463601E-02  1.08204108E-01 -3.38254153E-02 -2.13838722E-02 -5.68246428E-17
 -3.29502175E-02  8.50517190E-02  5.23716365E-02 -2.51059055E-03 -1.65014945E-18
  8.33745065E-03 -2.63708728E-02  9.93289814E-02  6.36849333E-03 -1.90533738E-17
 -4.18463601E-02  1.08204108E-01  3.38254153E-02  2.13838722E-02  3.89778931E-17
 -3.29502175E-02  8.50517190E-02 -5.23716365E-02  2.51059055E-03 -2.18470776E-17
  1.79380770E-02  7.28860182E-03  1.79380770E-02  7.28860182E-03  1.24596674E-01
 -3.29398366E-01  5.37728357E-02 -6.44871134E-02  3.52769162E-16  1.17090618E-01
 -3.04347889E-01 -6.59681060E-02  5.91892984E-02 -3.85799178E-16 -6.87163763E-02
 -6.24046295E-02 -6.81416962E-02  1.24596674E-01 -3.29398366E-01 -5.37728357E-02
  6.44871134E-02  2.85943314E-16  1.17090618E-01 -3.04347889E-01  6.59681060E-02
 -5.91892984E-02  1.95825867E-16 -6.87163763E-02 -6.24046295E-02 -6.81416962E-02
  1.87585735E-02 -5.07571785E-02  3.31752601E-02 -1.38932931E-01  8.41471839E-16
  1.36167668E-01 -3.64827104E-01  5.10757656E-02  1.92065707E-02 -1.80867823E-15
  1.18551753E-01 -3.17696808E-01 -7.12698628E-02 -2.61736141E-02  5.40570301E-16
 -1.87585735E-02  5.07571785E-02  3.31752601E-02 -1.38932931E-01  2.40982304E-16
 -1.36167668E-01  3.64827104E-01  5.10757656E-02  1.92065707E-02  7.34080870E-16
 -1.18551753E-01  3.17696808E-01 -7.12698628E-02 -2.61736141E-02 -5.33036565E-17
 -8.55407874E-02 -7.76198842E-02  8.55407874E-02  7.76198842E-02 -2.87837463E-03
  9.26794752E-03  1.68873391E-02 -2.06674749E-02  1.33082473E-15  1.08258163E-02
 -2.77884147E-02 -6.70807860E-03 -2.25161364E-03  9.89198006E-17  9.51247502E-03
 -5.36315971E-03 -1.18131146E-02  2.87837463E-03 -9.26794752E-03  1.68873391E-02
 -2.06674749E-02 -1.35718007E-16 -1.08258163E-02  2.77884147E-02 -6.70807860E-03
 -2.25161364E-03  2.29845160E-16 -9.51247502E-03  5.36315971E-03  1.18131146E-02
 -9.61497715E-02  2.63575411E-01 -7.41562510E-02 -2.69780409E-02  2.81677183E-16
 -3.92610420E-02  1.07491423E-01  9.19707117E-02 -4.13628211E-02 -1.06150232E-16
  7.35997678E-02 -2.01641225E-01  3.95436595E-02  6.59436188E-02 -1.56774649E-16
  9.61497715E-02 -2.63575411E-01 -7.41562510E-02 -2.69780409E-02  1.98974483E-17
  3.92610420E-02 -1.07491423E-01  9.19707117E-02 -4.13628211E-02  1.32212129E-16
 -7.35997678E-02  2.01641225E-01  3.95436595E-02  6.59436188E-02 -8.27396727E-17
  2.57549371E-02 -4.50216573E-02 -2.57549371E-02  4.50216573E-02 -6.91668326E-02
  1.83982131E-01 -1.18712448E-01  5.30368172E-02  5.43261774E-16 -1.09844173E-01
  2.94113400E-01  3.47712336E-02 -4.88022179E-02  3.31914653E-16  4.25817245E-02
  7.34418317E-02  6.78864015E-02  6.91668326E-02 -1.83982131E-01 -1.18712448E-01
  5.30368172E-02 -5.78253966E-16  1.09844173E-01 -2.94113400E-01  3.47712336E-02
 -4.88022179E-02 -3.13879503E-17 -4.25817245E-02 -7.34418317E-02 -6.78864015E-02
  5.88777228E-02 -1.74355455E-01 -3.58350988E-02 -1.85743230E-01  5.01853278E-16
  3.48769473E-02 -1.01167465E-01 -1.82374796E-01  2.09775402E-02 -5.74970920E-16
 -9.86497438E-02  2.83369967E-01 -2.13728058E-02  4.02439169E-02  1.19340839E-16
  5.88777228E-02 -1.74355455E-01  3.58350988E-02  1.85743230E-01 -2.32963058E-16
  3.48769473E-02 -1.01167465E-01  1.82374796E-01 -2.09775402E-02  2.43951716E-16
 -9.86497438E-02  2.83369967E-01  2.13728058E-02 -4.02439169E-02 -5.40689096E-17
 -5.14050661E-02  1.21348027E-01 -5.14050661E-02  1.21348027E-01  4.46994289E-02
 -1.37676359E-01 -9.93308539E-02  8.68135573E-02  7.95865525E-16 -6.23163309E-02
  1.78576272E-01 -1.18964340E-02  3.34375882E-02  7.29415057E-16 -7.27402606E-02
  5.98460498E-02  8.12392819E-02  4.46994289E-02 -1.37676359E-01  9.93308539E-02
 -8.68135573E-02  1.73392778E-16 -6.23163309E-02  1.78576272E-01  1.18964340E-02
 -3.34375882E-02 -2.15222060E-16 -7.27402606E-02  5.98460498E-02  8.12392819E-02
  7.23223342E-02 -2.15758816E-01 -8.73388713E-02  1.60623684E-01 -2.46294265E-16
 -1.06631987E-01  3.12479045E-01 -2.23024618E-02  6.99190973E-02 -7.33183484E-16
  3.08831066E-02 -9.13716330E-02  1.76884439E-01  1.25995372E-01 -1.85990422E-17
  7.23223342E-02 -2.15758816E-01  8.73388713E-02 -1.60623684E-01  5.50664983E-16
 -1.06631987E-01  3.12479045E-01  2.23024618E-02 -6.99190973E-02  4.75021466E-16
  3.08831066E-02 -9.13716330E-02 -1.76884439E-01 -1.25995372E-01  3.07120012E-16
  1.33970555E-01 -3.91937716E-02  1.33970555E-01 -3.91937716E-02  1.33898484E-02
 -4.44683448E-02 -1.16054846E-01 -9.47400189E-03  7.75015185E-16 -6.23872910E-02
  1.83935268E-01 -4.70386721E-02 -8.97717101E-03  2.69865208E-16  6.99945311E-03
  8.18383537E-02  4.78434348E-02  1.33898484E-02 -4.44683448E-02  1.16054846E-01
  9.47400189E-03 -6.81599742E-17 -6.23872910E-02  1.83935268E-01  4.70386721E-02
  8.97717101E-03  5.47637783E-16  6.99945311E-03  8.18383537E-02  4.78434348E-02
  5.66384959E-03 -1.19098724E-02  1.37179695E-01  6.23110405E-02 -2.83195677E-16
  4.54210938E-02 -1.39051703E-01  1.20461119E-02  1.21119617E-02 -1.25825212E-15
 -2.42645127E-02  7.42221129E-02 -7.96543156E-02 -3.84824924E-02  4.53808209E-16
 -5.66384959E-03  1.19098724E-02  1.37179695E-01  6.23110405E-02  1.99726210E-16
 -4.54210938E-02  1.39051703E-01  1.20461119E-02  1.21119617E-02  5.56329126E-16
  2.42645127E-02 -7.42221129E-02 -7.96543156E-02 -3.84824924E-02 -5.69408728E-17
 -3.62378776E-02  5.17109164E-02  3.62378776E-02 -5.17109164E-02  9.76060325E-02
 -3.04525970E-01 -5.66184007E-02  1.25344183E-01  2.17446055E-15 -8.66814388E-02
  2.67548196E-01 -7.48453860E-02  1.25868447E-01  8.46999184E-16 -1.61814375E-01
  1.18764760E-01  1.60237936E-01 -9.76060325E-02  3.04525970E-01 -5.66184007E-02
  1.25344183E-01 -7.46114764E-16  8.66814388E-02 -2.67548196E-01 -7.48453860E-02
  1.25868447E-01 -1.24341488E-16  1.61814375E-01 -1.18764760E-01 -1.60237936E-01
  4.30216582E-02 -1.24665879E-01  1.65396809E-01 -3.72126084E-03 -1.02182064E-16
 -1.62530905E-02  5.77425379E-02 -7.91527861E-02  1.92281867E-01 -8.92642083E-16
 -5.11972781E-02  1.66084009E-01 -4.77414594E-02  1.99216087E-01 -4.50707542E-16
  4.30216582E-02 -1.24665879E-01 -1.65396809E-01  3.72126084E-03  6.66692973E-17
 -1.62530905E-02  5.77425379E-02  7.91527861E-02 -1.92281867E-01  3.85667170E-16
 -5.11972781E-02  1.66084009E-01  4.77414594E-02 -1.99216087E-01 -1.42303857E-16
  1.06745916E-01  1.54300803E-01  1.06745916E-01  1.54300803E-01 -5.68970041E-02
  1.76767902E-01  3.65997774E-02 -6.84346475E-02 -1.74600172E-17  6.05885816E-02
 -1.89409914E-01  7.35131852E-02 -6.45237021E-02  3.40531664E-16  9.87086802E-02
 -9.89125529E-02 -8.55901841E-02 -5.68970041E-02  1.76767902E-01 -3.65997774E-02
  6.84346475E-02 -9.39728308E-17  6.05885816E-02 -1.89409914E-01 -7.35131852E-02
  6.45237021E-02 -8.00152252E-17  9.87086802E-02 -9.89125529E-02 -8.55901841E-02
 -3.56936430E-02  1.18798009E-01  1.12166525E-01  6.56388277E-02 -3.36749235E-16
 -1.68699612E-02  6.40382368E-02  1.53922037E-01  1.22188330E-01 -2.78608983E-15
  1.93219480E-02 -5.30165315E-02 -1.46976840E-01  7.20345614E-02  5.39719559E-16
 -3.56936430E-02  1.18798009E-01 -1.12166525E-01 -6.56388277E-02  3.96355202E-16
 -1.68699612E-02  6.40382368E-02 -1.53922037E-01 -1.22188330E-01  1.60630605E-15
  1.93219480E-02 -5.30165315E-02  1.46976840E-01 -7.20345614E-02 -1.49645745E-17
  1.17857776E-01  8.70810313E-02  1.17857776E-01  8.70810313E-02  5.31525417E-02
 -1.68368076E-01  1.76115638E-01  1.06057148E-01  2.51922179E-15 -2.41510598E-02
  8.74011083E-02 -7.09707724E-04  2.18278763E-01  3.55599554E-16 -1.47270446E-01
  8.86474379E-03  1.78071649E-01  5.31525417E-02 -1.68368076E-01 -1.76115638E-01
 -1.06057148E-01 -7.24260069E-16 -2.41510598E-02  8.74011083E-02  7.09707724E-04
 -2.18278763E-01  1.00503346E-15 -1.47270446E-01  8.86474379E-03  1.78071649E-01
 -8.38303622E-03  3.14591691E-02  1.43768970E-01 -1.92223940E-01  8.86458135E-16
  1.07955672E-02 -3.55160001E-02 -2.32268788E-01  4.07575977E-02  1.38564517E-16
 -3.09146117E-02  1.01128101E-01  1.61593965E-01  1.21172171E-01  1.36924034E-16
  8.38303622E-03 -3.14591691E-02  1.43768970E-01 -1.92223940E-01  1.01764127E-15
 -1.07955672E-02  3.55160001E-02 -2.32268788E-01  4.07575977E-02  5.48227886E-17
  3.09146117E-02 -1.01128101E-01  1.61593965E-01  1.21172171E-01 -5.24488985E-16
 -4.14236416E-02  2.51210567E-02  4.14236416E-02 -2.51210567E-02  1.47210219E-02
 -4.30721883E-02 -7.73357809E-02 -1.98567778E-01  1.15829454E-15 -2.06369374E-02
  7.54325340E-02 -2.06243919E-01 -3.16162613E-02  3.99417496E-16  1.19959401E-01
  1.59050668E-01 -2.09936891E-02 -1.47210219E-02  4.30721883E-02 -7.73357809E-02
 -1.98567778E-01  5.81668398E-16  2.06369374E-02 -7.54325340E-02 -2.06243919E-01
 -3.16162613E-02  6.37617823E-16 -1.19959401E-01 -1.59050668E-01  2.09936891E-02
 -5.28613357E-02  1.78759916E-01 -1.38589960E-01 -1.39978878E-01  2.60072197E-16
  2.94474180E-02 -1.03700133E-01 -5.27321801E-02 -1.02038506E-01 -1.96687381E-15
 -1.72066132E-02  6.67600937E-02 -1.03967588E-01  2.93481064E-01  5.67931851E-16
  5.28613357E-02 -1.78759916E-01 -1.38589960E-01 -1.39978878E-01  1.26037764E-15
 -2.94474180E-02  1.03700133E-01 -5.27321801E-02 -1.02038506E-01  2.39954189E-15
  1.72066132E-02 -6.67600937E-02 -1.03967588E-01  2.93481064E-01  6.23709953E-17
 -1.26833829E-01  2.59496371E-01  1.26833829E-01 -2.59496371E-01 -7.56861405E-03
  2.64628969E-02  8.96063128E-02 -1.06372643E-02  2.46997226E-15  1.11074550E-02
 -3.29689879E-02  1.01347363E-01  1.40369647E-01  4.94125626E-16  1.51242412E-02
 -1.02422573E-01  1.28214170E-01  7.56861405E-03 -2.64628969E-02  8.96063128E-02
 -1.06372643E-02 -1.30804686E-15 -1.11074550E-02  3.29689879E-02  1.01347363E-01
  1.40369647E-01 -1.05867843E-15 -1.51242412E-02  1.02422573E-01 -1.28214170E-01
  4.83623208E-02 -1.69795824E-01 -6.96802737E-02 -1.87851403E-01 -1.47603499E-16
 -4.36307776E-02  1.52816689E-01 -6.36598116E-02  2.32919154E-01 -3.70882154E-15
  5.39577288E-02 -1.84314122E-01  1.29103875E-01  5.44140004E-02  3.12020885E-16
 -4.83623208E-02  1.69795824E-01 -6.96802737E-02 -1.87851403E-01  7.20382469E-16
  4.36307776E-02 -1.52816689E-01 -6.36598116E-02  2.32919154E-01  8.54633570E-16
 -5.39577288E-02  1.84314122E-01  1.29103875E-01  5.44140004E-02 -5.92049162E-16
  2.15156860E-01 -9.93896815E-02 -2.15156860E-01  9.93896815E-02  6.14609397E-03
 -1.11216932E-02  2.00943594E-01  3.53845595E-02  3.57738934E-15 -1.02563165E-02
  4.45562389E-02  1.22610586E-02  1.93725551E-01  2.04022893E-15 -7.13281908E-02
 -1.72766665E-02  1.43062263E-01 -6.14609397E-03  1.11216932E-02  2.00943594E-01
  3.53845595E-02 -1.39575798E-16  1.02563165E-02 -4.45562389E-02  1.22610586E-02
  1.93725551E-01  1.39356939E-15  7.13281908E-02  1.72766665E-02 -1.43062263E-01
  1.54493653E-02 -5.14904385E-02 -8.48401517E-04 -8.06539432E-03  1.32586372E-15
 -2.44342596E-02  8.28256365E-02 -5.69627730E-02  1.61849880E-03  6.52829446E-16
  2.13675704E-02 -7.83658728E-02  1.14433448E-01 -2.48136820E-02  9.23510456E-16
  1.54493653E-02 -5.14904385E-02  8.48401517E-04  8.06539432E-03  1.36499574E-15
 -2.44342596E-02  8.28256365E-02  5.69627730E-02 -1.61849880E-03  1.06408321E-15
  2.13675704E-02 -7.83658728E-02 -1.14433448E-01  2.48136820E-02  9.25086556E-16
  1.81564048E-02 -9.66828857E-02  1.81564048E-02 -9.66828857E-02 -1.85740733E-02
  4.62462530E-02 -5.58332675E-02  2.95943014E-01  1.23137082E-15  7.80166873E-04
 -2.15204285E-02  3.33964574E-01 -5.72292640E-02  7.97506381E-16 -1.76608152E-01
 -2.33598759E-01 -9.31369401E-03 -1.85740733E-02  4.62462530E-02  5.58332675E-02
 -2.95943014E-01  1.59901310E-15  7.80166873E-04 -2.15204285E-02 -3.33964574E-01
  5.72292640E-02  1.75888656E-16 -1.76608152E-01 -2.33598759E-01 -9.31369401E-03
  5.88840100E-04 -5.07397189E-03 -1.41780999E-01  5.50301771E-02 -2.50398301E-15
 -2.57694757E-02  7.97214978E-02 -1.17982257E-01 -3.13447478E-01 -1.74820746E-15
 -6.13517740E-03  1.51065306E-02  2.10378016E-01 -1.56411204E-01 -5.20257040E-16
 -5.88840100E-04  5.07397189E-03 -1.41780999E-01  5.50301771E-02 -7.78459123E-16
  2.57694757E-02 -7.97214978E-02 -1.17982257E-01 -3.13447478E-01 -3.84375405E-16
  6.13517740E-03 -1.51065306E-02  2.10378016E-01 -1.56411204E-01 -1.55291103E-15
 -2.21895269E-01 -1.86857953E-01  2.21895269E-01  1.86857953E-01  4.86623610E-03
 -8.36844320E-03  1.44778454E-01 -2.30012993E-02  9.54184845E-16 -5.85523335E-03
  2.97051558E-02 -3.73352995E-02  1.49221015E-01  7.64169863E-17 -2.16257118E-03
  1.77550564E-02  9.64817666E-02 -4.86623610E-03  8.36844320E-03  1.44778454E-01
 -2.30012993E-02 -1.77082567E-15  5.85523335E-03 -2.97051558E-02 -3.73352995E-02
  1.49221015E-01 -1.29292645E-15  2.16257118E-03 -1.77550564E-02 -9.64817666E-02
 -7.04747322E-03  2.69125422E-02  1.24486227E-01 -1.29551032E-01  4.90032180E-15
  1.25097481E-02 -4.66168397E-02 -2.23146107E-01 -3.20488123E-03  2.83095723E-15
 -1.06342446E-02  3.33595331E-02  2.03389479E-01  5.19563245E-02  3.49886564E-15
  7.04747322E-03 -2.69125422E-02  1.24486227E-01 -1.29551032E-01  4.93577101E-15
 -1.25097481E-02  4.66168397E-02 -2.23146107E-01 -3.20488123E-03  4.38595674E-15
  1.06342446E-02 -3.33595331E-02  2.03389479E-01  5.19563245E-02  3.80512453E-15
 -7.17586335E-02 -6.10086668E-02  7.17586335E-02  6.10086668E-02 -4.31454819E-04
 -1.89024700E-02 -1.45621336E-01  2.57207317E-01  3.21852515E-15 -1.44903327E-02
  3.11733891E-02  2.46365078E-01 -1.42894685E-01  3.29340012E-15 -1.74164195E-01
 -1.50701144E-01 -6.77280767E-02  4.31454819E-04  1.89024700E-02 -1.45621336E-01
  2.57207317E-01  3.06249583E-15  1.44903327E-02 -3.11733891E-02  2.46365078E-01
 -1.42894685E-01  2.87358310E-15  1.74164195E-01  1.50701144E-01  6.77280767E-02
  2.46121267E-02 -8.68856513E-02  1.28737852E-02  1.03059215E-01 -4.87694680E-15
  4.80014468E-03 -2.72367098E-02 -1.50352289E-01 -1.55483829E-01 -7.38570125E-15
 -1.88365823E-03  4.51290892E-03  1.64151384E-01  7.86810569E-02 -9.95268090E-16
  2.46121267E-02 -8.68856513E-02 -1.28737852E-02 -1.03059215E-01  6.61153881E-16
  4.80014468E-03 -2.72367098E-02  1.50352289E-01  1.55483829E-01  6.36300292E-16
 -1.88365823E-03  4.51290892E-03 -1.64151384E-01 -7.86810569E-02 -2.78856694E-15
 -1.67440083E-01  9.67496459E-04 -1.67440083E-01  9.67496459E-04 -2.35221106E-02
  9.51213616E-02  1.02727365E-01 -1.62521931E-01  6.67457257E-15  8.76559380E-03
 -2.03194630E-02  1.09946167E-01  2.87280682E-01  3.54036953E-15  1.54884896E-01
 -1.50572208E-01  2.51960436E-01 -2.35221106E-02  9.51213616E-02 -1.02727365E-01
  1.62521931E-01 -3.76754495E-15  8.76559380E-03 -2.03194630E-02 -1.09946167E-01
 -2.87280682E-01  2.49040184E-16  1.54884896E-01 -1.50572208E-01  2.51960436E-01
  3.57817639E-16 -1.24653634E-15  7.03851534E-15 -5.72694784E-15  3.34284372E-01
 -1.35172797E-16  3.85500104E-16 -4.69600866E-15  6.17866367E-15  3.02537391E-01
 -8.19641951E-17  2.17711128E-17  6.47356820E-15 -9.94476190E-15  3.03481242E-01
 -3.74216263E-17  3.67310402E-16 -8.78533961E-15  1.20043016E-14  3.34284372E-01
  4.96417591E-16 -1.13008279E-15  1.15032362E-14 -7.50460739E-15  3.02537391E-01
 -3.32912227E-16  6.43436388E-16 -8.04829511E-15  5.59678819E-15  3.03481242E-01
  6.26293628E-15 -1.04126860E-14  4.29734210E-15 -1.01115534E-14 -4.32338053E-16
  1.97746609E-15  8.23919537E-15 -6.52358283E-15  1.58967539E-01  3.35102822E-16
 -1.88561336E-16 -7.21077526E-15  8.53966462E-15  7.76451819E-02  6.88819148E-15
  1.85877083E-15  4.38806283E-15 -4.24852800E-16  1.66982746E-15 -4.72551884E-15
 -6.49592032E-16  1.58967539E-01  2.80832907E-18  2.35937791E-16  1.30741086E-15
 -2.11024541E-15  7.76451819E-02 -8.52725654E-16  9.15705382E-16  6.49294502E-17
 -1.52282143E-02  6.66035674E-02  2.49296984E-01  7.31961398E-02 -7.96357495E-15
  7.26835369E-03 -2.34774437E-02  9.67437714E-03  5.50593793E-02 -1.12194349E-14
 -1.10251823E-02  3.69191711E-02  3.66194551E-02 -1.25982370E-01  1.10298230E-16
  1.52282143E-02 -6.66035674E-02  2.49296984E-01  7.31961398E-02  4.42208042E-15
 -7.26835369E-03  2.34774437E-02  9.67437714E-03  5.50593793E-02  3.48659068E-15
  1.10251823E-02 -3.69191711E-02  3.66194551E-02 -1.25982370E-01 -3.21944919E-15
  2.47384280E-02 -5.00867366E-02 -2.47384280E-02  5.00867366E-02 -3.80648264E-03
  1.27772233E-02 -1.74770318E-01 -1.90938258E-01  1.26768900E-14  2.00336797E-03
 -8.11271360E-03  2.00117851E-01  1.98747329E-01  7.58956982E-15  2.29720608E-01
 -2.31420681E-01  2.35105730E-01  3.80648264E-03 -1.27772233E-02 -1.74770318E-01
 -1.90938258E-01 -6.82204239E-15 -2.00336797E-03  8.11271360E-03  2.00117851E-01
  1.98747329E-01 -2.68939712E-15 -2.29720608E-01  2.31420681E-01 -2.35105730E-01
 -1.11442324E-03 -2.74152802E-03 -1.77648297E-01  2.54762271E-01  1.03854378E-14
 -1.19043984E-03 -3.25276199E-03  1.95716171E-01 -2.31728956E-01  1.04772310E-14
  2.97262804E-03  1.45699538E-03 -1.71317859E-01  2.23352523E-01  1.16710346E-14
 -1.11442324E-03 -2.74152802E-03  1.77648297E-01 -2.54762271E-01  1.47625490E-14
 -1.19043984E-03 -3.25276199E-03 -1.95716171E-01  2.31728956E-01  1.13202120E-14
  2.97262804E-03  1.45699538E-03  1.71317859E-01 -2.23352523E-01  1.06580422E-14
 -1.59931630E-01  2.85568725E-01 -1.59931630E-01  2.85568725E-01  9.52220760E-03
 -4.66057813E-02 -1.49318791E-01  3.75759754E-02  8.98554730E-15 -4.14634045E-03
  6.58893642E-03  8.37471125E-02 -1.03885019E-01  5.36820624E-15 -3.27750991E-02
 -5.46935254E-02 -2.93245396E-02  9.52220760E-03 -4.66057813E-02  1.49318791E-01
 -3.75759754E-02  4.68386694E-15 -4.14634045E-03  6.58893642E-03 -8.37471125E-02
  1.03885019E-01  2.40548573E-15 -3.27750991E-02 -5.46935254E-02 -2.93245396E-02
  1.37487145E-02 -6.75416020E-02 -2.29788454E-01 -1.67235839E-01 -7.28532353E-15
  2.81546777E-03 -3.87616745E-03  1.79641496E-01  1.20084527E-01 -9.24883582E-15
  1.77314992E-03 -7.93677766E-03 -1.76303087E-01 -1.86192728E-01  2.72287178E-15
  1.37487145E-02 -6.75416020E-02  2.29788454E-01  1.67235839E-01  8.26330629E-15
  2.81546777E-03 -3.87616745E-03 -1.79641496E-01 -1.20084527E-01  6.20267141E-15
  1.77314992E-03 -7.93677766E-03  1.76303087E-01  1.86192728E-01 -2.59165536E-15
  1.91323371E-01  5.40802948E-03  1.91323371E-01  5.40802948E-03  1.35878071E-02
 -5.71391774E-02 -2.34241261E-01 -1.46369492E-01  1.39537047E-14  4.13557349E-04
 -5.78952044E-03  1.46469642E-01  9.15214510E-02  7.73685977E-15  1.89724672E-01
 -1.68314563E-01  1.46347339E-01  1.35878071E-02 -5.71391774E-02  2.34241261E-01
  1.46369492E-01 -8.03000733E-15  4.13557349E-04 -5.78952044E-03 -1.46469642E-01
 -9.15214510E-02 -3.35270281E-15  1.89724672E-01 -1.68314563E-01  1.46347339E-01
  1.67306422E-16 -8.48184081E-16 -9.77372233E-16 -2.32942004E-15  3.57979831E-01
  4.19377606E-16 -8.77352588E-16  5.08661561E-15  1.31225781E-15  1.32053129E-01
 -3.83202840E-16  2.62131047E-15 -2.74915957E-15 -5.68232146E-15 -1.43898935E-01
  1.39457792E-15 -6.82888905E-15  1.17803493E-14  1.04972264E-16 -3.57979831E-01
 -2.84102729E-16  7.64993893E-16 -5.05193652E-15  6.02860506E-17 -1.32053129E-01
  1.55753940E-16 -1.51405443E-15  4.33255533E-15  2.82478175E-16  1.43898935E-01
  2.89096894E-15  2.55226372E-16  2.74513976E-15  3.93158393E-15  2.41215510E-16
 -3.00078288E-16 -7.56097018E-15 -6.98295684E-15 -3.81459747E-01  1.20670624E-16
 -1.58331479E-15  9.25902820E-15  1.11611428E-14 -2.47065390E-01  1.18325164E-14
 -1.13934203E-14  1.55424550E-14  3.36242970E-16 -1.65695687E-15  2.91067881E-15
  7.11834180E-16  3.81459747E-01  7.85997941E-17 -3.89863785E-16 -1.97905363E-16
  1.05133564E-15  2.47065390E-01  2.37518722E-15 -1.48159680E-15 -1.12510817E-17
 -6.07410338E-17  3.45507970E-16  4.84941652E-16 -1.70354975E-15  1.48746316E-02
  1.79970434E-16 -5.71042186E-16  1.36540881E-15  1.93020414E-15  4.67322085E-01
 -1.36305972E-16  1.50202989E-15 -3.26201876E-16 -1.10605454E-16  4.53071010E-01
  4.41091479E-16 -2.19280671E-15  2.48544070E-15 -8.38138508E-16 -1.48746316E-02
 -2.47180159E-16  5.31475709E-16 -1.32280362E-15 -7.33194000E-16 -4.67322085E-01
  4.42791702E-17 -7.00234518E-16 -1.19168042E-16 -5.87384582E-16 -4.53071010E-01
  8.22877446E-16 -7.85031670E-16  4.59146356E-16  1.20005957E-15  1.15611761E-16
 -4.17896940E-16 -1.44354891E-15 -7.23014882E-16 -1.66038957E-03  1.30790438E-16
 -1.19985435E-15  2.94601925E-15  3.67667281E-15  9.78995820E-03  3.46143809E-15
 -2.71354761E-15  5.24936372E-15  1.94799576E-16 -9.66773465E-16  3.14875293E-16
 -4.20389508E-16  1.66038957E-03  1.36847885E-17 -8.74874632E-17  8.75107144E-16
  1.73980214E-17 -9.78995820E-03  1.46438770E-15 -3.70041076E-17 -1.96573589E-19
  4.33662307E-17 -3.03721884E-16  4.43941957E-16 -1.44089328E-15 -6.81358544E-03
  1.49336837E-16 -5.43968132E-16  2.54865446E-16  1.11103427E-15  1.78305786E-01
 -1.00616779E-16  1.17680638E-15  6.44515534E-16 -1.15217045E-16  1.69599589E-01
  6.31943154E-16 -3.25643535E-15  3.98656523E-15 -9.47671719E-16 -6.81358544E-03
 -2.97234861E-16  8.14321260E-16 -2.05719954E-15  2.75793808E-15  1.78305786E-01
  9.62641959E-17 -1.02871907E-15  1.06900237E-15 -4.66275588E-16  1.69599589E-01
  9.40410388E-16 -1.05322283E-15  2.65349614E-16  2.80253293E-15  6.17057656E-17
  6.30300363E-16 -1.45518775E-15 -7.15037026E-16 -4.47378989E-01  3.66579573E-17
 -1.20793314E-15  3.44864081E-15  4.17531904E-15 -3.84073661E-01  3.36456262E-15
 -3.65044335E-15  5.98396580E-15  1.15414469E-16 -2.60839933E-16  1.49523968E-17
 -1.51532368E-15 -4.47378989E-01  2.68986115E-16 -9.29443486E-16  3.36685433E-16
 -1.00071730E-15 -3.84073661E-01  1.86480039E-15 -1.17717173E-16 -1.01836724E-16
  3.68602689E-17  3.04385574E-16 -2.44713575E-16  5.50205709E-16  3.78109043E-01
  2.71994149E-17 -2.46164379E-16 -2.16508259E-16  5.07159717E-16  2.11938768E-01
  5.96551749E-18 -2.00406740E-16 -1.35525639E-16 -5.40698630E-17 -2.38299391E-01
  1.11189156E-17  4.40992154E-16 -1.73790961E-16 -6.36624066E-16 -3.78109043E-01
  6.40946890E-17 -2.22316352E-16 -2.77562287E-16 -8.29055969E-17 -2.11938768E-01
  8.66831686E-17 -3.22337536E-16 -6.86694642E-18  3.79685797E-16  2.38299391E-01
  6.29285661E-16 -4.61506856E-16  6.09357686E-16  3.44466937E-16  1.07304131E-16
 -5.31835696E-16  4.02123680E-16  4.89823542E-16  2.64240548E-01 -1.85451376E-17
  3.24847519E-16 -1.97646413E-16  2.99028899E-16  3.72692317E-01  3.25695383E-16
 -4.00394237E-16 -2.42123791E-16  7.16590123E-17 -1.06068623E-16  2.62669443E-16
 -6.12422219E-16 -2.64240548E-01  7.50692452E-17 -3.84214299E-16 -3.47808402E-17
 -9.95412253E-16 -3.72692317E-01  4.32481732E-16  1.99893949E-16  2.38661666E-16
 -1.43006047E-17  6.03706654E-16 -6.49194902E-16  2.56280504E-16  4.71615654E-01
 -1.10850600E-16  4.85541609E-16 -6.15541433E-16  2.45699804E-17 -2.10692892E-01
  1.99503196E-16 -1.11476418E-15  3.45024595E-18 -6.77944100E-16 -3.01241869E-01
 -2.05559924E-16 -2.38787633E-16  5.24295389E-16  1.10214214E-15  4.71615654E-01
  5.03071111E-17  3.10325685E-17 -4.49878293E-17  2.38458104E-16 -2.10692892E-01
  2.32281212E-16 -1.27919441E-15 -4.12331592E-16 -1.33494298E-15 -3.01241869E-01
 -1.36435796E-17  5.60820901E-16 -3.31286666E-16  9.91849660E-16  1.82374009E-17
 -1.35786451E-16  6.44168420E-16  7.50587592E-16  2.14180393E-01 -2.55769886E-17
 -1.47364201E-17  1.66036592E-17 -1.21508433E-15 -4.50811387E-01  6.38511093E-16
  1.35477954E-16  3.53248972E-16 -6.41356104E-18  7.25970483E-16  1.73343126E-16
 -8.57470378E-16  2.14180393E-01  2.22968269E-16 -1.35550753E-15  7.09495326E-16
 -1.53016326E-15 -4.50811387E-01  9.91882812E-16  4.55832497E-16  8.91736267E-17
 -1.26886877E-16  8.07681222E-16  7.54429730E-16 -1.39904162E-15 -5.10138247E-02
  1.98478852E-16 -6.60861879E-16  1.33337791E-15  1.17583185E-15  5.92502011E-01
 -2.81750172E-16  2.25645791E-15 -7.58790487E-17 -1.29070713E-15 -5.43400735E-01
  3.39354793E-16 -1.92216953E-15  7.31044713E-16 -1.24738853E-15 -5.10138247E-02
 -1.49198722E-16  9.10858559E-17 -2.94936763E-16  1.73686846E-15  5.92502011E-01
  1.38534194E-16 -1.25738805E-15 -8.88347538E-16 -1.35878051E-15 -5.43400735E-01
  2.32984792E-16 -1.01482767E-15  4.13364228E-16  1.35778736E-15 -3.81392878E-17
  4.21863919E-16  2.00292319E-16  1.32929169E-15  1.00657482E-03  2.59887048E-16
 -1.92256876E-15  2.34204518E-16  8.15588337E-16  3.02707035E-02  1.67311422E-15
 -2.68683742E-16  2.75845994E-15  3.08579501E-16 -1.76681872E-15  3.98928181E-16
 -1.15896551E-15  1.00657482E-03  2.43658079E-17 -1.64968323E-16  1.86858023E-16
  1.64909556E-16  3.02707035E-02  2.00784876E-15  3.02441741E-17 -3.57381118E-17
 -7.21578619E-17  3.15515400E-16 -8.60560048E-16 -3.90051762E-16  3.81490348E-02
  2.51713763E-17 -1.75944645E-16 -1.37734047E-16 -4.74492419E-16 -2.24405347E-01
  1.86418405E-16 -9.70034252E-16 -2.27185829E-16  7.98197982E-16  2.16174053E-01
  8.23362893E-17  3.64530065E-16  7.08933386E-16  2.74725872E-16 -3.81490348E-02
  8.76806990E-17 -8.30841831E-16  1.70213691E-16  1.18821193E-15  2.24405347E-01
  2.15046945E-16 -1.16505870E-15 -2.17613852E-16 -7.20704697E-16 -2.16174053E-01
  8.22852473E-16  2.69768454E-16  1.21135747E-15  8.48465203E-16  5.05808499E-17
 -3.25848030E-16  6.81168178E-16 -1.09075856E-17 -5.07992293E-01 -2.55379373E-17
  3.04640703E-16 -3.35429032E-16  1.62859766E-15  5.54203398E-01  1.45534303E-15
 -2.19205441E-16 -3.67883700E-16  5.85671329E-18  4.69134033E-16 -2.22256067E-16
  1.18857463E-16  5.07992293E-01  1.60558868E-16 -9.62104576E-16 -4.19281185E-17
 -1.35263603E-15 -5.54203398E-01  4.94827455E-16  5.39498369E-16  8.49578269E-17
 -1.52818945E-16  8.11208751E-16 -8.34941953E-16 -2.28958943E-15 -4.72611005E-01
 -1.35520546E-16  4.98956856E-16 -7.62574807E-16  2.02328801E-16  1.62143222E-01
  1.37112156E-16 -8.76134423E-16 -6.57023920E-16  8.55057460E-17  1.95500135E-01
  2.37815367E-17 -9.31366255E-16  7.94975024E-16 -8.53896118E-16 -4.72611005E-01
 -3.70665718E-18 -8.24926270E-17 -3.69360240E-17  1.06582736E-15  1.62143222E-01
  2.81784254E-16 -2.07770140E-15 -8.97822197E-16 -4.81346142E-16  1.95500135E-01
  4.67616361E-16  5.92038902E-16  9.04114165E-18  1.44031745E-15  1.61961942E-16
 -2.54775828E-16  1.35160319E-15  1.59857625E-15  5.24575364E-01 -8.15655301E-17
  9.15072627E-16 -4.54261698E-16 -1.35750867E-15 -4.17152134E-01  1.14411754E-15
 -5.79080850E-16 -4.20759010E-16 -7.57955492E-17  9.46457073E-16 -9.09769591E-17
 -9.53455363E-16  5.24575364E-01  2.10845700E-16 -1.43655898E-15  1.26578114E-15
 -1.56725123E-15 -4.17152134E-01  1.33695655E-15  5.52957441E-17  1.62694546E-17
 -3.61274246E-16  2.30275385E-15  1.68537945E-15 -9.10213593E-15 -5.46064674E-01
  1.00983227E-15 -4.82923614E-15  5.64435141E-15 -3.08851974E-15  4.73770345E-01
 -1.62693121E-15  1.14756166E-14 -3.45411477E-16 -4.06690957E-15 -4.75508357E-01
  3.05300240E-15 -1.80842741E-14  6.39295573E-15 -3.11882593E-15  5.46064674E-01
 -5.39945609E-16  1.64696584E-15 -1.37336417E-15  4.93002431E-15 -4.73770345E-01
  1.69342806E-15 -1.11480463E-14 -5.27408547E-15  1.96208643E-17  4.75508357E-01
  6.02170312E-15 -2.80103745E-15  3.98450812E-15  9.74686289E-15 -8.76016413E-16
  5.19655177E-15  8.80754994E-15  1.27386467E-14 -2.70607597E-01  1.62139301E-15
 -1.10450764E-14  1.31308887E-15  3.25640525E-15  1.56606698E-01  1.17888215E-14
  6.34335928E-15  5.74340597E-15  7.92223152E-16 -4.56419351E-15 -3.76962507E-16
 -6.55647537E-15  2.70607597E-01  3.49602780E-16 -2.25180650E-15  2.22533752E-15
 -1.08107158E-16 -1.56606698E-01  8.80755552E-15  4.59325620E-17  1.49350723E-17
 -7.73784581E-02  4.46164935E-01  3.61344897E-01  9.46364704E-02 -6.96958998E-15
 -2.84744291E-02  1.73416855E-01  1.72222045E-02  2.53150643E-01  5.69603629E-15
 -3.75834077E-02  2.26974237E-01 -9.54306589E-02  1.75597391E-01 -5.94984235E-15
 -7.73784581E-02  4.46164935E-01 -3.61344897E-01 -9.46364704E-02  6.17013915E-15
 -2.84744291E-02  1.73416855E-01 -1.72222045E-02 -2.53150643E-01 -4.65937257E-15
 -3.75834077E-02  2.26974237E-01  9.54306589E-02 -1.75597391E-01  5.72568775E-15
 -3.84216649E-01 -3.81549324E-01 -3.84216649E-01 -3.81549324E-01  6.58134500E-02
 -3.68297499E-01 -4.16937043E-01 -1.91955914E-01 -3.43908087E-15 -3.30725747E-02
  1.85558650E-01 -1.19882525E-01 -1.07100060E-01  1.30192827E-15 -6.00761901E-02
 -3.14195478E-01  1.29092977E-01  6.58134500E-02 -3.68297499E-01  4.16937043E-01
  1.91955914E-01  4.27063939E-15 -3.30725747E-02  1.85558650E-01  1.19882525E-01
  1.07100060E-01 -3.97266868E-15 -6.00761901E-02 -3.14195478E-01  1.29092977E-01
  6.67950032E-02 -3.77769813E-01 -3.68908529E-01 -2.18650841E-01 -3.42402100E-15
 -2.10450763E-02  1.19342034E-01 -1.26176637E-01 -2.57400725E-01  4.33216977E-15
  3.14524534E-02 -1.82331870E-01 -1.13061408E-01 -1.75676816E-01 -3.09764905E-15
 -6.67950032E-02  3.77769813E-01 -3.68908529E-01 -2.18650841E-01  4.10589658E-15
  2.10450763E-02 -1.19342034E-01 -1.26176637E-01 -2.57400725E-01 -2.60488016E-15
 -3.14524534E-02  1.82331870E-01 -1.13061408E-01 -1.75676816E-01  3.48916164E-15
  2.41457884E-01  1.25046373E-01 -2.41457884E-01 -1.25046373E-01  4.75796125E-02
 -2.68137680E-01 -4.12949130E-01 -2.50992989E-01 -2.19234838E-15 -3.19567774E-03
  1.44301544E-02 -1.67043650E-01 -2.90305844E-01  1.71524150E-15 -2.16308512E-01
 -2.95059978E-01  3.42869839E-01 -4.75796125E-02  2.68137680E-01 -4.12949130E-01
 -2.50992989E-01  2.54099103E-15  3.19567774E-03 -1.44301544E-02 -1.67043650E-01
 -2.90305844E-01 -2.14087557E-16  2.16308512E-01  2.95059978E-01 -3.42869839E-01
  2.83573658E-02 -1.53900393E-01 -3.79877962E-01  1.59690727E-01 -1.66629849E-15
 -1.14640286E-02  6.84707240E-02 -2.26572204E-01  2.25287253E-01  1.25862445E-15
 -1.26415786E-02  7.83086968E-02 -3.21674115E-01  3.07146850E-01 -2.17192228E-15
 -2.83573658E-02  1.53900393E-01 -3.79877962E-01  1.59690727E-01  8.98926488E-16
  1.14640286E-02 -6.84707240E-02 -2.26572204E-01  2.25287253E-01 -1.51329379E-15
  1.26415786E-02 -7.83086968E-02 -3.21674115E-01  3.07146850E-01  1.62044211E-16
 -1.68821968E-01 -4.98599096E-01  1.68821968E-01  4.98599096E-01  9.17900607E-02
 -5.33359265E-01 -2.17663695E-01  1.03259102E-01 -1.14658653E-15 -4.56840812E-02
  2.62180305E-01  3.03957772E-02  1.11328572E-01 -5.14134464E-16  3.68899044E-01
 -1.15908353E-01 -1.94849305E-01 -9.17900607E-02  5.33359265E-01 -2.17663695E-01
  1.03259102E-01 -1.82341407E-16  4.56840812E-02 -2.62180305E-01  3.03957772E-02
  1.11328572E-01 -1.69392582E-16 -3.68899044E-01  1.15908353E-01  1.94849305E-01
 -4.23846203E-02  2.57834637E-01 -2.68380923E-03  2.30849700E-02 -2.33635629E-15
  4.21880874E-02 -2.62266969E-01 -1.64669675E-01  1.09688559E-02  2.52999713E-15
  5.18737317E-02 -3.21185290E-01  2.27911741E-01 -1.46469610E-01 -1.72932739E-15
 -4.23846203E-02  2.57834637E-01  2.68380923E-03 -2.30849700E-02  1.91790229E-15
  4.21880874E-02 -2.62266969E-01  1.64669675E-01 -1.09688559E-02 -1.72186105E-15
  5.18737317E-02 -3.21185290E-01 -2.27911741E-01  1.46469610E-01  1.52796738E-15
  2.15883968E-01  3.66488111E-01  2.15883968E-01  3.66488111E-01 -4.81473002E-02
  2.91945631E-01 -1.47396060E-01 -2.51140187E-01 -5.90622942E-16  4.46555203E-02
 -2.65064601E-01 -2.51022211E-01 -3.34205052E-01  1.14668753E-15 -4.76978253E-01
 -1.85600862E-01  5.04590856E-01 -4.81473002E-02  2.91945631E-01  1.47396060E-01
  2.51140187E-01  1.09062145E-15  4.46555203E-02 -2.65064601E-01  2.51022211E-01
  3.34205052E-01 -1.89233017E-15 -4.76978253E-01 -1.85600862E-01  5.04590856E-01
  8.24372695E-02 -4.94484410E-01  4.76256192E-02  1.82794209E-01 -3.81236861E-15
 -8.78584878E-02  5.29396037E-01  6.43787410E-02  2.25655820E-01  3.62153998E-15
  9.95463046E-02 -6.09159489E-01  1.68758030E-01  9.44523530E-02 -2.99942562E-15
 -8.24372695E-02  4.94484410E-01  4.76256192E-02  1.82794209E-01  2.29649499E-15
  8.78584878E-02 -5.29396037E-01  6.43787410E-02  2.25655820E-01 -2.64677766E-15
 -9.95463046E-02  6.09159489E-01  1.68758030E-01  9.44523530E-02  2.51119088E-15
 -5.24282553E-01  3.10591804E-01  5.24282553E-01 -3.10591804E-01  3.06074510E-02
 -1.92144978E-01 -1.08358714E-01  1.67951151E-01 -1.88727350E-15  6.58762717E-02
 -4.16581717E-01  6.71868873E-02 -1.93687141E-01  4.36082412E-16  2.06413787E-01
  2.36985169E-01  3.31640439E-01 -3.06074510E-02  1.92144978E-01 -1.08358714E-01
  1.67951151E-01  2.24701199E-15 -6.58762717E-02  4.16581717E-01  6.71868873E-02
 -1.93687141E-01 -1.39477147E-15 -2.06413787E-01 -2.36985169E-01 -3.31640439E-01
  5.13196031E-02 -3.08900784E-01 -1.83753280E-01  2.65930268E-01 -3.35713573E-15
  7.20224227E-02 -4.48953073E-01  1.89374069E-01  2.06056477E-02  3.28271456E-15
 -1.06459348E-01  6.62563584E-01  2.11999271E-02 -4.80902482E-02 -2.80729376E-15
  5.13196031E-02 -3.08900784E-01  1.83753280E-01 -2.65930268E-01  3.40290170E-15
  7.20224227E-02 -4.48953073E-01 -1.89374069E-01 -2.06056477E-02 -2.03625782E-15
 -1.06459348E-01  6.62563584E-01 -2.11999272E-02  4.80902482E-02  1.75552293E-15
  1.81539414E-01 -2.38136620E-01  1.81539413E-01 -2.38136620E-01 -5.64461309E-02
  3.50888252E-01  1.70764350E-01 -2.72198816E-01 -1.29188511E-15 -7.87282597E-02
  5.01300537E-01 -1.56158670E-01  1.27051145E-01 -7.48628320E-17 -4.20644632E-01
 -3.75053407E-01 -2.88067717E-01 -5.64461309E-02  3.50888252E-01 -1.70764350E-01
  2.72198816E-01  1.91916152E-15 -7.87282597E-02  5.01300537E-01  1.56158670E-01
 -1.27051145E-01 -2.35958024E-15 -4.20644632E-01 -3.75053407E-01 -2.88067717E-01
  1.13273820E-02 -8.12063621E-02  1.15011705E-01  1.16478507E-01 -1.01905909E-15
 -3.43736448E-02  2.15824474E-01  2.26814859E-01  2.82013453E-01  1.44269976E-16
 -1.89507974E-02  1.22861726E-01  7.26601422E-03  2.60903106E-01 -1.10726855E-15
 -1.13273820E-02  8.12063621E-02  1.15011705E-01  1.16478507E-01  4.65242686E-16
  3.43736448E-02 -2.15824474E-01  2.26814859E-01  2.82013453E-01 -1.63316083E-15
  1.89507974E-02 -1.22861726E-01  7.26601422E-03  2.60903106E-01  6.49849559E-16
 -4.70201478E-01 -2.24958219E-01  4.70201478E-01  2.24958219E-01 -6.89469448E-02
  4.40717917E-01 -1.27425204E-02 -2.79998059E-01 -1.16647835E-16 -3.25137510E-02
  2.10669532E-01 -3.62891950E-01 -2.50602387E-02  1.19604087E-16 -5.06185065E-01
 -4.56117297E-01  5.70918060E-02  6.89469448E-02 -4.40717917E-01 -1.27425204E-02
 -2.79998059E-01  8.70543586E-16  3.25137510E-02 -2.10669532E-01 -3.62891950E-01
 -2.50602387E-02 -1.61471364E-16  5.06185065E-01  4.56117297E-01 -5.70918060E-02
  1.14401266E-01 -7.09483105E-01  6.67083529E-02 -8.69578733E-02 -4.68753633E-16
 -1.13255675E-01  7.15531854E-01  2.22929063E-01  4.55304217E-02  7.41270242E-16
 -2.90447532E-02  1.87000055E-01 -2.66958887E-01 -2.36915784E-01  4.29356824E-17
  1.14401266E-01 -7.09483105E-01 -6.67083529E-02  8.69578733E-02  5.93185630E-16
 -1.13255675E-01  7.15531854E-01 -2.22929063E-01 -4.55304217E-02  6.92368724E-17
 -2.90447532E-02  1.87000055E-01  2.66958887E-01  2.36915784E-01  1.58357231E-17
 -4.41557075E-01 -1.23478259E-01 -4.41557075E-01 -1.23478259E-01 -8.64427993E-02
  5.27709139E-01  4.15037977E-02 -9.95769895E-02 -4.66650059E-16  6.93248658E-02
 -4.23688258E-01 -1.52703332E-02 -2.80000266E-02  7.94800775E-16 -3.45030239E-01
  2.03120327E-01  2.51838355E-01 -8.64427993E-02  5.27709139E-01 -4.15037977E-02
  9.95769895E-02  1.45021320E-15  6.93248658E-02 -4.23688258E-01  1.52703332E-02
  2.80000266E-02 -1.46560386E-15 -3.45030239E-01  2.03120327E-01  2.51838355E-01
  5.78056092E-02 -3.59667689E-01  1.36062196E-01 -1.79918678E-01 -2.84767244E-15
 -5.38741706E-02  3.37930629E-01  2.17359410E-01 -1.51561675E-01  4.37704036E-15
  4.74041988E-02 -2.89591359E-01  1.49903696E-01 -1.22944425E-01 -3.01307435E-15
 -5.78056092E-02  3.59667689E-01  1.36062196E-01 -1.79918678E-01  3.32070684E-15
  5.38741706E-02 -3.37930629E-01  2.17359410E-01 -1.51561675E-01 -2.60476988E-15
 -4.74041988E-02  2.89591359E-01  1.49903696E-01 -1.22944425E-01  2.58934402E-15
 -8.87486810E-02  4.17775258E-01  8.87486810E-02 -4.17775258E-01  6.51451880E-02
 -4.01341046E-01  1.48666647E-01  4.64265856E-03 -2.12383765E-15 -1.24319845E-01
  7.88813931E-01 -5.80120344E-02  1.18266921E-01 -1.73051364E-16  2.44001278E-01
 -4.08700113E-01 -5.35575058E-01 -6.51451880E-02  4.01341046E-01  1.48666647E-01
  4.64265856E-03  1.66333009E-15  1.24319845E-01 -7.88813931E-01 -5.80120344E-02
  1.18266921E-01 -4.41097744E-16 -2.44001278E-01  4.08700113E-01  5.35575058E-01
  1.19433211E-03 -1.58024880E-03 -7.55612340E-02 -3.65368182E-01 -9.07915181E-16
 -9.19060275E-02  5.93912571E-01 -2.15557102E-01 -4.82730429E-02  2.41743271E-15
  1.09305158E-01 -7.10314377E-01 -2.07527302E-01  1.95515142E-02 -2.12515955E-15
  1.19433211E-03 -1.58024880E-03  7.55612340E-02  3.65368182E-01  7.66963289E-16
 -9.19060275E-02  5.93912571E-01  2.15557102E-01  4.82730429E-02 -1.73725976E-15
  1.09305158E-01 -7.10314377E-01  2.07527302E-01 -1.95515142E-02  6.68500726E-16
 -1.80497042E-01  2.72047103E-01 -1.80497042E-01  2.72047103E-01 -2.30512554E-02
  1.70580216E-01  9.22408601E-02 -3.84402193E-02 -1.44930724E-15 -7.67853081E-02
  4.93475279E-01 -3.57844020E-01  1.76743351E-01 -2.58965431E-16 -5.63988516E-02
 -5.05119073E-01 -3.55844541E-01 -2.30512554E-02  1.70580216E-01 -9.22408601E-02
  3.84402193E-02 -2.64123915E-16 -7.67853081E-02  4.93475279E-01  3.57844020E-01
 -1.76743351E-01  4.13898044E-16 -5.63988516E-02 -5.05119073E-01 -3.55844541E-01
 -8.43667894E-02  5.79146252E-01 -5.87982812E-01 -1.11965181E-01 -2.16097027E-15
  2.77538181E-02 -1.88387179E-01 -1.56694836E-01  4.63648848E-01  2.88988626E-15
  3.52903320E-02 -2.36042029E-01 -3.61834019E-02  4.21835814E-01 -3.19568906E-15
 -8.43667894E-02  5.79146252E-01  5.87982812E-01  1.11965181E-01  2.34515892E-15
  2.77538181E-02 -1.88387179E-01  1.56694836E-01 -4.63648848E-01 -1.02455498E-15
  3.52903320E-02 -2.36042029E-01  3.61834019E-02 -4.21835814E-01  3.22734316E-15
 -2.27800344E-01 -1.68812141E-01 -2.27800344E-01 -1.68812141E-01 -6.53631129E-02
  4.23781796E-01 -5.31912653E-02 -1.15916714E-01 -1.46081738E-15  3.76279647E-02
 -2.41860472E-01  1.61675978E-01  2.46358424E-01  2.12482711E-16 -2.76646719E-01
  2.96837186E-01 -8.96642849E-02 -6.53631129E-02  4.23781796E-01  5.31912653E-02
  1.15916714E-01  1.61779914E-15  3.76279647E-02 -2.41860472E-01 -1.61675978E-01
 -2.46358424E-01 -1.41550042E-16 -2.76646719E-01  2.96837186E-01 -8.96642849E-02
  3.93535240E-03 -3.95120800E-02 -1.09233271E-01  5.61375900E-01 -3.46099307E-15
  1.02943409E-01 -7.04507691E-01 -5.03755763E-02 -3.41298721E-02  2.80313383E-15
  2.50602392E-02 -1.86849103E-01  4.94311245E-01  2.81474121E-01 -2.94078562E-15
 -3.93535240E-03  3.95120800E-02 -1.09233271E-01  5.61375900E-01  7.14473516E-16
 -1.02943409E-01  7.04507691E-01 -5.03755763E-02 -3.41298721E-02 -2.33520795E-15
 -2.50602392E-02  1.86849103E-01  4.94311245E-01  2.81474121E-01  1.07013814E-15
  3.28742826E-01  1.50198247E-01 -3.28742826E-01 -1.50198247E-01 -7.71580534E-03
  7.13756166E-02 -1.21644261E-02  2.84730107E-01 -1.78785988E-15  3.46691749E-03
 -4.04331896E-02 -4.38668522E-01 -3.52262984E-02  4.89254262E-17  2.22742915E-01
 -3.47729688E-01  1.17363330E-01  7.71580534E-03 -7.13756166E-02 -1.21644261E-02
  2.84730107E-01  1.14297796E-15 -3.46691749E-03  4.04331896E-02 -4.38668522E-01
 -3.52262984E-02 -9.27790383E-16 -2.22742915E-01  3.47729688E-01 -1.17363330E-01
 -1.49648149E-03  9.69406359E-03 -6.99727949E-02  1.52744112E-01 -6.19010345E-16
  6.19267828E-03 -5.57238216E-02  2.41222364E-01  6.02012615E-01 -1.83442619E-16
 -1.99271343E-03  2.81368917E-02  4.60022469E-01 -4.26306651E-01  6.03595114E-16
 -1.49648149E-03  9.69406359E-03  6.99727949E-02 -1.52744112E-01  1.09344478E-15
  6.19267828E-03 -5.57238216E-02 -2.41222364E-01 -6.02012615E-01  8.66059082E-16
 -1.99271343E-03  2.81368917E-02 -4.60022469E-01  4.26306651E-01  8.35209473E-17
 -5.06202266E-01  5.05148322E-01 -5.06202266E-01  5.05148322E-01  3.86519950E-02
 -2.71413198E-01  1.95792810E-01 -6.54779226E-02  8.04198050E-17 -4.51544086E-02
  3.08914140E-01  1.61190940E-01 -9.51578158E-02  3.23711156E-16  1.14328067E-01
 -1.47798686E-02 -1.51691086E-01  3.86519950E-02 -2.71413198E-01 -1.95792810E-01
  6.54779226E-02  3.21345897E-16 -4.51544086E-02  3.08914140E-01 -1.61190940E-01
  9.51578158E-02 -3.32087006E-16  1.14328067E-01 -1.47798686E-02 -1.51691086E-01
 -7.35773825E-02  5.18442394E-01  2.43273888E-02  2.67899407E-01 -1.56065419E-15
 -3.00685848E-02  2.03049319E-01 -7.50794019E-01  2.31379204E-01  1.32991109E-15
  8.49083144E-02 -5.91248510E-01 -3.65158692E-01 -3.90910359E-01 -3.31864314E-16
  7.35773825E-02 -5.18442394E-01  2.43273888E-02  2.67899407E-01  7.58387147E-16
  3.00685848E-02 -2.03049319E-01 -7.50794019E-01  2.31379204E-01 -1.47961734E-15
 -8.49083144E-02  5.91248510E-01 -3.65158692E-01 -3.90910359E-01  1.62887690E-15
 -7.41677441E-02  2.90807168E-01  7.41677441E-02 -2.90807168E-01 -4.29431406E-02
  2.93196100E-01  1.07902691E-01  3.25351756E-02 -1.39686330E-15 -1.02767137E-02
  7.20257087E-02 -2.01690714E-01  8.64068169E-02  4.30380249E-16 -9.13964922E-02
 -1.65135587E-01 -1.15489119E-01  4.29431406E-02 -2.93196100E-01  1.07902691E-01
  3.25351756E-02  7.25596434E-16  1.02767137E-02 -7.20257087E-02 -2.01690714E-01
  8.64068169E-02 -2.66589164E-16  9.13964922E-02  1.65135587E-01  1.15489119E-01
  6.70020882E-02 -4.55388889E-01 -4.88469584E-02  2.66805342E-01 -3.42827036E-15
  1.75115648E-04 -1.44136463E-02 -8.22804719E-02 -1.71990553E-01  4.55908503E-15
  5.90413518E-02 -4.05901104E-01  1.13133140E-01  2.33100447E-01 -3.37956329E-15
 -6.70020882E-02  4.55388889E-01 -4.88469584E-02  2.66805342E-01  1.95161382E-15
 -1.75115648E-04  1.44136463E-02 -8.22804719E-02 -1.71990553E-01 -2.16177321E-15
 -5.90413518E-02  4.05901104E-01  1.13133140E-01  2.33100447E-01  1.87945328E-15
  1.10867061E-01  1.45911980E-01 -1.10867061E-01 -1.45911980E-01 -4.62514431E-02
  3.45353077E-01 -4.92692492E-01 -2.38714924E-01 -1.80800973E-15  2.09237137E-02
 -1.52114863E-01  1.86008677E-01  6.09960836E-01 -1.12300234E-15 -3.83645838E-01
  3.02356888E-01 -4.42507290E-01  4.62514431E-02 -3.45353077E-01 -4.92692492E-01
 -2.38714924E-01  2.14051426E-15 -2.09237137E-02  1.52114863E-01  1.86008677E-01
  6.09960836E-01 -3.10723607E-15  3.83645838E-01 -3.02356888E-01  4.42507290E-01
 -1.34596251E-02  7.09702085E-02  3.77154470E-01  1.38001489E-01 -3.60168482E-15
 -1.65706344E-02  1.18476798E-01 -2.33817761E-01 -1.71400706E-01  5.13894313E-15
  2.75663834E-02 -1.85364198E-01 -8.90106700E-02 -2.78385915E-01 -2.71178683E-15
 -1.34596251E-02  7.09702085E-02 -3.77154470E-01 -1.38001489E-01  2.99875245E-15
 -1.65706344E-02  1.18476798E-01  2.33817761E-01  1.71400706E-01 -3.04608277E-15
  2.75663834E-02 -1.85364198E-01  8.90106700E-02  2.78385915E-01  2.02513548E-15
  1.42469897E-01  2.31005688E-01  1.42469897E-01  2.31005688E-01  1.54953980E-02
 -9.92684570E-02 -3.28267203E-01 -4.89360516E-01 -1.66976063E-15 -2.05459026E-02
  1.51908764E-01  4.82179971E-01  3.42071134E-01 -9.09124102E-16 -3.74678707E-01
  3.55909936E-01 -4.31091797E-01  1.54953980E-02 -9.92684570E-02  3.28267203E-01
  4.89360516E-01  1.63282342E-15 -2.05459026E-02  1.51908764E-01 -4.82179971E-01
 -3.42071134E-01 -1.26127806E-15 -3.74678707E-01  3.55909936E-01 -4.31091797E-01
  4.68409691E-03 -2.33651228E-02 -2.24589225E-01  2.08625807E-01 -1.92662236E-15
 -1.86499332E-02  1.34837186E-01 -4.71656229E-01  5.56396732E-02  1.95067097E-15
  1.64817682E-02 -1.20297862E-01 -4.83464849E-01 -7.48794474E-02 -1.52096252E-15
  4.68409691E-03 -2.33651228E-02  2.24589225E-01 -2.08625807E-01  1.75422036E-15
 -1.86499332E-02  1.34837186E-01  4.71656229E-01 -5.56396732E-02 -1.11672873E-15
  1.64817682E-02 -1.20297862E-01  4.83464849E-01  7.48794474E-02  8.91423097E-16
  1.10935974E-02 -1.80871492E-01  1.10935974E-02 -1.80871492E-01  6.05911434E-02
 -4.72970707E-01  5.39180286E-01 -3.38101371E-01 -7.93216344E-16 -5.58690885E-02
  4.30728234E-01  3.52117412E-01 -5.64818732E-01  1.11024867E-15  2.56802571E-02
  7.91311968E-03  1.96200727E-01  6.05911434E-02 -4.72970707E-01 -5.39180286E-01
  3.38101371E-01  4.50479801E-16 -5.58690885E-02  4.30728234E-01 -3.52117412E-01
  5.64818732E-01 -1.11366066E-15  2.56802571E-02  7.91311968E-03  1.96200727E-01
 -6.42767452E-03  4.50831192E-02 -1.28457428E-01  4.40244054E-01 -2.45356459E-15
  4.03336341E-02 -3.02508750E-01 -1.27095332E-01  1.30046489E-01  2.70358307E-15
  2.35038086E-02 -1.79371898E-01  1.83528578E-01  1.20431812E-01 -2.29901356E-15
  6.42767452E-03 -4.50831192E-02 -1.28457428E-01  4.40244054E-01  6.48357998E-16
 -4.03336341E-02  3.02508750E-01 -1.27095332E-01  1.30046489E-01 -1.85603155E-15
 -2.35038086E-02  1.79371898E-01  1.83528578E-01  1.20431812E-01  7.66369746E-16
  4.56531156E-02  6.34458752E-02 -4.56531156E-02 -6.34458752E-02  6.39530837E-02
 -5.01297548E-01  4.15372564E-01 -6.70714428E-01 -6.58322554E-16 -7.09950585E-02
  5.55252320E-01  5.53708790E-01 -4.37089982E-01  1.18418260E-15 -2.07336446E-01
  1.23180176E-01  7.90782016E-03 -6.39530837E-02  5.01297548E-01  4.15372564E-01
 -6.70714428E-01  1.65828356E-15  7.09950585E-02 -5.55252320E-01  5.53708790E-01
 -4.37089982E-01  6.28552653E-16  2.07336446E-01 -1.23180176E-01 -7.90782016E-03
  5.99228939E-04 -1.96452784E-03  1.22077130E-01 -7.12463550E-01  1.06609574E-15
 -1.03831713E-02  8.12951926E-02  5.34375972E-01 -2.58020019E-01  1.09871751E-15
  1.05201958E-02 -8.15735102E-02  3.84168143E-01  4.67942091E-01 -1.26206265E-15
  5.99228939E-04 -1.96452785E-03 -1.22077130E-01  7.12463550E-01 -9.23006319E-16
 -1.03831713E-02  8.12951926E-02 -5.34375972E-01  2.58020019E-01 -9.31409849E-16
  1.05201958E-02 -8.15735102E-02 -3.84168143E-01 -4.67942091E-01  1.16733003E-15
  2.18777559E-02 -4.49149032E-02  2.18777559E-02 -4.49149032E-02  3.15624269E-02
 -2.57773278E-01  2.60592422E-01 -4.62455817E-01  3.39180961E-16 -4.05132523E-02
  3.28372077E-01  3.24250218E-01 -2.72990376E-01  2.82088307E-16 -1.74257348E-01
  6.64189245E-02  3.27109257E-02  3.15624269E-02 -2.57773278E-01 -2.60592422E-01
  4.62455817E-01 -6.62973548E-16 -4.05132523E-02  3.28372077E-01 -3.24250218E-01
  2.72990376E-01 -7.43552776E-16 -1.74257348E-01  6.64189245E-02  3.27109257E-02
  5.93927871E-02 -4.58272234E-01  6.29636531E-01  1.43813958E-01 -1.15249939E-16
 -5.74639149E-02  4.29227887E-01 -2.05318110E-01 -6.20804143E-01  1.28519599E-15
  5.74880901E-02 -4.30730408E-01 -4.34074566E-01  5.10729363E-01 -1.23318654E-15
 -5.93927871E-02  4.58272234E-01  6.29636531E-01  1.43813958E-01 -1.41239002E-16
  5.74639149E-02 -4.29227887E-01 -2.05318110E-01 -6.20804143E-01  1.15226436E-15
 -5.74880901E-02  4.30730408E-01 -4.34074566E-01  5.10729363E-01 -1.14145328E-15
  2.78601385E-01 -3.03141200E-01 -2.78601385E-01  3.03141200E-01 -1.07607917E-02
  6.19047227E-02  2.64326464E-01  3.13087237E-02 -2.17382777E-16 -2.12917516E-03
  2.61400816E-02 -2.73159519E-02 -1.79895215E-01  4.03173430E-16  4.65852128E-02
 -4.99306046E-02  1.48100300E-01  1.07607917E-02 -6.19047227E-02  2.64326464E-01
  3.13087237E-02  6.93782656E-18  2.12917516E-03 -2.61400816E-02 -2.73159519E-02
 -1.79895215E-01  3.77132821E-16 -4.65852128E-02  4.99306046E-02 -1.48100300E-01
Alpha Orbital Energies                     R   N=          60
 -1.02540108E+01 -1.02539418E+01 -1.02220318E+01 -1.02219761E+01 -1.02198815E+01
 -1.02197962E+01 -1.02191698E+01 -1.02191670E+01 -1.02143348E+01 -1.02143347E+01
 -1.03261199E+00 -9.65334264E-01 -9.25757790E-01 -9.06467056E-01 -8.81673021E-01
 -7.85196733E-01 -7.63667732E-01 -7.22500286E-01 -7.07096373E-01 -6.56628802E-01
 -6.37144922E-01 -6.03323543E-01 -5.99942984E-01 -5.89683279E-01 -5.73083654E-01
 -5.58448392E-01 -5.42154199E-01 -5.39604006E-01 -4.98185289E-01 -4.97061430E-01
 -4.78782614E-01 -4.75375842E-01 -4.22355040E-01 -3.99485467E-01 -3.77432576E-01
 -1.66540552E-01 -1.13718529E-01 -8.96533253E-02 -3.20864575E-02  6.52437324E-02
  1.22896994E-01  1.31155114E-01  1.68178256E-01  1.83138207E-01  2.22461313E-01
  2.24622518E-01  2.36053087E-01  2.47506129E-01  2.77069329E-01  3.00353998E-01
  3.27300036E-01  3.66360635E-01  3.86161719E-01  4.05221822E-01  4.25926339E-01
  4.45595805E-01  4.84270023E-01  5.30732247E-01  5.92199718E-01  5.99749099E-01
Beta Orbital Energies                      R   N=          60
 -1.02510430E+01 -1.02509792E+01 -1.02215444E+01 -1.02214937E+01 -1.02197380E+01
 -1.02196954E+01 -1.02196803E+01 -1.02196332E+01 -1.02103597E+01 -1.02103596E+01
 -1.02621480E+00 -9.57332054E-01 -9.17700409E-01 -9.04552384E-01 -8.69867117E-01
 -7.80952194E-01 -7.58890589E-01 -7.18865824E-01 -7.03992090E-01 -6.54389641E-01
 -6.34813455E-01 -6.00579335E-01 -5.97494257E-01 -5.87004092E-01 -5.71988084E-01
 -5.55976693E-01 -5.37568293E-01 -5.25072013E-01 -4.96368626E-01 -4.95011844E-01
 -4.77738765E-01 -4.51196454E-01 -3.95620726E-01 -3.92772759E-01 -3.09891727E-01
 -1.38615640E-01 -1.04934859E-01 -6.94112619E-02 -1.02329143E-02  8.19362910E-02
  1.25503671E-01  1.33871647E-01  1.69893287E-01  1.85697130E-01  2.27129213E-01
  2.28909185E-01  2.37343828E-01  2.53363059E-01  2.83655841E-01  3.04789634E-01
  3.32508353E-01  3.69604770E-01  3.87594722E-01  4.08178481E-01  4.30098787E-01
  4.48219873E-01  4.88261298E-01  5.36032378E-01  5.96039355E-01  6.03366190E-01
Total SCF Density                          R   N=        1830
  2.06826001E+00 -2.12501343E-01  8.66092853E-01 -1.04385060E-03  3.21978841E-02
  6.36394372E-01 -1.48574212E-04  7.28635682E-03  6.96009337E-04  6.23002924E-01
 -3.42261317E-16 -1.56932693E-16  1.00998258E-15 -1.18369278E-15  6.59176177E-01
  2.52942117E-02 -6.56438129E-02  7.50505859E-02 -8.60718445E-02  2.76866571E-16
  2.06749526E+00 -6.50472036E-02  7.98685143E-02 -1.82652814E-01  2.09114488E-01
 -9.51446819E-16 -2.04511352E-01  8.28180913E-01 -7.68351670E-02  1.90801738E-01
 -1.87257457E-01  2.47194865E-01  2.50791646E-16 -3.11858804E-03  1.63142898E-02
  6.01058691E-01  8.69711491E-02 -2.25864911E-01  2.44914640E-01 -2.60537477E-01
  1.13109807E-15 -1.00496629E-02  5.63425927E-02  2.98593469E-02  6.48531285E-01
 -2.83081024E-16  1.08098341E-15  2.35605259E-16  5.69152380E-16  3.92683689E-01
  2.52836207E-16 -3.51787488E-16  1.05484838E-15 -6.55616231E-16  7.35034881E-01
 -4.65607609E-03  1.39501176E-02 -2.09988368E-02  8.97881413E-03 -3.84126892E-16
  2.51931972E-02 -6.53424137E-02  1.13117826E-01  2.58686237E-02 -4.57554506E-16
  2.06753221E+00  1.38046924E-02 -3.01284413E-02  7.98289800E-02 -2.40491254E-02
  6.30712940E-16 -6.54293639E-02  8.19708467E-02 -2.83436957E-01 -7.29570894E-02
  2.63091222E-15 -2.04556534E-01  8.28170909E-01  2.50415096E-02 -8.99150248E-02
  9.03497979E-02 -5.11771434E-02  6.75910586E-16 -1.13821254E-01  2.86676568E-01
 -4.50251925E-01 -9.73885334E-02  6.94765842E-16  6.08220211E-03 -3.32502233E-02
  6.32433484E-01 -6.68870752E-03  3.38908521E-02 -6.69042275E-03  2.75433674E-02
 -5.31097817E-16 -2.06628728E-02  4.41428092E-02 -9.43527509E-02 -3.36595740E-03
  6.96316688E-16 -7.39092423E-03  4.26221008E-02 -3.52692803E-02  6.23871085E-01
  5.84612695E-16 -3.28442415E-16  6.02029485E-16 -9.84636335E-16  3.59402493E-02
  2.99868927E-16 -7.25492330E-16  1.19979041E-15  1.07520449E-15  5.74241165E-01
  1.77583785E-16  9.28766619E-16  4.14815376E-16 -7.77166718E-17  7.31027803E-01
 -4.38385188E-03  1.50985660E-02 -1.32036753E-02 -3.02072709E-03  2.11221075E-16
 -4.67742082E-03  1.38022459E-02 -2.06113282E-02 -1.59092899E-02  2.28047010E-16
  2.53754493E-02 -6.51903845E-02  3.76386059E-02  1.07954277E-01 -1.34950834E-16
  2.06826001E+00  1.50985660E-02 -5.14781201E-02  4.89902091E-02  1.15297645E-02
 -1.16046658E-15  1.40079877E-02 -3.01065723E-02  7.03336072E-02  6.59265137E-02
 -1.29997528E-15 -6.56296465E-02  7.92433243E-02 -9.06177088E-02 -2.71731926E-01
 -6.42167958E-16 -2.12501343E-01  8.66092853E-01  1.32036753E-02 -4.89902091E-02
  4.42334772E-02  1.93948731E-02  5.74522282E-16  1.54572694E-02 -6.25726207E-02
  5.85506244E-02  2.02704887E-02 -1.09779382E-15 -3.46375665E-02  8.42883232E-02
 -1.74548902E-02 -1.51958430E-01  6.38310304E-16  1.04385060E-03 -3.21978841E-02
  6.36394372E-01  3.02072709E-03 -1.15297645E-02  1.93948731E-02 -5.47962232E-02
 -1.12526782E-15  1.60796304E-02 -5.13371001E-02  6.43929725E-02  5.78943202E-02
 -7.13720070E-16 -1.08589553E-01  2.64558198E-01 -1.46572579E-01 -4.28666875E-01
  5.55554771E-16  1.48574212E-04 -7.28635682E-03  6.96009337E-04  6.23002924E-01
  1.19853110E-16 -5.98246413E-16  1.83166531E-16  6.26616431E-17 -1.74610865E-01
 -2.27182841E-16  3.75837154E-16 -1.05460783E-16 -1.90666758E-16  2.29771809E-02
  3.09544903E-16 -1.26746292E-15  8.81290944E-16  1.50605339E-15  3.84217740E-01
 -9.89167622E-17  1.28145556E-15 -6.31533488E-16  4.12921665E-16  6.59176177E-01
 -4.67742082E-03  1.40079877E-02 -1.54572694E-02 -1.60796304E-02 -4.35996583E-16
 -4.32651264E-03  1.46340166E-02 -3.74457332E-03 -1.22165474E-02  4.17410471E-16
 -4.88373865E-03  1.51513308E-02  3.75418046E-03 -2.41167077E-02  6.35015923E-17
  2.52942117E-02 -6.56438129E-02 -7.50505859E-02  8.60718445E-02 -2.77241588E-16
  2.06749526E+00  1.38022459E-02 -3.01065723E-02  6.25726207E-02  5.13371001E-02
  5.40057295E-16  1.46340166E-02 -4.85666675E-02  1.35020724E-02  4.47248973E-02
 -3.94033169E-16  1.50772016E-02 -3.63526853E-02 -2.26390455E-02  8.80024871E-02
  4.89723327E-16 -6.50472036E-02  7.98685143E-02  1.82652814E-01 -2.09114488E-01
  2.62405861E-16 -2.04511352E-01  8.28180913E-01  2.06113282E-02 -7.03336072E-02
  5.85506244E-02  6.43929725E-02 -1.64805835E-16  3.74457332E-03 -1.35020724E-02
 -4.19658286E-02  3.00374388E-02  1.09718944E-17 -6.09288231E-03  1.44045998E-02
  1.94948188E-02 -3.90518954E-02 -6.53366479E-16  7.68351670E-02 -1.90801738E-01
 -1.87257457E-01  2.47194865E-01 -9.24060485E-17  3.11858804E-03 -1.63142898E-02
  6.01058691E-01  1.59092899E-02 -6.59265137E-02  2.02704887E-02  5.78943202E-02
  2.64350553E-16  1.22165474E-02 -4.47248973E-02  3.00374388E-02  3.26567325E-02
 -4.02703867E-17  2.38991436E-02 -9.10027216E-02  5.59086078E-03  1.00639752E-01
  1.74049439E-16 -8.69711491E-02  2.25864911E-01  2.44914640E-01 -2.60537477E-01
  1.26631049E-15  1.00496629E-02 -5.63425927E-02  2.98593469E-02  6.48531285E-01
 -5.90648481E-17 -3.90291806E-16  7.03298302E-19  3.81406400E-16  2.29771809E-02
 -3.15695204E-16  1.38616156E-16 -6.09444158E-16 -8.33353511E-16 -2.74930148E-01
  4.52437126E-16 -1.36232441E-15  7.43723954E-16 -1.31452503E-16 -1.14619950E-01
  1.78057063E-16  4.20163426E-16 -7.84719129E-16  1.87803263E-15  3.92683689E-01
  6.29278714E-16  2.15109493E-16  2.69499623E-16  2.81550859E-16  7.35034881E-01
  2.53754493E-02 -6.56296465E-02  3.46375665E-02  1.08589553E-01 -2.67296462E-16
 -4.88373865E-03  1.50772016E-02  6.09288231E-03 -2.38991436E-02  3.93608385E-16
 -4.31182303E-03  1.46001885E-02  8.17925201E-03 -9.90702852E-03  3.72125389E-16
 -4.65607609E-03  1.39501176E-02  2.09988368E-02 -8.97881413E-03 -4.10578845E-17
  2.51931972E-02 -6.53424137E-02 -1.13117826E-01 -2.58686237E-02 -2.22123146E-17
  2.06753221E+00 -6.51903845E-02  7.92433243E-02 -8.42883232E-02 -2.64558198E-01
  5.94638844E-16  1.51513308E-02 -3.63526853E-02 -1.44045998E-02  9.10027216E-02
 -1.70405822E-15  1.46001885E-02 -4.86052892E-02 -2.97328780E-02  3.63468449E-02
 -5.57318595E-16  1.38046924E-02 -3.01284413E-02 -7.98289800E-02  2.40491254E-02
  5.65995129E-16 -6.54293639E-02  8.19708467E-02  2.83436957E-01  7.29570894E-02
  4.23912892E-16 -2.04556534E-01  8.28170909E-01 -3.76386059E-02  9.06177088E-02
 -1.74548902E-02 -1.46572579E-01  2.53199553E-16 -3.75418046E-03  2.26390455E-02
  1.94948188E-02  5.59086078E-03 -1.24571891E-15 -8.17925201E-03  2.97328780E-02
 -8.49040012E-03 -4.84528289E-02  4.52284608E-18 -2.50415096E-02  8.99150248E-02
  9.03497979E-02 -5.11771434E-02  5.97213512E-16  1.13821254E-01 -2.86676568E-01
 -4.50251925E-01 -9.73885334E-02  1.20052112E-15 -6.08220211E-03  3.32502233E-02
  6.32433484E-01 -1.07954277E-01  2.71731926E-01 -1.51958430E-01 -4.28666875E-01
  1.52787894E-15  2.41167077E-02 -8.80024871E-02 -3.90518954E-02  1.00639752E-01
 -5.85414009E-16  9.90702852E-03 -3.63468449E-02 -4.84528289E-02 -8.78681814E-04
 -6.20412424E-16  6.68870752E-03 -3.38908521E-02 -6.69042275E-03  2.75433674E-02
  3.96945765E-17  2.06628728E-02 -4.41428092E-02 -9.43527509E-02 -3.36595740E-03
  1.32972793E-15  7.39092423E-03 -4.26221008E-02 -3.52692803E-02  6.23871085E-01
 -2.83661421E-16 -7.69312708E-16  4.31855171E-16  1.71385383E-15  3.84217740E-01
  3.16845874E-16 -8.27898904E-17  9.62978739E-17 -8.01128525E-16 -1.14619950E-01
  2.02460817E-16 -9.91953297E-16  7.22950520E-16 -6.74089147E-16 -2.71651465E-01
 -2.53714152E-16  3.75309196E-16  3.97857578E-16  2.67850034E-16  3.59402493E-02
 -2.11984132E-16  2.40412464E-16  4.09342398E-16  1.87497348E-15  5.74241165E-01
 -2.39835860E-16  3.24577028E-16  7.03891273E-16  3.27942433E-16  7.31027803E-01
  2.60016563E-02 -1.00891742E-01  3.08738992E-02 -1.19230382E-01  1.08652878E-15
 -1.14530555E-01  3.03035221E-01  1.72893760E-01  5.09337207E-01 -7.63800758E-16
  2.65614155E-02 -9.96861625E-02 -8.39885512E-02 -7.65414056E-02  7.32354596E-16
 -1.73916317E-02  6.66261957E-02  3.34653929E-02  9.07060418E-02  3.02733897E-16
 -2.07381806E-03  7.41134745E-03  3.83819258E-03  4.15862422E-03  2.74913467E-16
 -1.71007186E-02  6.49218137E-02  2.40880422E-02  9.32774898E-02  2.20837823E-16
  5.33109637E-01 -1.78833911E-02  6.88818923E-02 -6.48107285E-02  7.08722188E-02
  1.74333640E-16  2.66779149E-02 -9.98557187E-02  1.06779885E-01 -3.73058430E-02
 -7.04475135E-16 -1.14826033E-01  3.02000250E-01 -3.59958162E-01  4.01549197E-01
 -1.04831407E-15  2.56194895E-02 -9.83853514E-02  1.74735474E-02 -1.23478760E-01
  8.82924884E-16 -1.71577527E-02  6.47206031E-02 -5.84244561E-02  7.63291162E-02
  8.23413817E-16 -1.94208544E-03  6.83192223E-03 -5.23801825E-03  2.50107698E-03
  6.99252369E-16 -7.46449873E-02  5.40275427E-01 -1.73916317E-02  6.66261957E-02
 -3.34653929E-02 -9.07060418E-02  3.77614643E-16 -2.07381806E-03  7.41134745E-03
 -3.83819258E-03 -4.15862422E-03 -4.80348915E-16 -1.71007186E-02  6.49218137E-02
 -2.40880422E-02 -9.32774898E-02  7.48244418E-17  2.60016563E-02 -1.00891742E-01
 -3.08738992E-02  1.19230382E-01 -5.39261047E-16 -1.14530555E-01  3.03035221E-01
 -1.72893760E-01 -5.09337207E-01  1.24743977E-15  2.65614155E-02 -9.96861625E-02
  8.39885512E-02  7.65414056E-02 -5.14720002E-17  1.85883894E-02 -4.37961143E-02
  5.33109637E-01  2.56194895E-02 -9.83853514E-02 -1.74735474E-02  1.23478760E-01
  5.14074814E-17 -1.71577527E-02  6.47206031E-02  5.84244561E-02 -7.63291162E-02
  7.16858263E-16 -1.94208544E-03  6.83192223E-03  5.23801825E-03 -2.50107698E-03
  8.17783243E-16 -1.78833911E-02  6.88818923E-02  6.48107285E-02 -7.08722188E-02
 -6.27602994E-16  2.66779149E-02 -9.98557187E-02 -1.06779885E-01  3.73058430E-02
 -8.82760284E-16 -1.14826033E-01  3.02000250E-01  3.59958162E-01 -4.01549197E-01
  4.31362843E-16 -4.37961143E-02  1.86931895E-02 -7.46449873E-02  5.40275427E-01
 -1.82849094E-05  3.30932203E-04  6.75889739E-04 -4.27440675E-04  2.85933558E-16
  2.90691020E-03 -1.03894892E-02  1.50204086E-02  4.23116540E-03 -1.06000786E-16
 -4.87138871E-03  1.63992924E-02 -1.83001216E-02 -1.26710723E-02  1.37560639E-16
  1.91877543E-02 -5.33338131E-02  9.75957961E-02  2.06458508E-02  7.37404782E-17
 -5.70225933E-03  2.03772216E-02 -2.34025890E-02  1.87496808E-03  2.32301536E-16
  3.24993052E-03 -1.19514864E-02  1.67693662E-02  2.52591995E-03 -9.87824043E-17
  5.87150682E-03  1.24660754E-02  1.43359691E-02  5.60664785E-03  2.06823697E+00
  9.84974682E-04 -4.47501996E-03  1.07192457E-03  2.32413135E-03 -7.54090448E-17
 -1.10871267E-02  3.70500816E-02 -6.20276346E-02 -1.76928470E-02  3.92674075E-16
  1.70826762E-02 -5.13235068E-02  7.57801460E-02  4.29639371E-02 -6.85415764E-16
 -5.29624540E-02  9.12732452E-02 -2.73128257E-01 -5.53881421E-02 -4.83415984E-16
  2.22662077E-02 -7.36826251E-02  1.00080589E-01 -4.63990320E-03 -3.35003133E-16
 -1.30853972E-02  4.55321752E-02 -7.22161531E-02 -1.03020651E-02  6.95604549E-17
 -2.43348302E-02 -4.93278228E-02 -5.71615582E-02 -2.50359295E-02 -2.10087350E-01
  8.48734432E-01 -1.66172837E-03  6.64962934E-03 -7.88103922E-03 -2.52710186E-03
 -2.88491284E-16 -1.43042669E-02  5.57060705E-02 -7.65145953E-02 -1.86982113E-02
  3.26763463E-16  1.93468161E-02 -7.16167762E-02  6.41170838E-02  6.56333639E-02
 -4.12060212E-16 -9.94959289E-02  2.90942587E-01 -4.65307081E-01 -9.32635567E-02
 -7.45164580E-17  2.20116647E-02 -8.23642057E-02  8.73391118E-02 -4.23434719E-02
  2.17615859E-16 -1.45801648E-02  5.75670372E-02 -7.68994746E-02 -1.29259402E-02
  5.23121416E-18 -3.33561890E-02 -5.99626479E-02 -5.83393068E-02 -3.38463054E-02
  3.64454290E-03  1.78159517E-02  5.81113817E-01 -1.26506424E-03  5.58461907E-03
 -3.64599774E-03 -2.48207213E-03  9.23484762E-16 -5.90182107E-03  2.51685590E-02
 -2.63972054E-02 -3.30746819E-03  2.58917230E-15  1.50303895E-02 -6.08630557E-02
  2.65441360E-02  4.70329380E-02  5.28592404E-16 -2.51011166E-02  8.54343679E-02
 -1.18176729E-01 -2.15444257E-02  5.74462206E-16 -9.66243716E-03  4.31179828E-02
 -1.28179816E-02 -6.74188786E-03 -3.79150131E-16  2.75279798E-04 -2.80367343E-03
 -5.23093843E-03  2.30325290E-03 -2.11272113E-17 -1.18115051E-02 -2.97004470E-02
  1.41532781E-03 -6.73667631E-03  1.01154568E-02 -6.12781710E-02  5.39179187E-03
  6.55118726E-01 -4.41634959E-16 -2.41853827E-17  2.82301884E-16  3.13265165E-16
 -7.55220777E-02 -1.37850953E-16  7.19600279E-17 -5.32277352E-16 -1.14852112E-16
 -1.04447376E-01 -1.67307955E-16 -1.37576067E-15  5.68479455E-16 -1.63944832E-16
  6.59171365E-03 -1.02546741E-16  1.48379739E-15  8.75800024E-16  4.92961459E-16
  2.71644947E-01 -6.24294252E-16  2.13734931E-16 -1.97545999E-16 -5.91437051E-16
  1.87744764E-03  9.57098731E-18  1.30223153E-15  8.77562522E-16 -1.29576818E-16
 -9.66164978E-02  1.68366333E-16  7.85391676E-16  3.69488766E-16 -9.40263402E-16
  7.16449096E-16 -9.15272084E-16 -6.21478611E-16 -6.89581988E-16  7.26675528E-01
 -4.35511300E-04  1.78941791E-03 -1.66548901E-03  1.06027764E-03 -7.67992481E-17
  9.47529067E-04 -3.23245101E-03  3.56823811E-03  6.99032238E-04  4.00745505E-16
 -3.55525527E-03  1.20885631E-02 -1.14318643E-02  1.46103594E-03 -2.12335175E-16
 -4.82009723E-03  1.70717286E-02 -2.28692820E-02  4.90628620E-03  6.70108042E-16
  3.01982132E-03 -1.13037674E-02  9.89991899E-03 -5.40236731E-03  3.20256586E-16
 -1.28595858E-03  5.16044795E-03 -6.03455948E-03 -4.39739243E-04  1.31544669E-17
 -3.81162158E-04  7.05549798E-03 -3.16705017E-03 -2.73079546E-03  2.93407019E-02
 -7.34027128E-02  8.28300285E-02 -9.18643306E-02 -8.33360742E-16  2.06959606E+00
  1.62833431E-03 -6.40846950E-03  6.61696693E-03 -4.63887174E-03 -3.24487336E-16
 -3.59602690E-03  1.18273788E-02 -1.46516569E-02 -2.33475772E-03 -1.49854757E-15
  1.16750875E-02 -3.97034121E-02  4.32915707E-02 -5.98689959E-03 -3.62238345E-16
  1.37645386E-02 -4.19757263E-02  7.35614254E-02 -2.43443274E-02  7.04145988E-16
 -1.04570110E-02  3.57279396E-02 -3.86762917E-02  1.78038255E-02  9.15768552E-16
  4.77990748E-03 -1.79933663E-02  2.38993290E-02  6.66689236E-04  7.08234679E-16
  7.01564278E-04 -2.49973610E-02  1.03515228E-02  1.07203545E-02 -7.38094224E-02
  8.01983594E-02 -1.85320956E-01  2.17294670E-01  1.82208696E-15 -2.12289323E-01
  8.52172290E-01  1.18723751E-03 -5.84165578E-03  3.69254594E-03 -8.66017642E-04
 -9.30942425E-18 -1.69548501E-03  5.15770565E-03 -4.25238449E-03 -4.67638682E-03
 -1.87486496E-15  9.80439622E-03 -3.72830256E-02  2.86949621E-02 -7.42490999E-05
  7.52855196E-16  2.46715161E-02 -1.04002084E-01  1.05996483E-01 -8.61441638E-04
 -8.69338573E-16 -1.04756478E-02  4.29032491E-02 -3.03711247E-02  2.64928147E-02
 -4.79702741E-17  4.74157191E-03 -2.10373462E-02  2.15265935E-02  3.98992113E-03
  3.00129497E-17  1.50191322E-03  6.45324956E-03  1.40734955E-02  1.15108783E-02
 -9.10549971E-02  2.16933866E-01 -1.91987116E-01  2.46574602E-01 -1.73839871E-17
  7.06210675E-03 -5.29898805E-02  6.68182723E-01  2.45746433E-03 -1.03540625E-02
  8.23292083E-03 -9.11246265E-03  5.13991384E-16 -3.66856775E-03  1.48220328E-02
 -1.88340686E-02  7.58663649E-04 -2.19504775E-15  7.49161888E-03 -3.04202250E-02
  3.75760639E-02 -5.25936322E-02  1.74406718E-15 -1.98155663E-03  1.06510053E-05
 -2.86788524E-02  1.11613883E-02 -1.46230141E-15  8.63554968E-03 -3.37901791E-02
  3.25916645E-02 -1.54882007E-02 -7.73515219E-17 -2.95705127E-03  1.12725525E-02
 -1.72328760E-02 -1.83022620E-03  2.71480120E-16  8.11527164E-03 -3.02592319E-02
 -1.85290017E-03 -9.32917055E-03  8.71304908E-02 -2.00302978E-01  2.46722395E-01
 -2.19714718E-01  1.88276957E-15 -6.02089296E-03  4.64665637E-02  3.52627116E-02
  6.52824642E-01 -1.45959987E-16 -1.15278888E-16  5.21073512E-16  5.81414441E-16
  1.20054304E-02  5.22454657E-16 -9.81342174E-17 -6.96205301E-16 -5.35267443E-17
 -7.26310048E-02 -2.99854319E-16 -5.92345929E-16  4.56059726E-16  1.45833602E-16
 -8.70368588E-02 -2.35358093E-16  9.83160067E-16  4.25140756E-16  5.22743447E-17
  8.14773962E-02  8.20982723E-16 -1.29458540E-15  7.29417205E-17  4.35803738E-17
 -1.06826885E-01 -4.35132827E-16  7.10094681E-16  6.96197741E-16 -5.60895459E-16
 -8.14810185E-02 -1.46858675E-16  6.79162414E-16 -8.07533791E-16 -4.00364110E-16
 -6.00874555E-16  2.48088659E-16 -9.13677998E-16  1.46516554E-15  6.61246269E-01
 -7.04277398E-16  7.26953993E-16 -2.18380148E-18 -1.01054726E-15  6.64204811E-01
  1.19604467E-03 -6.07566453E-03  3.73042229E-03 -4.97499650E-03  1.20354518E-15
  6.26718345E-03 -2.56307266E-02  3.04845814E-02  1.02672289E-02  4.01948414E-16
 -1.41793675E-02  5.45664614E-02 -2.68811484E-02 -7.36497939E-02  1.92532560E-15
  2.69460971E-02 -1.11213993E-01  1.16013338E-01  6.66112093E-02 -5.37427849E-16
  1.10203589E-02 -4.12527903E-02  3.33133002E-02 -1.43317895E-02 -5.20243545E-16
 -1.25172288E-03  3.05253279E-03 -3.35045641E-03  6.06691939E-03 -6.14660653E-17
  2.20911164E-02  1.34406832E-02  1.66039134E-02 -3.85521121E-03 -1.14461998E-01
  2.98327991E-01 -1.30315283E-01 -5.21672199E-01  2.54571022E-16  2.74039583E-02
 -9.04330976E-02 -1.69572125E-02  1.21661824E-01 -9.97114159E-16  5.36613358E-01
 -1.74944794E-03  7.76885716E-03 -5.92923135E-03  1.76748139E-03 -1.04304697E-15
 -3.16588638E-04  2.01497389E-03 -4.16672707E-03 -1.49615885E-04  1.24111884E-15
 -3.87892547E-03  1.46179845E-02 -1.57167591E-02  2.37460295E-02 -1.46967247E-15
 -2.22109804E-02  9.44514101E-02 -1.17468582E-01 -1.35773712E-02  2.95280314E-16
  5.67981254E-03 -2.28120976E-02  2.22949386E-02 -2.19727487E-02 -5.77024776E-16
 -3.94747878E-03  1.66268357E-02 -2.07316310E-02 -2.41859433E-03 -7.82348266E-16
 -7.71381852E-03 -7.23253860E-03 -1.21590024E-02 -1.14991331E-02  2.83438375E-02
 -9.15726387E-02  9.84392883E-02 -2.40047587E-02 -8.41943957E-16 -1.10966129E-01
  2.88447366E-01 -5.25524553E-01 -1.36910990E-01 -2.45839771E-16 -8.93871934E-02
  5.20396922E-01  1.36852189E-03 -7.15446877E-03  2.15323754E-03 -6.17338493E-04
  1.46070466E-15  2.51891895E-04 -2.03088170E-04  7.15080912E-03 -2.16256892E-03
 -9.44649644E-16  6.63260127E-03 -2.23399026E-02  1.22341075E-02 -3.61683089E-02
  2.66679421E-15  1.64205005E-02 -6.92631623E-02  8.30770593E-02  3.45261095E-03
 -1.94595710E-15 -1.01613725E-03  1.17639484E-03 -7.88263352E-03  1.27420255E-02
 -9.43263092E-16  1.65144936E-03 -6.53500248E-03  9.19170511E-03 -9.05614157E-05
 -1.43969116E-17  8.45380696E-03  8.73666206E-03  5.75357473E-03  6.63365925E-03
  2.29060924E-02 -7.26628846E-02  3.21937387E-02 -1.22893430E-01  6.55510911E-16
 -1.09667535E-01  2.79143630E-01  1.54513033E-01  5.27792720E-01 -1.60915103E-15
  1.35945186E-01 -1.42968849E-01  5.43228807E-01  1.91877543E-02 -5.33338131E-02
 -9.75957961E-02 -2.06458508E-02 -3.99107555E-16 -5.70225933E-03  2.03772216E-02
  2.34025890E-02 -1.87496808E-03  5.03110504E-16  3.24993052E-03 -1.19514864E-02
 -1.67693662E-02 -2.52591995E-03  9.30868655E-16 -1.82849094E-05  3.30932203E-04
 -6.75889739E-04  4.27440675E-04 -7.31972541E-16  2.90691020E-03 -1.03894892E-02
 -1.50204086E-02 -4.23116540E-03  3.71881059E-16 -4.87138871E-03  1.63992924E-02
  1.83001216E-02  1.26710723E-02  3.30873570E-16  1.43359691E-02  5.60664785E-03
  5.87150682E-03  1.24660754E-02  6.87543658E-04 -3.25828562E-03 -2.87606981E-03
 -3.54524988E-04 -4.17791184E-16  7.08737010E-05 -2.87112985E-04 -1.78466001E-05
 -1.32932147E-03 -4.59997037E-17  4.56531413E-04 -6.06847625E-05  8.25851704E-05
  2.06823697E+00 -5.29624540E-02  9.12732452E-02  2.73128257E-01  5.53881421E-02
 -7.39370177E-16  2.22662077E-02 -7.36826251E-02 -1.00080589E-01  4.63990320E-03
 -1.00875551E-15 -1.30853972E-02  4.55321752E-02  7.22161531E-02  1.03020651E-02
 -8.44038066E-16  9.84974682E-04 -4.47501996E-03 -1.07192457E-03 -2.32413135E-03
  1.84108009E-16 -1.10871267E-02  3.70500816E-02  6.20276346E-02  1.76928470E-02
  4.51858056E-16  1.70826762E-02 -5.13235068E-02 -7.57801460E-02 -4.29639371E-02
  7.37222874E-17 -5.71615582E-02 -2.50359295E-02 -2.43348302E-02 -4.93278228E-02
 -3.25828562E-03  1.48629500E-02  1.39319225E-02  1.88562727E-03  3.78317298E-16
 -2.80451109E-04  1.13519488E-03 -6.14828611E-06  6.09023678E-03  4.58346657E-16
 -2.15348502E-03  4.67732749E-04 -1.89994024E-04 -2.10087350E-01  8.48734432E-01
  9.94959289E-02 -2.90942587E-01 -4.65307081E-01 -9.32635567E-02  3.16570161E-16
 -2.20116647E-02  8.23642057E-02  8.73391118E-02 -4.23434719E-02  2.11813816E-16
  1.45801648E-02 -5.75670372E-02 -7.68994746E-02 -1.29259402E-02  3.87598688E-16
  1.66172837E-03 -6.64962934E-03 -7.88103922E-03 -2.52710186E-03  1.35052479E-16
  1.43042669E-02 -5.57060705E-02 -7.65145953E-02 -1.86982113E-02 -1.19181546E-16
 -1.93468161E-02  7.16167762E-02  6.41170838E-02  6.56333639E-02 -8.38215244E-17
  5.83393068E-02  3.38463054E-02  3.33561890E-02  5.99626479E-02  2.87606981E-03
 -1.39319225E-02 -1.06422953E-02 -3.87950221E-04  3.81424865E-17  4.63522047E-04
 -1.91571706E-03 -3.50173875E-04 -7.32223170E-03 -8.02496445E-19  7.90552822E-04
  6.78578394E-04  5.59072616E-05 -3.64454290E-03 -1.78159517E-02  5.81113817E-01
  2.51011166E-02 -8.54343679E-02 -1.18176729E-01 -2.15444257E-02  7.27275813E-17
  9.66243716E-03 -4.31179828E-02 -1.28179816E-02 -6.74188786E-03 -1.05134337E-15
 -2.75279798E-04  2.80367343E-03 -5.23093843E-03  2.30325290E-03 -6.41592921E-16
  1.26506424E-03 -5.58461907E-03 -3.64599774E-03 -2.48207213E-03  6.91521659E-17
  5.90182107E-03 -2.51685590E-02 -2.63972054E-02 -3.30746819E-03  5.32314771E-16
 -1.50303895E-02  6.08630557E-02  2.65441360E-02  4.70329380E-02  1.11502306E-16
 -1.41532781E-03  6.73667631E-03  1.18115051E-02  2.97004470E-02  3.54524988E-04
 -1.88562727E-03 -3.87950221E-04  5.34761579E-04  1.08167504E-15  1.00207843E-05
  1.66198691E-04 -1.14374320E-04 -1.57361323E-03  1.19010074E-15 -6.30841293E-04
  4.18820847E-04 -8.40609512E-04 -1.01154568E-02  6.12781710E-02  5.39179187E-03
  6.55118726E-01  4.54306308E-16 -1.26442289E-15  5.99042697E-16 -5.35163376E-16
  2.71644947E-01  4.41551993E-16  9.40348104E-16  2.06852692E-16 -4.11328976E-16
  1.87744764E-03 -2.92233180E-16 -1.31759467E-16  3.42804050E-16 -1.15692940E-15
 -9.66164978E-02  4.45402724E-17  6.93660459E-16  2.74945900E-17 -1.15373223E-15
 -7.55220777E-02  3.00370833E-16 -5.13684562E-17  4.83135501E-16 -9.90445632E-16
 -1.04447376E-01 -2.86531663E-16  6.36617054E-16  1.83352125E-16 -1.03694258E-16
  6.59171365E-03  5.84851901E-16  8.02187907E-16 -5.28158174E-16 -1.03406489E-15
  5.74336401E-17 -6.74723203E-16 -5.37616095E-17  1.10356987E-15  8.73952615E-02
  8.00654559E-16 -4.86917551E-16 -1.13300259E-16 -1.55910977E-15  8.93858489E-02
 -9.91238558E-17 -2.94735444E-16 -6.77773514E-16  1.41896103E-16  1.60647249E-16
  3.01156584E-16  7.51870178E-16  7.26675528E-01 -4.82009723E-03  1.70717286E-02
  2.28692820E-02 -4.90628620E-03 -1.24849864E-16  3.01982132E-03 -1.13037674E-02
 -9.89991899E-03  5.40236731E-03 -2.89457793E-17 -1.28595858E-03  5.16044795E-03
  6.03455948E-03  4.39739243E-04  6.96807000E-17 -4.35511300E-04  1.78941791E-03
  1.66548901E-03 -1.06027764E-03 -3.59420185E-16  9.47529067E-04 -3.23245101E-03
 -3.56823811E-03 -6.99032238E-04 -7.80286458E-17 -3.55525527E-03  1.20885631E-02
  1.14318643E-02 -1.46103594E-03 -1.22829723E-16 -3.16705017E-03 -2.73079546E-03
 -3.81162158E-04  7.05549798E-03  7.08737010E-05 -2.80451109E-04 -4.63522047E-04
 -1.00207843E-05  5.52009099E-16 -1.56160373E-04  6.49517759E-04  4.43880576E-04
  2.09127676E-04 -3.21933333E-16 -2.00731680E-04 -4.42024958E-04  1.33075037E-04
  2.93407019E-02 -7.34027128E-02 -8.28300285E-02  9.18643306E-02 -7.12430561E-17
  2.06959606E+00  1.37645386E-02 -4.19757263E-02 -7.35614254E-02  2.43443274E-02
 -3.06324118E-16 -1.04570110E-02  3.57279396E-02  3.86762917E-02 -1.78038255E-02
  1.91952013E-16  4.77990748E-03 -1.79933663E-02 -2.38993290E-02 -6.66689236E-04
  6.10616199E-17  1.62833431E-03 -6.40846950E-03 -6.61696693E-03  4.63887174E-03
  3.38558492E-17 -3.59602690E-03  1.18273788E-02  1.46516569E-02  2.33475772E-03
  6.84067739E-17  1.16750875E-02 -3.97034121E-02 -4.32915707E-02  5.98689959E-03
  5.86137017E-17  1.03515228E-02  1.07203545E-02  7.01564278E-04 -2.49973610E-02
 -2.87112985E-04  1.13519488E-03  1.91571706E-03 -1.66198691E-04 -3.57861867E-16
  6.49517759E-04 -2.61508221E-03 -2.00544826E-03 -8.01578386E-04  1.09212456E-16
  8.63089678E-04  1.85823439E-03 -7.20352992E-04 -7.38094224E-02  8.01983594E-02
  1.85320956E-01 -2.17294670E-01 -8.98029391E-17 -2.12289323E-01  8.52172290E-01
 -2.46715161E-02  1.04002084E-01  1.05996483E-01 -8.61441638E-04  2.86568575E-18
  1.04756478E-02 -4.29032491E-02 -3.03711247E-02  2.64928147E-02  5.59746908E-16
 -4.74157191E-03  2.10373462E-02  2.15265935E-02  3.98992113E-03  3.40334190E-16
 -1.18723751E-03  5.84165578E-03  3.69254594E-03 -8.66017642E-04 -8.85015040E-16
  1.69548501E-03 -5.15770565E-03 -4.25238449E-03 -4.67638682E-03 -4.15361003E-16
 -9.80439622E-03  3.72830256E-02  2.86949621E-02 -7.42490999E-05 -1.94645404E-16
 -1.40734955E-02 -1.15108783E-02 -1.50191322E-03 -6.45324956E-03  1.78466001E-05
  6.14828611E-06 -3.50173875E-04 -1.14374320E-04 -5.88352412E-16 -4.43880576E-04
  2.00544826E-03  8.12773021E-04  1.26914116E-03  3.58525560E-16 -5.89166015E-04
 -1.11329085E-03 -6.18448483E-05  9.10549971E-02 -2.16933866E-01 -1.91987116E-01
  2.46574602E-01 -1.20177684E-15 -7.06210675E-03  5.29898805E-02  6.68182723E-01
  1.98155663E-03 -1.06510053E-05 -2.86788524E-02  1.11613883E-02 -2.07210193E-17
 -8.63554968E-03  3.37901791E-02  3.25916645E-02 -1.54882007E-02 -2.54850381E-16
  2.95705127E-03 -1.12725525E-02 -1.72328760E-02 -1.83022620E-03 -1.17853140E-16
 -2.45746433E-03  1.03540625E-02  8.23292083E-03 -9.11246265E-03  1.61309658E-16
  3.66856775E-03 -1.48220328E-02 -1.88340686E-02  7.58663649E-04 -2.64033454E-16
 -7.49161888E-03  3.04202250E-02  3.75760639E-02 -5.25936322E-02 -1.28324471E-16
  1.85290017E-03  9.32917055E-03 -8.11527164E-03  3.02592319E-02  1.32932147E-03
 -6.09023678E-03 -7.32223170E-03 -1.57361323E-03  4.38017116E-16 -2.09127676E-04
  8.01578386E-04  1.26914116E-03 -2.68043801E-03  4.19764084E-16 -8.40485847E-06
 -1.52960051E-03  9.51104787E-04 -8.71304908E-02  2.00302978E-01  2.46722395E-01
 -2.19714718E-01  1.38435476E-15  6.02089296E-03 -4.64665637E-02  3.52627116E-02
  6.52824642E-01  5.83510811E-17 -1.17313238E-15  9.42361507E-16 -4.62227736E-16
  8.14773962E-02  2.04958835E-16  9.08473717E-16 -6.10911115E-17 -4.37797535E-16
 -1.06826885E-01  5.72163675E-16 -9.60670281E-16  5.70825760E-16 -7.90427361E-16
 -8.14810185E-02 -1.25605450E-16  8.32864432E-16  4.76632050E-16 -1.57008338E-15
  1.20054304E-02  1.56829173E-16 -1.87889258E-16  7.63178927E-17 -4.25860302E-16
 -7.26310048E-02 -1.76787835E-16  7.37818619E-16  7.00454856E-16 -5.16625012E-16
 -8.70368588E-02  4.11452237E-16  7.31832606E-16 -9.60031826E-16 -6.89837243E-16
  2.36488867E-17 -1.10635380E-15  1.33255708E-16  4.28811110E-17  8.93858489E-02
 -5.14247633E-17  4.54826315E-16  1.10228021E-16  5.17108272E-17  5.63341897E-02
  2.45097399E-16 -3.35429721E-16  7.59291732E-16  4.13606372E-16 -3.55710780E-16
 -1.13784846E-15  2.13197735E-15  6.61246269E-01  5.83906970E-16 -3.87530629E-16
 -2.63809437E-16 -5.61766871E-16  6.64204811E-01  2.69460971E-02 -1.11213993E-01
 -1.16013338E-01 -6.66112093E-02  2.94723425E-16  1.10203589E-02 -4.12527903E-02
 -3.33133002E-02  1.43317895E-02  9.29286259E-16 -1.25172288E-03  3.05253279E-03
  3.35045641E-03 -6.06691939E-03  1.07173132E-15  1.19604467E-03 -6.07566453E-03
 -3.73042229E-03  4.97499650E-03 -4.21367075E-16  6.26718345E-03 -2.56307266E-02
 -3.04845814E-02 -1.02672289E-02 -5.82564999E-16 -1.41793675E-02  5.45664614E-02
  2.68811484E-02  7.36497939E-02 -7.89630815E-16  1.66039134E-02 -3.85521121E-03
  2.20911164E-02  1.34406832E-02  4.56531413E-04 -2.15348502E-03 -7.90552822E-04
  6.30841293E-04 -9.84420104E-16 -2.00731680E-04  8.63089678E-04  5.89166015E-04
  8.40485847E-06 -5.75012170E-16  3.90414313E-04 -3.06220982E-04  8.57622569E-05
 -1.14461998E-01  2.98327991E-01  1.30315283E-01  5.21672199E-01 -6.66812022E-16
  2.74039583E-02 -9.04330976E-02  1.69572125E-02 -1.21661824E-01 -3.20133004E-17
  5.36613358E-01 -2.22109804E-02  9.44514101E-02  1.17468582E-01  1.35773712E-02
 -2.84272124E-16  5.67981254E-03 -2.28120976E-02 -2.22949386E-02  2.19727487E-02
 -4.85702317E-16 -3.94747878E-03  1.66268357E-02  2.07316310E-02  2.41859433E-03
 -1.62594486E-16 -1.74944794E-03  7.76885716E-03  5.92923135E-03 -1.76748139E-03
  5.52116888E-17 -3.16588638E-04  2.01497389E-03  4.16672707E-03  1.49615885E-04
  5.44103768E-16 -3.87892547E-03  1.46179845E-02  1.57167591E-02 -2.37460295E-02
  2.86981076E-16 -1.21590024E-02 -1.14991331E-02 -7.71381852E-03 -7.23253860E-03
 -6.06847625E-05  4.67732749E-04 -6.78578394E-04 -4.18820847E-04 -2.12103996E-16
 -4.42024958E-04  1.85823439E-03  1.11329085E-03  1.52960051E-03  3.68052144E-16
 -3.06220982E-04 -1.41912745E-03  5.03226333E-04  2.83438375E-02 -9.15726387E-02
 -9.84392883E-02  2.40047587E-02  4.04166159E-16 -1.10966129E-01  2.88447366E-01
  5.25524553E-01  1.36910990E-01  9.92580348E-16 -8.93871934E-02  5.20396922E-01
  1.64205005E-02 -6.92631623E-02 -8.30770593E-02 -3.45261095E-03 -1.80499187E-16
 -1.01613725E-03  1.17639484E-03  7.88263352E-03 -1.27420255E-02 -7.36502079E-17
  1.65144936E-03 -6.53500248E-03 -9.19170511E-03  9.05614157E-05  1.97193449E-17
  1.36852189E-03 -7.15446877E-03 -2.15323754E-03  6.17338493E-04  1.41232974E-16
  2.51891895E-04 -2.03088170E-04 -7.15080912E-03  2.16256892E-03  5.51638384E-18
  6.63260127E-03 -2.23399026E-02 -1.22341075E-02  3.61683089E-02 -2.42607650E-16
  5.75357473E-03  6.63365925E-03  8.45380696E-03  8.73666206E-03  8.25851704E-05
 -1.89994024E-04 -5.59072616E-05  8.40609512E-04  1.06495696E-16  1.33075037E-04
 -7.20352992E-04  6.18448483E-05 -9.51104787E-04  6.76064159E-17  8.57622569E-05
  5.03226333E-04 -4.14495541E-04  2.29060924E-02 -7.26628846E-02 -3.21937387E-02
  1.22893430E-01 -5.32095717E-17 -1.09667535E-01  2.79143630E-01 -1.54513033E-01
 -5.27792720E-01  1.23660479E-15  1.35945186E-01 -1.42968849E-01  5.43228807E-01
Spin SCF Density                           R   N=        1830
  8.69861842E-04 -4.14830781E-03  1.77342315E-02 -3.17157958E-04  1.37099301E-03
  6.86696892E-03 -1.54560111E-04  6.85982124E-04  3.03126143E-04  4.12640972E-03
  1.61539535E-17  2.45307574E-16 -4.79808334E-16  1.30834008E-15  1.78849617E-01
 -9.71514960E-05  1.03716555E-04  1.43093769E-04 -3.50060186E-05 -1.50745987E-16
 -8.89823205E-05  9.07460822E-04 -2.61229959E-03  1.38311295E-04 -5.44239233E-04
  2.91083656E-16  3.68173288E-04 -9.93117252E-04  4.05683903E-04 -3.05964168E-04
 -2.57945361E-04 -3.68529530E-05 -7.33701403E-16  3.61050051E-04 -1.50446361E-03
 -2.67015561E-03 -4.05148152E-04  1.07130957E-05  3.76877798E-04 -3.00233977E-04
  6.03948554E-16 -6.79391291E-04  2.99854604E-03  2.41030705E-03 -2.36070789E-03
  8.24721173E-17 -8.40383970E-17 -2.24537180E-16  5.66340921E-16  8.43992474E-02
  1.07393773E-16 -2.68229615E-16 -5.80995321E-16  5.59948672E-16  1.67353084E-02
  1.65249411E-05 -1.52964510E-05 -8.28351303E-05 -2.45741804E-06  5.24993681E-17
  7.16041828E-06  4.05092849E-05 -8.14118483E-05  1.59840145E-04  2.28284994E-16
  2.76198926E-05 -1.09125653E-04  3.12337147E-04  3.25100638E-04  2.89614920E-05
 -8.16397626E-16 -6.24197258E-05 -1.24669135E-04 -2.21867952E-04 -7.98531697E-04
 -1.17909136E-15 -1.87961572E-04  1.30854675E-03  1.08949387E-04 -8.04154028E-04
  9.44451347E-04 -3.46125714E-04  9.30978102E-17 -7.25134326E-05  4.75024840E-04
  4.98934381E-04 -4.83587052E-04 -2.58247880E-17 -1.62562350E-04  6.14337205E-04
  2.74555693E-04 -9.83723742E-07  1.59748543E-05  2.82525466E-04  8.83420577E-05
  1.22658497E-16  1.53981899E-04 -6.09318579E-04  5.87394791E-04  1.53035116E-04
  1.02520244E-16 -7.67044855E-04  3.36121563E-03 -1.70073011E-03 -3.34338555E-03
 -3.95526985E-17  8.31736210E-17 -1.65292235E-16  3.71132606E-16 -7.50993565E-02
 -1.05128080E-16  4.52171387E-16 -1.50500410E-16 -3.62159259E-16 -5.53244260E-02
 -9.44297042E-17  1.34619930E-16 -6.00762375E-17 -2.25282167E-16  3.73375468E-02
  2.41953732E-05 -5.33121828E-05  6.90175380E-06 -2.59895696E-07 -3.52329015E-16
  1.54298802E-05 -1.16741457E-04 -1.05911290E-04 -4.35864868E-05 -8.12381097E-17
 -1.21548603E-04  9.72915707E-04 -2.07249002E-04 -5.42856274E-04 -8.72868465E-17
  8.69861842E-04 -5.33121828E-05 -3.46499651E-06  1.72407910E-04  6.15933969E-05
  1.45230770E-15 -8.11466306E-06  3.43995066E-04  7.60555458E-04  3.28071013E-04
  3.66992749E-16  2.67737045E-04 -3.13450759E-03  2.76968775E-04  3.98550855E-04
  4.51377456E-16 -4.14830781E-03  1.77342315E-02 -6.90175380E-06 -1.72407910E-04
  2.50443068E-04  2.80547473E-05 -7.36366088E-16  9.11870988E-05 -3.41795636E-04
  8.96800496E-04  4.23387047E-05  6.92513660E-16 -1.12859005E-04  1.58669362E-04
 -2.52910110E-04 -4.24486962E-04 -7.84327642E-16  3.17157958E-04 -1.37099301E-03
  6.86696892E-03  2.59895696E-07 -6.15933969E-05  2.80547473E-05  4.92205511E-05
  5.26028765E-16  3.02533136E-05 -5.41644546E-05  7.13649875E-04  2.25331334E-04
 -4.17470973E-17 -3.13552561E-05 -5.59942546E-04  2.86712225E-05 -6.28235852E-04
  5.78882852E-16  1.54560111E-04 -6.85982124E-04  3.03126143E-04  4.12640972E-03
 -2.64328690E-17 -6.53932319E-17  2.24509940E-16 -1.25581791E-15 -1.41454169E-01
  5.53469916E-17  6.60782517E-17  7.36877877E-16  4.58348666E-16 -6.84128576E-02
 -3.21503256E-18  6.00422128E-16 -2.62964614E-16 -3.64415799E-16  9.40835258E-02
  3.11387925E-16 -1.28623368E-15  1.23299142E-15 -6.11932070E-16  1.78849617E-01
  1.54298802E-05 -8.11466306E-06 -9.11870988E-05 -3.02533136E-05  1.71793385E-16
  1.04579364E-05 -5.20846345E-05  1.84805428E-05  6.92599841E-05 -1.63135174E-16
 -1.62442623E-05  4.92201429E-05  1.16779879E-06 -1.94023553E-04  1.88257878E-16
 -9.71514960E-05  1.03716555E-04 -1.43093769E-04  3.50060185E-05 -1.17043386E-16
 -8.89823205E-05 -1.16741457E-04  3.43995066E-04  3.41795636E-04  5.41644546E-05
 -6.13296790E-16 -5.20846345E-05  1.95319185E-04 -1.61290211E-04 -3.17417590E-04
  4.53583804E-16  3.51231237E-05  1.23782031E-04 -2.33186543E-05  6.60275267E-04
 -5.06961966E-16  9.07460822E-04 -2.61229959E-03 -1.38311295E-04  5.44239233E-04
 -1.54422294E-17  3.68173288E-04 -9.93117252E-04  1.05911290E-04 -7.60555458E-04
  8.96800496E-04  7.13649875E-04  2.98338446E-16 -1.84805428E-05  1.61290211E-04
  2.76685556E-04 -1.21625623E-04 -5.06855681E-16 -8.59461502E-05  3.01956185E-04
  4.62953604E-05 -7.12686456E-04  3.39669537E-16 -4.05683903E-04  3.05964168E-04
 -2.57945361E-04 -3.68529530E-05 -3.22223141E-16 -3.61050051E-04  1.50446361E-03
 -2.67015561E-03  4.35864868E-05 -3.28071013E-04  4.23387047E-05  2.25331334E-04
 -5.12008187E-16 -6.92599841E-05  3.17417590E-04 -1.21625623E-04 -2.67199871E-04
 -1.84983449E-16  1.82891020E-04 -6.92542107E-04  1.85383608E-04  1.17683134E-03
 -4.23080931E-16  4.05148152E-04 -1.07130957E-05  3.76877798E-04 -3.00233977E-04
  3.57462038E-16  6.79391291E-04 -2.99854604E-03  2.41030705E-03 -2.36070789E-03
 -7.63538478E-17  3.73615280E-16 -1.18998048E-16 -1.00574866E-16 -6.84128576E-02
  4.53437179E-17  3.81097037E-16  1.25639256E-16 -2.58069445E-17 -4.99178814E-02
 -1.14417488E-16  5.26738020E-16  7.50205306E-17 -1.91445773E-16  2.67255963E-02
 -7.89530355E-18  1.28126769E-16 -2.79554415E-16  1.03960552E-16  8.43992474E-02
  1.09917111E-16 -6.59330380E-16  1.81618223E-16 -6.69895117E-16  1.67353084E-02
 -1.21548603E-04  2.67737045E-04  1.12859005E-04  3.13552561E-05  6.57292387E-17
 -1.62442623E-05  3.51231237E-05  8.59461502E-05 -1.82891020E-04 -1.95564921E-16
  9.04123986E-06 -3.76603164E-05 -3.43400634E-05  4.84264917E-05  1.05109336E-16
  1.65249411E-05 -1.52964510E-05  8.28351303E-05  2.45741804E-06 -1.09707917E-16
  7.16041828E-06  4.05092849E-05  8.14118483E-05 -1.59840145E-04  1.20579197E-16
  2.76198925E-05  9.72915707E-04 -3.13450759E-03 -1.58669362E-04  5.59942546E-04
  1.84565828E-16  4.92201429E-05  1.23782031E-04 -3.01956185E-04  6.92542107E-04
  9.30258177E-16 -3.76603164E-05  1.07578090E-04  2.17314503E-04 -1.66806937E-04
 -3.55911078E-17 -1.09125653E-04  3.12337147E-04 -3.25100638E-04 -2.89614920E-05
  1.09789126E-16 -6.24197258E-05 -1.24669135E-04  2.21867952E-04  7.98531697E-04
 -3.18083746E-16 -1.87961572E-04  1.30854675E-03  2.07249002E-04 -2.76968775E-04
 -2.52910110E-04  2.86712225E-05 -2.03620097E-16 -1.16779879E-06  2.33186543E-05
  4.62953604E-05  1.85383608E-04  7.31775484E-16  3.43400634E-05 -2.17314503E-04
  1.02700701E-04  2.07938950E-04 -3.55453396E-16 -1.08949387E-04  8.04154028E-04
  9.44451347E-04 -3.46125714E-04 -4.69885395E-16  7.25134326E-05 -4.75024840E-04
  4.98934381E-04 -4.83587052E-04 -7.13372365E-16  1.62562350E-04 -6.14337205E-04
  2.74555693E-04  5.42856274E-04 -3.98550855E-04 -4.24486962E-04 -6.28235852E-04
  3.25830971E-16  1.94023553E-04 -6.60275267E-04 -7.12686456E-04  1.17683134E-03
  2.80191435E-16 -4.84264917E-05  1.66806937E-04  2.07938950E-04 -1.08688499E-04
 -1.30384567E-16  9.83723742E-07 -1.59748543E-05  2.82525466E-04  8.83420577E-05
 -4.69285242E-16 -1.53981899E-04  6.09318579E-04  5.87394791E-04  1.53035116E-04
 -2.08959713E-16  7.67044855E-04 -3.36121563E-03 -1.70073011E-03 -3.34338555E-03
  3.03398529E-17  2.24703470E-16 -1.96184109E-16  1.88663105E-16  9.40835258E-02
  1.80859782E-17 -2.35209908E-16 -2.49972232E-16  8.73686238E-16  2.67255963E-02
  1.43048389E-16 -7.18098859E-16  6.98494981E-17  1.55556764E-16 -6.14207478E-02
 -1.37053067E-16  5.42618402E-16  7.94835084E-16 -4.50539689E-16 -7.50993565E-02
  2.67256828E-17 -8.50860233E-17 -5.00022130E-16 -1.63744705E-16 -5.53244260E-02
 -1.08249324E-16  5.25083074E-16  2.30769082E-16  2.13960296E-16  3.73375468E-02
  1.60445871E-04 -1.09983331E-03 -8.44653937E-05 -5.12367189E-04 -2.51438520E-16
 -1.31761173E-04  9.96194836E-04  3.03883216E-04 -8.40930046E-04 -1.46096466E-16
  1.57445866E-04 -8.46455683E-04  9.99200608E-05  7.03208251E-04 -5.58577101E-16
  7.28737052E-05  8.63761918E-05  1.92098451E-04  1.17430819E-04 -4.17181571E-17
  3.55542984E-05 -1.73121178E-04 -7.62326912E-06 -2.19093857E-04 -7.72867381E-16
 -2.90034860E-05  1.83252293E-04 -1.49851210E-06  3.02862969E-04 -3.59022164E-16
 -1.05825222E-03  7.23989182E-05  8.78008877E-05 -1.93086895E-04  2.05146053E-05
  1.52951702E-16  1.66548155E-04 -8.00727242E-04 -3.08046276E-04  6.87492618E-04
  4.17921702E-16 -6.15988275E-06  7.36908080E-04  3.42046512E-06 -9.70789107E-04
 -7.28542541E-17  1.42267366E-04 -9.75805678E-04  3.23873209E-04 -5.92445372E-04
 -4.44493325E-17 -2.77942155E-05  1.13768507E-04 -8.55561024E-05  2.66713427E-04
 -1.53876897E-16  2.77562649E-05 -1.37104358E-04  6.05161057E-05 -1.83474985E-04
  2.24996549E-16  5.68277768E-04 -1.98472876E-03  7.28737052E-05  8.63761918E-05
 -1.92098451E-04 -1.17430819E-04 -1.38123619E-16  3.55542984E-05 -1.73121178E-04
  7.62326912E-06  2.19093857E-04  1.49160654E-16 -2.90034860E-05  1.83252293E-04
  1.49851210E-06 -3.02862969E-04 -3.67188797E-16  1.60445871E-04 -1.09983331E-03
  8.44653937E-05  5.12367189E-04 -2.69876200E-16 -1.31761173E-04  9.96194836E-04
 -3.03883216E-04  8.40930046E-04 -9.84641216E-17  1.57445866E-04 -8.46455683E-04
 -9.99200608E-05 -7.03208251E-04  1.84266054E-17  1.02955534E-04 -1.30177754E-04
 -1.05825222E-03  1.42267366E-04 -9.75805678E-04 -3.23873209E-04  5.92445372E-04
 -4.87646781E-16 -2.77942155E-05  1.13768507E-04  8.55561024E-05 -2.66713427E-04
  8.53314709E-17  2.77562649E-05 -1.37104358E-04 -6.05161057E-05  1.83474985E-04
 -4.59226737E-16  7.23989182E-05  8.78008877E-05  1.93086895E-04 -2.05146053E-05
  5.49104829E-16  1.66548155E-04 -8.00727242E-04  3.08046276E-04 -6.87492618E-04
 -9.04128846E-17 -6.15988276E-06  7.36908080E-04 -3.42046512E-06  9.70789107E-04
  3.65720699E-16 -1.30177754E-04  7.80200572E-05  5.68277768E-04 -1.98472876E-03
 -2.06068840E-06  1.59156206E-05 -1.39144500E-05 -2.28075242E-06 -7.27231560E-17
  1.67409873E-06 -1.44095092E-06  3.34757915E-05  2.92820957E-05  1.19921132E-16
  7.03584232E-06 -4.34390005E-05 -1.97973475E-05 -5.11871240E-06 -6.66870363E-17
 -7.34849480E-05  9.30147314E-06  2.35626488E-04  6.00914159E-06  1.30356804E-17
 -3.97273974E-05  1.46852423E-04 -1.37978043E-04  1.10168797E-04 -8.47117626E-17
  1.62057472E-05 -7.14303861E-05  1.09793115E-04 -1.34177647E-05  3.15329115E-17
  8.36877735E-06 -6.75930288E-05 -4.62619618E-05  5.10572749E-05 -4.16957042E-04
  7.89267524E-06 -7.72830606E-05  8.00319993E-05  1.46655724E-05  6.42127049E-17
  9.70332508E-06 -7.32806699E-05 -5.10724809E-05 -1.33120514E-04 -4.80965443E-16
 -7.50218091E-05  4.24162297E-04 -1.09725079E-05 -6.76708022E-05  3.68339812E-16
  6.85784065E-04 -1.64295514E-03  4.18938487E-07  3.54935435E-04  3.96675244E-16
  1.50779578E-04 -4.21394395E-04  5.86247019E-04 -4.43837281E-04  2.78368746E-16
 -6.03138492E-05  2.39935746E-04 -4.41817138E-04  1.09135347E-04 -3.67611400E-16
 -1.63346102E-05  4.27941680E-04  3.13557935E-04 -2.18698937E-04  1.89811857E-03
 -6.99045835E-03  5.27829101E-06 -6.38089936E-06  3.16031577E-05 -5.57469473E-06
  1.42979680E-16 -3.77183348E-05  8.77879892E-05 -3.35269758E-04 -1.78706135E-04
 -4.75613103E-16  1.75050801E-04 -7.14235880E-04  6.18235423E-04  7.87086059E-04
  1.37086462E-16  6.19924422E-04 -5.75585250E-04  3.72502848E-04  1.14734913E-04
  4.21503546E-17  3.50850965E-05 -6.61390198E-05  2.79139223E-04 -3.76873792E-04
  1.64011839E-16  2.63646379E-05 -1.36621692E-04 -1.08360532E-04  5.69255018E-05
 -3.57910126E-16 -1.46238236E-04  3.07639582E-04  4.42227545E-04 -5.12354586E-05
  1.76649241E-04 -9.38904952E-04 -8.76310187E-03 -7.44239111E-06  6.35333368E-05
 -4.01412128E-05 -1.19647083E-05 -2.26280891E-16  3.69540865E-06 -1.84684528E-05
 -6.86816533E-05 -2.39423944E-05 -1.71696498E-15  1.59852782E-06  1.57850272E-05
 -3.36227717E-05  1.76353810E-04  3.93762324E-16 -5.80191779E-05  7.15235049E-04
 -7.18587845E-04 -3.08317363E-04  6.00371839E-17  1.06961828E-04 -5.24996918E-04
  4.66422993E-04 -3.31411764E-04  5.06315227E-16 -4.01653540E-05  1.53263576E-04
 -3.00569256E-04 -9.12738278E-05 -8.93050730E-16 -3.49202503E-05  1.87381846E-04
 -1.29343437E-04 -1.31364960E-04  1.01418730E-03 -4.42562569E-03  1.67963976E-03
 -4.59037056E-03 -2.49540765E-16  7.94545722E-16  2.70743830E-16 -9.93593838E-16
  8.52598715E-02  1.18719248E-17 -1.03863518E-16  6.50275725E-16  3.60609850E-17
  6.12036790E-02 -4.75997363E-16  2.04672224E-15  1.46253825E-17 -6.16579659E-16
 -4.64237876E-02  3.46623094E-16 -2.03478167E-15  4.35470818E-16 -1.07494217E-15
 -1.13891477E-01  1.26293336E-16 -3.69774915E-16 -3.72120514E-16  1.43953121E-17
 -3.70670576E-02  2.47867233E-16 -1.28760563E-15 -1.19065372E-15 -5.38717523E-16
  6.69255089E-02 -8.33983027E-18 -8.93380473E-16  5.01232809E-16  7.05178945E-16
 -3.87366251E-16  2.07620091E-15  7.89997807E-16  2.57784796E-15 -1.51903387E-02
  1.33138637E-06  3.07269274E-07 -9.95748233E-06  8.63224535E-06 -3.79714427E-18
 -8.81257736E-07  8.36890897E-06 -2.77801634E-05  4.93864260E-06 -2.12089635E-16
  2.42580762E-05 -1.44518177E-04  4.06621128E-05  5.35617839E-05  3.23327214E-17
 -1.27710174E-05  8.66199932E-05 -1.13590344E-04  1.15495014E-04  7.34636673E-17
 -2.53888985E-06  4.05603039E-05  1.93369661E-05  9.89693780E-06  1.42405095E-16
  1.29440267E-06 -1.35042136E-05 -1.45752162E-05  6.40152793E-06 -3.31884582E-17
 -1.65239287E-06  3.22305209E-05  1.22581281E-05 -2.74272757E-08 -9.48365189E-05
  1.20754091E-03 -8.23384305E-04  5.92494857E-04  5.78044810E-16  1.20332267E-03
  2.30362041E-06 -3.37339595E-05  7.52105392E-05 -6.84612358E-05  3.12331364E-16
 -2.63660864E-05  7.68228634E-05 -1.18199257E-05 -4.87138188E-05  1.20847428E-15
  7.14091593E-06  1.26117435E-04  1.80559271E-04 -2.00916566E-04 -3.13844559E-17
  1.06544009E-04 -4.44179820E-04  8.36486510E-04 -4.48284371E-04 -9.65778397E-16
 -4.74526181E-05  7.30918976E-05 -2.73073170E-04  5.34084733E-05 -8.15371727E-16
  2.91954101E-05 -9.06145022E-05  2.27779835E-04 -1.34312145E-05  1.65868137E-16
  5.76080688E-07 -2.40243551E-04  3.25502351E-05  7.20671911E-05 -1.65034989E-04
 -2.87458823E-03  1.08582435E-03 -3.91831042E-06 -2.63218628E-15 -5.82469460E-03
  2.46882311E-02  2.34362144E-05 -1.25341643E-04  8.73942635E-05 -3.66840504E-05
 -3.91276726E-16 -1.58132138E-06  2.62785450E-06  7.36156655E-05 -3.98263762E-05
  1.54403380E-15 -1.33853025E-05  1.82441071E-04  4.78838252E-05 -4.20380017E-04
 -9.40267119E-16  2.88885016E-04 -1.62221953E-03  1.36054576E-03 -8.71313203E-05
  7.27817905E-16 -1.03589087E-04  4.42042995E-04 -3.61037717E-04  3.56618503E-04
 -2.30451580E-16  4.03746885E-05 -1.71548170E-04  2.51233633E-04  3.49766316E-05
  1.32497742E-15  7.88760742E-05  1.60268322E-05  4.97742302E-05  1.25970062E-04
 -5.08473263E-04  7.85682076E-04  4.27597722E-04  6.41447051E-04 -1.70530729E-15
  2.28836943E-04 -1.22380386E-03  9.17922540E-03  1.01834490E-05 -1.02179696E-04
  9.38086194E-05  8.42410567E-06 -1.27012303E-15 -2.39090275E-05  1.02016681E-04
  4.12020789E-05 -7.95469163E-05  2.17338848E-15  2.00563705E-05 -7.78751231E-05
  1.27104368E-04 -7.16356166E-05 -1.94125467E-15  1.26589216E-04 -5.15646187E-04
  3.37015944E-04  1.98829795E-04  1.44165753E-15 -1.27276237E-05  7.91746948E-05
 -2.21860043E-05  1.22474707E-04 -1.20746187E-15 -1.03052417E-07  2.85257352E-06
 -1.66423884E-05  5.47225651E-05  1.21237121E-15 -2.31203152E-05 -6.69675314E-06
  6.89128744E-05  1.56242546E-05  3.16608093E-04  1.50008545E-04  1.16822507E-04
 -7.77449627E-04 -1.02917472E-15 -1.79965771E-04  9.34464084E-04  1.27849715E-03
  9.03468520E-03 -2.54107090E-16  8.28794381E-16 -5.11769643E-18 -7.51219647E-16
  1.31458061E-01  5.71362815E-17 -4.12706230E-16  9.35240544E-16  2.08094313E-16
  7.34543539E-02 -1.00311781E-16  1.39087411E-15 -4.07758345E-16 -5.55953637E-16
 -8.38630868E-02  4.93000728E-16 -1.85662980E-15  9.78788517E-16 -1.01065671E-15
 -1.52265192E-01 -1.52487919E-17 -3.36759886E-16 -4.79509346E-16  3.18619975E-16
 -7.29443031E-02  2.15761106E-17 -8.72811567E-16 -7.96236467E-16 -2.53380291E-16
  8.16447246E-02  2.81208760E-16 -4.06112873E-16  3.92293130E-16  6.58285379E-16
 -2.48851411E-16  1.29235427E-15  5.92373794E-16  1.82156900E-15  1.04448678E-01
  3.10360982E-16 -2.17876138E-15 -7.83371471E-16  7.77347941E-16  2.34847808E-01
  1.71520283E-05 -9.95788463E-05  3.52128961E-05  7.01386139E-05 -1.49411025E-15
 -8.80181482E-08  1.71882421E-06  1.27425299E-04  7.35147915E-06 -7.14350194E-17
  4.93875465E-06  7.30716170E-05 -6.12265490E-06 -1.32202136E-04 -1.21193591E-15
  1.02720651E-04 -9.89101291E-04  5.06476389E-04  1.25178723E-04  1.22117364E-15
 -9.97898441E-05  4.76345301E-04 -4.11103320E-04  4.34448453E-04 -3.79371253E-16
  1.88618177E-05 -5.76344311E-05  1.01399725E-04  3.21380192E-05  4.42617245E-17
  1.06261646E-05 -6.65166123E-05 -8.42100310E-06  1.16815573E-04 -4.89551705E-04
  2.30732628E-03  5.56205804E-04  9.84041696E-04  7.59314414E-16  1.19006539E-04
 -1.13553082E-03  1.63725364E-04  1.37011098E-03  1.06911617E-15  6.68754646E-04
 -1.75882093E-06  4.31032234E-05 -3.82398554E-05  2.16778986E-05  1.41231878E-15
  1.04537501E-05 -4.94925956E-05 -7.42744597E-05  1.26036085E-05 -1.42478367E-15
  2.69391765E-05 -1.98209415E-04  6.17248329E-05  1.72424573E-04  1.14621077E-15
 -6.28096305E-06  3.59366291E-04 -3.37535207E-04  1.36968316E-04 -5.72195156E-16
  6.03789157E-05 -2.52554642E-04  2.99023556E-04 -1.62819865E-04  1.34847998E-15
 -1.49356865E-05  4.21478735E-05 -1.83038061E-04 -2.35042480E-05 -1.50299908E-16
 -1.44534029E-05  1.82537050E-04  4.51352355E-05 -6.73030041E-05  3.25634298E-04
 -1.14259894E-03 -1.21688463E-04 -1.21105416E-03  1.11222840E-15  1.30402212E-03
 -2.06618885E-03  1.18573673E-03 -2.48565778E-04 -1.09200219E-16  9.00587339E-04
 -1.17395143E-02 -2.62463691E-05  8.87888316E-05 -1.06654616E-04  1.17536802E-04
 -2.39974037E-15  7.35366110E-05 -2.66022834E-04  3.94283151E-04  5.92551833E-05
  1.24948233E-15 -2.44262954E-04  9.90147529E-04 -8.95629034E-04  3.89024272E-04
 -2.03059928E-15 -1.06780752E-04  7.46625304E-05 -2.55087213E-04  1.50506887E-04
  2.68612154E-15  1.62417381E-05 -1.40596568E-05  1.25425973E-05  4.44500833E-05
 -7.37776031E-16 -2.65488786E-05  1.15322430E-04 -3.72619686E-05  4.22915913E-05
  8.20657648E-16 -5.19422275E-05  3.25448727E-04 -1.02565700E-04 -1.43321931E-05
  5.58030948E-05  2.81636056E-04  1.40349876E-03 -8.08446755E-04  4.68189091E-16
  1.36773943E-03 -2.36639925E-03  6.64364774E-05 -7.07121901E-04  1.75039462E-15
 -2.10540762E-05 -2.11393878E-05 -1.14897596E-02 -7.34849480E-05  9.30147314E-06
 -2.35626488E-04 -6.00914159E-06 -1.02259062E-16 -3.97273974E-05  1.46852423E-04
  1.37978043E-04 -1.10168797E-04 -1.21874528E-17  1.62057472E-05 -7.14303861E-05
 -1.09793115E-04  1.34177647E-05 -8.41319212E-17 -2.06068840E-06  1.59156206E-05
  1.39144500E-05  2.28075242E-06  2.50337675E-17  1.67409873E-06 -1.44095092E-06
 -3.34757915E-05 -2.92820957E-05 -3.65171344E-17  7.03584233E-06 -4.34390005E-05
  1.97973475E-05  5.11871240E-06 -3.37218792E-18 -4.62619618E-05  5.10572749E-05
  8.36877735E-06 -6.75930288E-05  4.41261675E-06 -1.83084581E-05 -1.54019869E-05
 -5.33038901E-06  8.69551002E-17  2.84166189E-07 -3.29824970E-06 -2.92689730E-06
 -1.23464869E-05  1.56400554E-16  2.94291945E-07 -6.19365567E-07  1.36972788E-05
 -4.16957042E-04  6.85784065E-04 -1.64295514E-03 -4.18938486E-07 -3.54935435E-04
  3.83615544E-16  1.50779578E-04 -4.21394395E-04 -5.86247019E-04  4.43837281E-04
  5.71311861E-17 -6.03138492E-05  2.39935746E-04  4.41817138E-04 -1.09135347E-04
  1.75868778E-16  7.89267524E-06 -7.72830606E-05 -8.00319993E-05 -1.46655724E-05
 -2.67438231E-16  9.70332508E-06 -7.32806699E-05  5.10724809E-05  1.33120514E-04
 -1.04624381E-16 -7.50218091E-05  4.24162297E-04  1.09725079E-05  6.76708022E-05
 -1.44208982E-16  3.13557935E-04 -2.18698937E-04 -1.63346102E-05  4.27941680E-04
 -1.83084581E-05  7.25040772E-05  6.20120303E-05  2.48491485E-05 -2.74658391E-16
 -8.27080872E-07  1.28576361E-05  1.24551336E-05  5.08291074E-05 -5.24549442E-16
 -2.62122366E-06  1.08465199E-06 -5.94900527E-05  1.89811857E-03 -6.99045835E-03
 -6.19924422E-04  5.75585250E-04  3.72502848E-04  1.14734913E-04 -6.76879010E-17
 -3.50850965E-05  6.61390198E-05  2.79139223E-04 -3.76873792E-04  1.83133112E-17
 -2.63646379E-05  1.36621692E-04 -1.08360532E-04  5.69255018E-05 -1.38732565E-16
 -5.27829101E-06  6.38089936E-06  3.16031577E-05 -5.57469473E-06  2.74787644E-17
  3.77183348E-05 -8.77879892E-05 -3.35269758E-04 -1.78706135E-04 -1.28204728E-16
 -1.75050801E-04  7.14235880E-04  6.18235423E-04  7.87086059E-04  5.38808796E-17
 -4.42227545E-04  5.12354586E-05  1.46238236E-04 -3.07639582E-04  1.54019869E-05
 -6.20120303E-05 -3.33113439E-05 -2.37293082E-06  1.21816040E-16 -4.05456855E-06
  4.31863527E-06 -8.40456559E-06 -4.22632831E-05  3.92953586E-16 -1.81537013E-05
 -6.06389190E-06  7.24721853E-05 -1.76649241E-04  9.38904952E-04 -8.76310187E-03
  5.80191779E-05 -7.15235049E-04 -7.18587845E-04 -3.08317363E-04  4.52766976E-17
 -1.06961828E-04  5.24996918E-04  4.66422993E-04 -3.31411764E-04  5.31643915E-16
  4.01653540E-05 -1.53263576E-04 -3.00569256E-04 -9.12738278E-05  1.66135295E-16
  7.44239111E-06 -6.35333368E-05 -4.01412128E-05 -1.19647083E-05 -2.44456064E-16
 -3.69540865E-06  1.84684528E-05 -6.86816533E-05 -2.39423944E-05  2.85470857E-18
 -1.59852782E-06 -1.57850272E-05 -3.36227717E-05  1.76353810E-04  3.84448537E-17
  1.29343437E-04  1.31364960E-04  3.49202503E-05 -1.87381846E-04  5.33038901E-06
 -2.48491485E-05 -2.37293082E-06 -7.21408078E-06 -8.07853809E-16  3.59677813E-06
 -1.38789982E-05 -1.51342925E-05 -2.75243333E-05 -8.70887130E-16 -1.02002000E-06
  7.76468198E-06  1.14917038E-05 -1.01418730E-03  4.42562569E-03  1.67963976E-03
 -4.59037056E-03  1.51287932E-16 -5.88752951E-16 -4.40651237E-16 -4.82277170E-16
 -1.13891477E-01  2.22409558E-17  3.77637138E-16 -2.35208941E-16  1.75702952E-16
 -3.70670576E-02  2.15708677E-16 -1.05599942E-15 -1.48371351E-16  4.92946518E-17
  6.69255089E-02  1.08067071E-16  6.72322814E-17  7.63608627E-16 -7.09736136E-19
  8.52598715E-02 -1.19787983E-16  1.02017541E-16 -2.23487030E-16  3.65109095E-17
  6.12036790E-02 -1.90090691E-16  3.58945093E-16  4.58085311E-16 -2.13290961E-16
 -4.64237876E-02  4.03796552E-16  4.51388612E-16 -1.29623660E-17 -1.54840854E-16
  3.59750910E-16 -2.51970637E-16 -1.89512674E-16 -6.63263302E-16 -7.24134232E-02
  2.11633019E-17  4.29334873E-17  1.08890820E-15  6.88828155E-16 -9.04947578E-02
  5.19696742E-16 -3.71439016E-16  9.02945531E-16 -1.55469191E-16  5.55501338E-16
 -5.10283845E-17 -7.60810129E-18 -1.51903387E-02 -1.27710174E-05  8.66199932E-05
  1.13590344E-04 -1.15495014E-04  2.92711989E-17 -2.53888985E-06  4.05603039E-05
 -1.93369661E-05 -9.89693780E-06  5.60619486E-18  1.29440267E-06 -1.35042136E-05
  1.45752162E-05 -6.40152793E-06 -5.90675238E-17  1.33138637E-06  3.07269274E-07
  9.95748233E-06 -8.63224535E-06  2.77632949E-17 -8.81257736E-07  8.36890897E-06
  2.77801634E-05 -4.93864260E-06 -3.94052324E-17  2.42580762E-05 -1.44518177E-04
 -4.06621128E-05 -5.35617839E-05  3.20499245E-17  1.22581281E-05 -2.74272756E-08
 -1.65239287E-06  3.22305209E-05  2.84166188E-07 -8.27080872E-07  4.05456855E-06
 -3.59677813E-06  9.87166854E-17 -2.41435245E-07  5.04316142E-06  5.85626437E-06
  2.52882358E-06  3.86247319E-17  1.21202218E-06 -2.92622773E-06 -6.99645752E-06
 -9.48365189E-05  1.20754091E-03  8.23384305E-04 -5.92494857E-04  1.95646441E-16
  1.20332267E-03  1.06544009E-04 -4.44179820E-04 -8.36486510E-04  4.48284371E-04
 -1.25331197E-16 -4.74526181E-05  7.30918976E-05  2.73073170E-04 -5.34084733E-05
  6.89532632E-17  2.91954101E-05 -9.06145022E-05 -2.27779835E-04  1.34312145E-05
  1.88448847E-16  2.30362041E-06 -3.37339595E-05 -7.52105392E-05  6.84612358E-05
 -2.23884835E-16 -2.63660864E-05  7.68228634E-05  1.18199257E-05  4.87138188E-05
  7.09437018E-17  7.14091593E-06  1.26117435E-04 -1.80559271E-04  2.00916566E-04
 -9.41910175E-17  3.25502351E-05  7.20671911E-05  5.76080688E-07 -2.40243551E-04
 -3.29824970E-06  1.28576361E-05 -4.31863527E-06  1.38789982E-05 -2.73229417E-16
  5.04316142E-06 -3.73736209E-05 -3.83422193E-05 -1.48930645E-05 -1.79804699E-16
  7.28342948E-07  2.32230166E-05  2.43123463E-05 -1.65034989E-04 -2.87458823E-03
 -1.08582435E-03  3.91831041E-06 -1.12012965E-15 -5.82469460E-03  2.46882311E-02
 -2.88885016E-04  1.62221953E-03  1.36054576E-03 -8.71313203E-05 -5.11141235E-16
  1.03589087E-04 -4.42042995E-04 -3.61037717E-04  3.56618503E-04  1.22282028E-17
 -4.03746885E-05  1.71548170E-04  2.51233633E-04  3.49766316E-05 -1.51485508E-16
 -2.34362144E-05  1.25341643E-04  8.73942635E-05 -3.66840504E-05 -1.74286519E-17
  1.58132138E-06 -2.62785450E-06  7.36156655E-05 -3.98263762E-05  3.63174778E-17
  1.33853025E-05 -1.82441071E-04  4.78838252E-05 -4.20380017E-04 -2.04249589E-16
 -4.97742302E-05 -1.25970062E-04 -7.88760742E-05 -1.60268322E-05  2.92689730E-06
 -1.24551336E-05 -8.40456559E-06 -1.51342925E-05  5.13532195E-16 -5.85626437E-06
  3.83422193E-05  2.28054521E-05  2.05730318E-05  2.87478436E-16 -1.34403472E-06
 -2.40287530E-05 -2.46704159E-05  5.08473263E-04 -7.85682076E-04  4.27597722E-04
  6.41447051E-04 -1.00931402E-15 -2.28836943E-04  1.22380386E-03  9.17922540E-03
 -1.26589216E-04  5.15646187E-04  3.37015944E-04  1.98829795E-04 -4.37114189E-16
  1.27276237E-05 -7.91746948E-05 -2.21860043E-05  1.22474707E-04 -1.50544738E-16
  1.03052418E-07 -2.85257352E-06 -1.66423884E-05  5.47225651E-05  2.22437936E-16
 -1.01834490E-05  1.02179696E-04  9.38086194E-05  8.42410567E-06  3.72759144E-16
  2.39090275E-05 -1.02016681E-04  4.12020789E-05 -7.95469163E-05  1.96411483E-16
 -2.00563705E-05  7.78751231E-05  1.27104368E-04 -7.16356166E-05 -1.63957043E-16
 -6.89128744E-05 -1.56242546E-05  2.31203152E-05  6.69675314E-06  1.23464869E-05
 -5.08291074E-05 -4.22632831E-05 -2.75243333E-05 -3.31552918E-16 -2.52882358E-06
  1.48930645E-05  2.05730318E-05  1.73531971E-07 -3.24091042E-16  2.33539342E-05
 -1.96166218E-05  2.16413311E-05 -3.16608093E-04 -1.50008545E-04  1.16822507E-04
 -7.77449627E-04  7.25463799E-18  1.79965771E-04 -9.34464084E-04  1.27849715E-03
  9.03468520E-03  1.52431125E-16 -2.77949316E-16 -1.02258188E-16 -5.09214638E-16
 -1.52265192E-01  1.13918125E-16  1.18846294E-16 -2.70494007E-16 -8.40186502E-16
 -7.29443031E-02  1.15331731E-16 -2.97070433E-16 -2.13798269E-16 -1.85720625E-16
  8.16447246E-02  3.24059711E-17  1.66211231E-16 -1.13888722E-16  3.84246109E-16
  1.31458061E-01  1.48239198E-16 -2.00341916E-16  5.44333083E-16 -3.24656238E-16
  7.34543539E-02 -4.25370133E-17  9.53393197E-17 -1.66214889E-16 -3.86813281E-16
 -8.38630868E-02 -3.34045598E-16  4.83453209E-16 -2.21164275E-16 -6.96248755E-16
 -1.71034388E-16 -2.30751073E-16  2.46912765E-16  2.29263396E-16 -9.04947578E-02
 -1.44164035E-18 -2.42155085E-16 -1.38692894E-16 -8.74620900E-16 -1.28474212E-01
 -2.42143765E-17  7.08262296E-16 -4.01867794E-16  6.83704830E-17 -6.86365810E-17
 -6.78255003E-16 -3.32208854E-16  1.04448678E-01  2.11504067E-16 -9.42784452E-16
 -5.77709910E-16  2.85060548E-17  2.34847808E-01  1.02720651E-04 -9.89101291E-04
 -5.06476389E-04 -1.25178723E-04 -3.88101022E-16 -9.97898441E-05  4.76345301E-04
  4.11103320E-04 -4.34448453E-04 -4.94103623E-16  1.88618177E-05 -5.76344311E-05
 -1.01399725E-04 -3.21380192E-05 -3.32357967E-16  1.71520283E-05 -9.95788463E-05
 -3.52128961E-05 -7.01386139E-05  5.02600225E-16 -8.80181481E-08  1.71882421E-06
 -1.27425299E-04 -7.35147915E-06  1.28701087E-16  4.93875465E-06  7.30716170E-05
  6.12265490E-06  1.32202136E-04 -1.89481033E-16 -8.42100310E-06  1.16815573E-04
  1.06261646E-05 -6.65166123E-05  2.94291945E-07 -2.62122367E-06  1.81537013E-05
  1.02002000E-06  1.22232282E-15  1.21202219E-06  7.28342948E-07  1.34403472E-06
 -2.33539342E-05  7.48654020E-16 -1.84906903E-05  6.15174896E-06 -1.21736828E-05
 -4.89551705E-04  2.30732628E-03 -5.56205804E-04 -9.84041696E-04  5.19560835E-16
  1.19006539E-04 -1.13553082E-03 -1.63725364E-04 -1.37011098E-03 -1.76208149E-16
  6.68754646E-04 -6.28096305E-06  3.59366291E-04  3.37535207E-04 -1.36968316E-04
  3.10206630E-16  6.03789157E-05 -2.52554642E-04 -2.99023556E-04  1.62819865E-04
  1.51965928E-16 -1.49356865E-05  4.21478735E-05  1.83038061E-04  2.35042480E-05
  3.15875174E-17 -1.75882093E-06  4.31032234E-05  3.82398554E-05 -2.16778986E-05
  6.86377000E-17  1.04537501E-05 -4.94925956E-05  7.42744597E-05 -1.26036085E-05
  2.41244467E-16  2.69391765E-05 -1.98209415E-04 -6.17248329E-05 -1.72424573E-04
  8.66107312E-17  4.51352355E-05 -6.73030041E-05 -1.44534029E-05  1.82537050E-04
 -6.19365568E-07  1.08465199E-06  6.06389190E-06 -7.76468198E-06 -1.86366687E-16
 -2.92622773E-06  2.32230166E-05  2.40287530E-05  1.96166218E-05 -3.80493303E-16
  6.15174896E-06 -1.35550808E-05 -2.45377564E-05  3.25634298E-04 -1.14259894E-03
  1.21688463E-04  1.21105416E-03  9.43530681E-16  1.30402212E-03 -2.06618885E-03
 -1.18573673E-03  2.48565778E-04  1.37312811E-15  9.00587339E-04 -1.17395143E-02
 -1.06780752E-04  7.46625304E-05  2.55087213E-04 -1.50506887E-04  1.03602214E-16
  1.62417381E-05 -1.40596568E-05 -1.25425973E-05 -4.44500833E-05  3.23089739E-17
 -2.65488786E-05  1.15322430E-04  3.72619686E-05 -4.22915913E-05 -3.01766134E-17
 -2.62463691E-05  8.87888316E-05  1.06654616E-04 -1.17536802E-04 -1.26092437E-16
  7.35366110E-05 -2.66022834E-04 -3.94283151E-04 -5.92551833E-05 -5.09838212E-17
 -2.44262954E-04  9.90147529E-04  8.95629034E-04 -3.89024272E-04  4.03091505E-17
 -1.02565700E-04 -1.43321931E-05 -5.19422275E-05  3.25448727E-04  1.36972788E-05
 -5.94900527E-05 -7.24721853E-05 -1.14917038E-05  8.18213702E-17 -6.99645752E-06
  2.43123463E-05  2.46704159E-05 -2.16413311E-05  1.38826529E-16 -1.21736828E-05
 -2.45377564E-05  2.92365685E-05  5.58030948E-05  2.81636056E-04 -1.40349876E-03
  8.08446755E-04 -2.99603072E-17  1.36773943E-03 -2.36639925E-03 -6.64364774E-05
  7.07121901E-04 -6.75691695E-17 -2.10540762E-05 -2.11393878E-05 -1.14897596E-02
Pure Switching                             I                1
Dipole_Data                                R   N=           3
 -6.93059980E-12 -3.66988805E-13 -3.73518975E-15
Quadrupole_Data                            R   N=           6
 -1.05804850E+01 -9.16548629E-01 -4.30515942E+01  8.06409582E-15 -2.52397538E-14
 -5.64687534E+01
Octapole_Data                              R   N=          10
 -5.19290717E-11  1.08733448E-13 -1.32503085E-12 -7.78755907E-13 -2.95898545E-14
  1.20664287E-15  1.32797252E-15 -2.91873447E-12 -1.36865067E-13 -2.17163232E-15
Hexadecapole_Data                          R   N=          15
 -1.16903486E+03 -2.24058564E+01 -3.23173067E+02  5.59482609E+00 -2.97941311E+02
  3.41882225E-14 -2.56087720E-14 -5.55075557E-14  1.71675575E-13 -3.40359764E+02
 -4.79024565E-01 -7.01145097E+01 -9.91584363E-14  3.22389191E-13 -4.54750000E+01
