Jobname.Temp
SP        R                             STO-3G              
Number of atoms                            I               20
Charge                                     I                0
Multiplicity                               I                1
Number of electrons                        I               70
Number of alpha electrons                  I               35
Number of beta electrons                   I               35
Atomic numbers                             I   N=          20
           6           6           6           6           6           6
           1           1           1           1           6           6
           1           1           1           6           6           1
           1           1
Current cartesian coordinates              R   N=          60
  2.58290277E+00  5.26797819E-01 -7.59359635E-16  8.34595104E-01  2.50022004E+00
 -4.80205391E-15 -1.74784262E+00  1.97341116E+00 -4.04262387E-15 -2.58290277E+00
 -5.26797819E-01  7.59359635E-16 -8.34595104E-01 -2.50022004E+00  4.80205391E-15
  1.74784262E+00 -1.97341116E+00  4.04262387E-15  1.49330241E+00  4.47110415E+00
 -8.58735257E-15 -3.12599029E+00  3.52878408E+00 -7.22893583E-15 -1.49330241E+00
 -4.47110415E+00  8.58735257E-15  3.12599029E+00 -3.52878408E+00  7.22893583E-15
 -5.43458912E+00 -1.10885517E+00  1.59859989E-15 -7.18244858E+00  6.86446481E-01
 -2.09570409E-15 -5.90319098E+00 -3.13067751E+00  5.50345343E-15 -9.21608439E+00
  2.72072857E-01 -1.49860446E-15 -6.71384672E+00  2.70826884E+00 -6.00055767E-15
  5.43458912E+00  1.10885517E+00 -1.59859989E-15  7.18244858E+00 -6.86446481E-01
  2.09570409E-15  5.90319098E+00  3.13067751E+00 -5.50345343E-15  9.21608439E+00
 -2.72072857E-01  1.49860446E-15  6.71384672E+00 -2.70826884E+00  6.00055767E-15
Nuclear charges                            R   N=          20
  6.00000000E+00  6.00000000E+00  6.00000000E+00  6.00000000E+00  6.00000000E+00
  6.00000000E+00  1.00000000E+00  1.00000000E+00  1.00000000E+00  1.00000000E+00
  6.00000000E+00  6.00000000E+00  1.00000000E+00  1.00000000E+00  1.00000000E+00
  6.00000000E+00  6.00000000E+00  1.00000000E+00  1.00000000E+00  1.00000000E+00
Number of basis functions                  I               60
Number of contracted shells                I               30
Number of primitive shells                 I               90
Highest angular momentum                   I                1
Largest degree of contraction              I                3
Shell types                                I   N=          30
           0          -1           0          -1           0          -1
           0          -1           0          -1           0          -1
           0           0           0           0           0          -1
           0          -1           0           0           0           0
          -1           0          -1           0           0           0
Number of primitives per shell             I   N=          30
           3           3           3           3           3           3
           3           3           3           3           3           3
           3           3           3           3           3           3
           3           3           3           3           3           3
           3           3           3           3           3           3
Shell to atom map                          I   N=          30
           1           1           2           2           3           3
           4           4           5           5           6           6
           7           8           9          10          11          11
          12          12          13          14          15          16
          16          17          17          18          19          20
Primitive exponents                        R   N=          90
  7.16168370E+01  1.30450960E+01  3.53051220E+00  2.94124940E+00  6.83483100E-01
  2.22289900E-01  7.16168370E+01  1.30450960E+01  3.53051220E+00  2.94124940E+00
  6.83483100E-01  2.22289900E-01  7.16168370E+01  1.30450960E+01  3.53051220E+00
  2.94124940E+00  6.83483100E-01  2.22289900E-01  7.16168370E+01  1.30450960E+01
  3.53051220E+00  2.94124940E+00  6.83483100E-01  2.22289900E-01  7.16168370E+01
  1.30450960E+01  3.53051220E+00  2.94124940E+00  6.83483100E-01  2.22289900E-01
  7.16168370E+01  1.30450960E+01  3.53051220E+00  2.94124940E+00  6.83483100E-01
  2.22289900E-01  3.42525091E+00  6.23913730E-01  1.68855400E-01  3.42525091E+00
  6.23913730E-01  1.68855400E-01  3.42525091E+00  6.23913730E-01  1.68855400E-01
  3.42525091E+00  6.23913730E-01  1.68855400E-01  7.16168370E+01  1.30450960E+01
  3.53051220E+00  2.94124940E+00  6.83483100E-01  2.22289900E-01  7.16168370E+01
  1.30450960E+01  3.53051220E+00  2.94124940E+00  6.83483100E-01  2.22289900E-01
  3.42525091E+00  6.23913730E-01  1.68855400E-01  3.42525091E+00  6.23913730E-01
  1.68855400E-01  3.42525091E+00  6.23913730E-01  1.68855400E-01  7.16168370E+01
  1.30450960E+01  3.53051220E+00  2.94124940E+00  6.83483100E-01  2.22289900E-01
  7.16168370E+01  1.30450960E+01  3.53051220E+00  2.94124940E+00  6.83483100E-01
  2.22289900E-01  3.42525091E+00  6.23913730E-01  1.68855400E-01  3.42525091E+00
  6.23913730E-01  1.68855400E-01  3.42525091E+00  6.23913730E-01  1.68855400E-01
Contraction coefficients                   R   N=          90
  1.54328970E-01  5.35328140E-01  4.44634540E-01 -9.99672301E-02  3.99512830E-01
  7.00115471E-01  1.54328970E-01  5.35328140E-01  4.44634540E-01 -9.99672301E-02
  3.99512830E-01  7.00115471E-01  1.54328970E-01  5.35328140E-01  4.44634540E-01
 -9.99672301E-02  3.99512830E-01  7.00115471E-01  1.54328970E-01  5.35328140E-01
  4.44634540E-01 -9.99672301E-02  3.99512830E-01  7.00115471E-01  1.54328970E-01
  5.35328140E-01  4.44634540E-01 -9.99672301E-02  3.99512830E-01  7.00115471E-01
  1.54328970E-01  5.35328140E-01  4.44634540E-01 -9.99672301E-02  3.99512830E-01
  7.00115471E-01  1.54328971E-01  5.35328142E-01  4.44634542E-01  1.54328971E-01
  5.35328142E-01  4.44634542E-01  1.54328971E-01  5.35328142E-01  4.44634542E-01
  1.54328971E-01  5.35328142E-01  4.44634542E-01  1.54328970E-01  5.35328140E-01
  4.44634540E-01 -9.99672301E-02  3.99512830E-01  7.00115471E-01  1.54328970E-01
  5.35328140E-01  4.44634540E-01 -9.99672301E-02  3.99512830E-01  7.00115471E-01
  1.54328971E-01  5.35328142E-01  4.44634542E-01  1.54328971E-01  5.35328142E-01
  4.44634542E-01  1.54328971E-01  5.35328142E-01  4.44634542E-01  1.54328970E-01
  5.35328140E-01  4.44634540E-01 -9.99672301E-02  3.99512830E-01  7.00115471E-01
  1.54328970E-01  5.35328140E-01  4.44634540E-01 -9.99672301E-02  3.99512830E-01
  7.00115471E-01  1.54328971E-01  5.35328142E-01  4.44634542E-01  1.54328971E-01
  5.35328142E-01  4.44634542E-01  1.54328971E-01  5.35328142E-01  4.44634542E-01
P(S=P) Contraction coefficients            R   N=          90
  0.00000000E+00  0.00000000E+00  0.00000000E+00  1.55916272E-01  6.07683728E-01
  3.91957395E-01  0.00000000E+00  0.00000000E+00  0.00000000E+00  1.55916272E-01
  6.07683728E-01  3.91957395E-01  0.00000000E+00  0.00000000E+00  0.00000000E+00
  1.55916272E-01  6.07683728E-01  3.91957395E-01  0.00000000E+00  0.00000000E+00
  0.00000000E+00  1.55916272E-01  6.07683728E-01  3.91957395E-01  0.00000000E+00
  0.00000000E+00  0.00000000E+00  1.55916272E-01  6.07683728E-01  3.91957395E-01
  0.00000000E+00  0.00000000E+00  0.00000000E+00  1.55916272E-01  6.07683728E-01
  3.91957395E-01  0.00000000E+00  0.00000000E+00  0.00000000E+00  0.00000000E+00
  0.00000000E+00  0.00000000E+00  0.00000000E+00  0.00000000E+00  0.00000000E+00
  0.00000000E+00  0.00000000E+00  0.00000000E+00  0.00000000E+00  0.00000000E+00
  0.00000000E+00  1.55916272E-01  6.07683728E-01  3.91957395E-01  0.00000000E+00
  0.00000000E+00  0.00000000E+00  1.55916272E-01  6.07683728E-01  3.91957395E-01
  0.00000000E+00  0.00000000E+00  0.00000000E+00  0.00000000E+00  0.00000000E+00
  0.00000000E+00  0.00000000E+00  0.00000000E+00  0.00000000E+00  0.00000000E+00
  0.00000000E+00  0.00000000E+00  1.55916272E-01  6.07683728E-01  3.91957395E-01
  0.00000000E+00  0.00000000E+00  0.00000000E+00  1.55916272E-01  6.07683728E-01
  3.91957395E-01  0.00000000E+00  0.00000000E+00  0.00000000E+00  0.00000000E+00
  0.00000000E+00  0.00000000E+00  0.00000000E+00  0.00000000E+00  0.00000000E+00
Coordinates of each shell                  R   N=          90
  2.58290277E+00  5.26797819E-01 -7.59359635E-16  2.58290277E+00  5.26797819E-01
 -7.59359635E-16  8.34595104E-01  2.50022004E+00 -4.80205391E-15  8.34595104E-01
  2.50022004E+00 -4.80205391E-15 -1.74784262E+00  1.97341116E+00 -4.04262387E-15
 -1.74784262E+00  1.97341116E+00 -4.04262387E-15 -2.58290277E+00 -5.26797819E-01
  7.59359635E-16 -2.58290277E+00 -5.26797819E-01  7.59359635E-16 -8.34595104E-01
 -2.50022004E+00  4.80205391E-15 -8.34595104E-01 -2.50022004E+00  4.80205391E-15
  1.74784262E+00 -1.97341116E+00  4.04262387E-15  1.74784262E+00 -1.97341116E+00
  4.04262387E-15  1.49330241E+00  4.47110415E+00 -8.58735257E-15 -3.12599029E+00
  3.52878408E+00 -7.22893583E-15 -1.49330241E+00 -4.47110415E+00  8.58735257E-15
  3.12599029E+00 -3.52878408E+00  7.22893583E-15 -5.43458912E+00 -1.10885517E+00
  1.59859989E-15 -5.43458912E+00 -1.10885517E+00  1.59859989E-15 -7.18244858E+00
  6.86446481E-01 -2.09570409E-15 -7.18244858E+00  6.86446481E-01 -2.09570409E-15
 -5.90319098E+00 -3.13067751E+00  5.50345343E-15 -9.21608439E+00  2.72072857E-01
 -1.49860446E-15 -6.71384672E+00  2.70826884E+00 -6.00055767E-15  5.43458912E+00
  1.10885517E+00 -1.59859989E-15  5.43458912E+00  1.10885517E+00 -1.59859989E-15
  7.18244858E+00 -6.86446481E-01  2.09570409E-15  7.18244858E+00 -6.86446481E-01
  2.09570409E-15  5.90319098E+00  3.13067751E+00 -5.50345343E-15  9.21608439E+00
 -2.72072857E-01  1.49860446E-15  6.71384672E+00 -2.70826884E+00  6.00055767E-15
Orthonormalization Matrix                  R   N=        1830
 -1.42430198E-02  9.73836206E-03  1.25062734E-16 -1.00087134E-02 -4.40474891E-04
  1.10967790E-16 -5.25422233E-16  1.75600054E-17 -3.68396994E-05 -3.61631840E-03
  1.64983988E-17  6.55189307E-06 -1.77704424E-02  6.14887082E-03  5.17433867E-17
  4.97382653E-04 -2.12431275E-02 -1.36533925E-03 -8.59079505E-17  2.72274583E-02
 -9.26306782E-04 -3.14429833E-04 -8.59751749E-18  8.03071696E-18 -5.13295342E-17
 -7.42767498E-04  2.55566903E-03  4.04416578E-03  1.98038558E-03  3.47294378E-17
  5.80673067E-17  1.12607073E-02 -1.37876067E-16  3.78375334E-03  1.75896798E-04
  1.98778423E-02  2.18938432E-18  9.78802397E-18 -5.31954735E-03  7.44423363E-17
 -4.31784225E-16  1.01831245E-16 -1.82191071E-02  4.73609548E-18 -2.33650948E-03
 -1.22453170E-03  1.92669305E-02  6.24452569E-03  1.03671375E+00 -5.00120427E-17
  6.84550704E-17 -1.09888083E-16 -7.97931253E-04 -9.86286965E-17  4.10805287E-04
  0.00000000E+00 -6.97001263E-04  1.29631121E-03  1.45506106E-17 -5.95740671E-17
 -3.04961374E-03  3.57678062E-17 -7.30543415E-03  1.31298446E-18  2.23968379E-17
  1.09356009E-16 -1.00293999E-03  3.85274528E-04 -1.22889901E-02  1.05520839E-04
 -6.85579264E-06 -1.34484000E-03 -5.24085932E-18  2.70506041E-02  2.70351666E-02
  4.21193180E-05 -8.80327922E-04  9.77655875E-17  4.20173105E-04 -5.95740671E-17
 -3.02719877E-01 -2.89115854E-16  1.05981640E-03  1.92669305E-02 -3.04757699E-01
 -3.02719877E-01 -7.05824208E-04 -9.30336937E-02 -6.95660658E-04  2.78746179E-04
  7.00469140E-03  6.45205842E-03  5.15382366E-02 -6.88658386E-04  1.20026796E-17
  9.58476679E-03 -2.26853487E-17  3.07286916E-01  5.87280091E-04 -2.99977798E-01
  5.68233839E-02  4.30193011E-17  4.18894771E-03 -1.34484000E-03 -3.31767937E-03
  6.54870827E-17  3.29940236E-03 -1.93551865E-04 -1.55898106E-04  4.68780493E-16
 -8.00828938E-04  2.20618014E-06  5.11767196E-16 -1.79207098E-16 -3.10883500E-17
 -5.55500239E-17  4.41777969E-04 -8.83193013E-04 -1.79145688E-18  2.27915121E-16
  0.00000000E+00  3.05011237E-01  1.05672187E-01 -1.93551865E-04  1.01669357E-16
  0.00000000E+00 -4.32087810E-03  1.32847503E-04  2.44978733E-03 -3.70704004E-03
 -2.04673209E-02  5.87280091E-04  1.25909466E-03  5.96755777E-18 -5.19568080E-03
  3.95947114E-03 -1.61158148E-02 -8.82366454E-04 -1.21887545E-03 -1.01883302E-04
 -8.73744395E-06  4.67492296E-04 -2.94372010E-04  1.35826852E-16  1.34417171E-04
  3.02867977E-05 -8.36379649E-04  3.40169819E-04 -1.55651790E-02  3.29940236E-03
 -7.93304108E-17  3.51233042E-16  5.39613573E-17 -2.08352131E-01 -3.04764220E-01
 -1.50296451E-02  2.40506066E-03 -6.57933246E-03 -1.39177609E-04  2.72274583E-02
 -3.40361146E-01 -4.29817525E-05 -1.57749434E-03 -9.43580567E-05  2.96552575E-01
 -6.81520192E-02  1.39945884E-16  1.30547032E-01 -7.56861666E-17  7.39088371E-18
 -3.04961374E-03 -7.55618606E-05  5.23795377E-17  2.66209317E-03 -5.05946579E-04
  1.23870375E-02  2.02178382E-02 -7.56180560E-03  2.49548871E-03 -7.02932935E-04
  1.31298446E-18  7.22101116E-17  8.11020756E-02  7.89645463E-17  2.50077900E-01
 -1.19558721E-01  4.91096553E-17  6.43872407E-03  1.98035856E-03  2.72702729E-16
  2.45373132E-18  3.34230014E-01  1.32946292E-03  3.46208952E-17 -3.74238495E-16
  5.62927703E-17 -2.72107082E-03 -2.12205387E-03 -5.37351051E-17  5.23795377E-17
  2.72357876E-02 -1.10094281E-16 -7.83888161E-16  1.00666911E-16 -1.20644455E-04
 -1.20644455E-04 -1.36533925E-03 -1.47388276E-16 -1.47371463E-17 -8.23994801E-17
  0.00000000E+00  3.66497244E-03  1.63337237E-03  2.72107082E-03  8.03071696E-18
  0.00000000E+00  8.68662787E-02  4.00950720E-03  6.52854143E-03  1.13175918E-16
  0.00000000E+00  1.54282361E-04  8.00525226E-04 -1.92523678E-17  2.22618434E-17
 -2.74812247E-17 -2.04673209E-02 -4.72787286E-05 -1.13661452E-16  3.27521738E-17
  1.06957709E-02 -2.41864667E-03  4.85454834E-04 -4.00950720E-03  2.26239833E-04
  4.10742509E-05  2.74855981E-01  3.82945798E-04 -3.27818454E-03  3.81888626E-05
 -1.42430198E-02  1.85104266E-04  3.09094555E-17  2.70357797E-02  7.95247205E-04
 -3.79330937E-05 -3.19107488E-04  6.53968284E-17 -1.30267361E-03 -3.14873706E-03
  1.04898595E-04  7.20583123E-03 -4.21223788E-17  4.67536216E-17  4.44263061E-18
  1.61428040E-04  6.10941874E-04  2.94372010E-04 -4.17237247E-16 -3.95347871E-16
 -3.66497244E-03  1.54282361E-04 -3.83447021E-04  1.82401123E-02  1.57749434E-03
 -2.06381851E-16 -1.55776724E-03 -6.97001263E-04  1.77704424E-02 -4.01305520E-03
  3.98292790E-02 -2.48401589E-03  2.63853033E-03  6.45205842E-03 -2.93798266E-04
  3.29359122E-04 -3.34230014E-01  1.27515990E+00 -9.23012535E-05  7.56312213E-17
  6.45205842E-03 -3.11315884E-17  2.74855981E-01  1.23309252E-02  1.62915553E-02
  1.05672187E-01  9.58476679E-03 -1.09216829E-02  1.11350764E-01  4.20173105E-04
 -4.78617724E-03 -3.47146439E-17  1.26132628E-02  1.09977004E-02  6.45205842E-03
  1.26390212E+00 -1.13275912E-01 -1.28555169E-03  3.09698548E-04  3.67450530E-03
 -1.08016280E-16 -2.44978733E-03  1.12240334E-04  6.15315027E-03 -2.06381851E-16
 -1.37281232E-16 -1.46570724E-02  5.70635837E-05 -3.70704004E-03  1.48048780E-16
  2.23968379E-17  1.25466983E+00  1.38956909E-03 -3.42727726E-04  6.24452569E-03
 -7.61425173E-04 -1.02604641E-02  1.45506106E-17 -4.31784225E-16 -5.55187711E-17
  1.58499337E-17 -1.98038558E-03 -6.09484550E-03 -3.55761164E-17  7.20354069E-17
 -6.43872407E-03 -3.17320074E-04  5.26618865E-03  4.63443297E-17 -1.56631445E-02
  0.00000000E+00 -2.20063229E-03  1.33211311E-03 -1.30267361E-03 -8.88480884E-17
  0.00000000E+00 -6.41496437E-03 -3.59632100E-16 -5.02606718E-16 -9.11681957E-18
  0.00000000E+00 -8.14023598E-17 -2.10116690E-04  2.63853033E-03  6.15315027E-03
  3.79494874E-04  1.98035856E-03  1.02604641E-02  4.44263061E-18 -1.05981640E-03
  5.19364053E-03  3.68396994E-05 -7.86066353E-18 -5.19092173E-03  1.61158148E-02
 -2.41516969E-05 -1.17046685E-16  1.83628814E-17 -1.22453170E-03  2.58960926E-02
 -1.68592897E-04  1.40075944E-02  6.01899668E-17  3.10163712E-04  1.90016618E-04
  4.85454834E-04 -3.77240609E-04 -2.57454879E-04  1.08892439E-02 -1.80989852E-04
  6.90266010E-17 -3.09698548E-04 -3.23895897E-17 -1.22275698E-03 -1.21887545E-03
  5.13973888E-05 -5.31954735E-03  7.60075749E-17 -8.82483787E-18  1.01013387E-01
 -3.05011237E-01  3.80985449E-04 -9.29956075E-02 -1.11350764E-01 -1.06014817E-02
  5.10530629E-02  1.42716552E-03 -1.00293999E-03  1.25466983E+00  1.71674480E-02
  2.23441197E-04  1.16154526E-16 -1.52153217E-02 -1.35488529E-04  4.78617724E-03
  2.70351666E-02 -1.53937994E-03 -2.41864667E-03 -1.01756054E-03  2.72357876E-02
  2.70332976E-02 -1.02541820E-03  5.19568080E-03 -1.52153217E-02 -7.24710979E-04
  5.96755777E-18  6.24452569E-03  2.74855981E-01 -3.17320074E-04  1.24005910E-01
  8.68662787E-02  6.03486543E-03 -2.26853487E-17 -1.33211311E-03  2.10116690E-04
  8.82366454E-04  3.73549334E-17 -8.00525226E-04  1.35488529E-04 -2.96003238E-17
  5.10530629E-02 -4.01305520E-03  2.02830112E-01 -1.82401123E-02  1.29631121E-03
  6.03486543E-03  6.01899668E-17 -1.61161955E-02  8.36379649E-04  1.56631445E-02
 -3.27818454E-03  5.71583350E-17  4.63443297E-17 -1.33162400E-04  9.73836206E-03
 -1.22275698E-03  1.82356175E-04 -1.10327174E-16 -1.06683380E-16  6.65544785E-18
 -1.13275912E-01 -7.56180560E-03  1.48430797E-04 -2.28410246E-16 -7.56861666E-17
  1.42999321E-18  2.97015520E-17  2.25670853E-04 -3.44135820E-17 -1.13275912E-01
 -2.38310126E-17 -3.74238495E-16 -7.55618606E-05 -1.56904849E-04 -1.35298434E-18
  3.33215152E-04 -1.31844132E-04 -1.57158882E-16  7.49065583E-18 -1.03673198E-16
 -1.03176098E-16  4.72787286E-05  5.26618865E-03 -3.70303746E-03 -1.37014002E-17
  5.11767196E-16 -1.75526832E-01  1.75896798E-04  7.26358767E-16 -1.02541820E-03
  6.80991116E-17  2.70612225E-16 -1.56631445E-02 -2.74812247E-17  1.80451296E-16
  2.70506041E-02  3.14873706E-03 -1.01397222E-05 -4.18522099E-03 -3.80985449E-04
 -1.90842720E-02 -1.83982598E-04  6.81520192E-02 -6.98656970E-04  9.30336937E-02
  2.72274583E-02  5.15382366E-02  2.66209317E-03  1.55898106E-04  3.12833205E-04
 -9.07380373E-03  6.95660658E-04 -7.00469140E-03 -1.12607073E-02 -2.77700184E-03
  2.99461024E-03 -6.54520101E-02  2.37836976E-04  3.05011237E-01 -2.00136904E-03
 -5.19568080E-03 -9.30336937E-02  1.55167823E-17 -1.06195679E-16 -1.01013387E-01
  8.32050801E-17 -1.16478419E-05  2.33164222E-01  1.24005910E-01  1.97845713E-17
 -2.82300352E-18  1.62915553E-02  2.70351666E-02  4.64979917E-04  4.30193011E-17
  1.07191510E-03 -5.09318740E-03  8.01089411E-04 -1.30710722E-17 -1.60450226E-16
  1.26667953E+00 -1.23870375E-02 -1.71674480E-02 -4.95643845E-04 -1.62418228E-02
  3.28797141E-17  5.15382366E-02  2.53981189E-02 -6.44360310E-03  1.04898595E-04
 -1.10127923E-16  9.36263173E-17 -9.29956075E-02 -1.22453170E-03 -2.15228404E-01
 -1.93530304E-04 -8.47018577E-04  4.00078485E-17 -2.91686736E-17  4.15535048E-18
 -1.98778423E-02  1.27806953E-02  3.57755952E-02 -2.99977798E-01  1.02941817E+00
  2.78746179E-04 -2.96552575E-01  3.32326615E-05 -7.77131493E-05 -1.00087134E-02
 -5.25422233E-16  1.40118171E-16 -5.42994654E-17 -4.18889713E-17 -2.77700184E-03
 -4.40474891E-04  3.82945798E-04  7.05824208E-04  1.78917245E-04  2.28421707E-01
 -1.10327174E-16 -1.40075944E-02 -1.61158148E-02  7.24710979E-04  2.72357876E-02
  1.50199273E-03  6.01300569E-04  2.59783931E-02  2.70332976E-02  3.33022880E-04
  1.26132628E-02  1.09216829E-02  1.27515990E+00 -3.91265795E-04  2.03221678E-16
  3.53272295E-04  3.74955776E-03  3.14795600E-04 -3.02719877E-01 -8.42560439E-03
  1.01831245E-16 -3.04757699E-01 -3.29940236E-03  2.93798266E-04 -3.04757699E-01
 -2.24264252E-03 -4.23565949E-05 -2.48977939E-02  2.99977798E-01  1.06304454E-17
  1.05875916E-17 -2.10155142E-01  6.59586660E-04  2.09026718E-01  1.24005910E-01
  0.00000000E+00 -1.55651790E-02  6.57886807E-03 -1.13995253E-01  2.70357797E-02
  0.00000000E+00  1.54933750E-02 -1.90795139E-02  4.69115990E-17 -5.69609999E-17
  0.00000000E+00 -2.02830112E-01 -2.49548871E-03  1.56904849E-04  4.46612178E-17
 -1.26977775E-05 -5.68233839E-02 -6.55189307E-06  4.65039958E-03 -1.35298434E-18
  0.00000000E+00  1.23124075E-16  6.89867743E-03 -8.52856058E-05 -6.18929977E-17
  0.00000000E+00  1.05964545E-03 -4.14868628E-02 -8.06217335E-17 -3.74787405E-17
 -2.81112574E-17  5.62955405E-19 -2.75766836E-06  2.72357876E-02 -9.05398144E-04
 -1.06631495E-02  1.22930373E-03  2.30229203E-01  1.40237216E-03 -7.77131493E-05
 -5.51259813E-17 -2.08352131E-01 -2.99461024E-03  2.24346400E-16 -1.24591401E-04
 -1.14328495E-03 -2.60401721E-04 -1.61161955E-02  5.10484726E-04 -3.14082265E-03
  3.27818454E-03  9.92194275E-17  3.83447021E-04  2.77700184E-03 -1.83982598E-04
  1.53937994E-03 -1.24604362E-04 -1.32327368E-03 -1.19675891E-06 -5.77841233E-18
 -1.85431376E-04  6.46008247E-17 -1.79145688E-18 -9.42028751E-04  1.50216665E-03
  3.02867977E-05  1.30267361E-03 -1.24480514E-04  1.49167058E-16 -1.09977004E-02
 -5.66162885E-17 -1.74194257E-02  9.62791154E-04 -7.61425173E-04 -5.23203530E-04
  4.14868628E-02 -2.46620385E-16 -7.86852761E-03  2.50077900E-01  1.05672187E-01
 -8.58419946E-04  4.32773296E-17  2.33027213E-01 -4.32087810E-03  1.85104266E-04
 -1.08016280E-16 -3.23767909E-16 -2.11306804E-02 -3.57755952E-02  3.12203508E-04
 -2.30776107E-02  6.88658386E-04  4.49363575E-03 -3.49979152E-04  1.78555308E-04
 -7.90025723E-17  3.01684858E-03  1.26168786E-04 -2.38310126E-17 -5.92431463E-16
 -9.86286965E-17  3.20487351E-05  5.07839095E-05 -1.84362001E-06  5.10484726E-04
  4.49363575E-03  4.64979917E-04  3.78375334E-03 -2.52840187E-16 -2.01174641E-03
  1.04506449E-05 -7.29703987E-19  3.27521738E-17 -2.96003238E-17 -1.41449552E-16
  4.02198905E-05 -5.51259813E-17 -7.89125045E-16  1.01523103E-16 -3.05011237E-01
 -1.86768100E-16  8.00828938E-04 -2.08352131E-01  1.28475717E-16  1.26667953E+00
  4.26076877E-04 -1.52153217E-02  1.26132628E-02 -5.70635837E-05  1.71674480E-02
  1.41446710E-16  2.52384708E-04  2.63853033E-03 -3.79160195E-03  6.03543825E-04
  2.74970105E-04  1.17557073E-04  6.15315027E-03 -5.68233839E-02 -3.42505638E-01
 -3.44322219E-04 -3.02719877E-01 -8.87996795E-17 -1.00087134E-02 -2.33164222E-01
 -2.55566903E-03 -1.52105180E-17 -2.18023280E-17 -7.31122590E-17  6.41415237E-18
  7.17455092E-17  2.99819897E-18 -5.26646335E-16 -7.79294289E-18  5.78411311E-03
  3.73444237E-17 -5.22383076E-17  8.47018577E-04 -8.95571189E-17 -1.92523678E-17
 -2.71720827E-17  1.23870375E-02  1.01756054E-03  1.87944228E-16  9.78802397E-18
  8.53231382E-17  8.20595439E-17  1.00666911E-16 -9.62690058E-04 -2.79185231E-17
  1.35826852E-16 -8.68376393E-02  1.04762744E+00  6.14887082E-03  1.83565948E-16
 -3.05918304E-17 -2.09682703E-02  1.61161955E-02  2.74855981E-01  3.81347082E-04
  6.13542869E-18  2.65949432E-01 -1.25909466E-03 -1.69662038E-16 -6.78484800E-16
  0.00000000E+00 -9.67333652E-05  5.70965948E-17 -3.66291578E-17  9.26306782E-04
  0.00000000E+00 -7.83888161E-16  2.99226841E-17 -1.90061094E-17  1.02941441E+00
  0.00000000E+00  3.83447021E-04  6.63838960E-03  1.03668302E+00  3.79494874E-04
  0.00000000E+00  2.23441197E-04  7.02932935E-04  1.32946292E-03  7.44423363E-17
  0.00000000E+00 -1.82191071E-02  1.22130205E-04 -9.18225579E-18 -3.51148202E-17
  0.00000000E+00  2.74970105E-04 -4.17237247E-16  1.25471700E-17  1.61161955E-02
  1.47050232E-04 -2.03537730E-04  1.40118171E-16  2.45431750E-06  2.70357797E-02
  3.92382632E-05  7.97931253E-04  6.46553275E-16 -3.74955776E-03  1.06304454E-17
  6.94029312E-06  6.54520101E-02 -3.04764220E-01  3.79494874E-04 -1.47371463E-17
  1.30547032E-01  4.18894771E-03  6.61515887E-02  1.06297950E-04  4.23565949E-05
  6.03486543E-03 -1.34534233E-03  2.38107321E-04 -1.22333258E-05  6.47300405E-17
  1.39354748E-16 -9.62791154E-04  1.02941441E+00 -3.46889200E-04 -6.26500231E-05
 -1.98778423E-02 -2.09026718E-01 -2.18771951E-02  3.67168890E-03  3.04693787E-16
  3.71848636E-04 -1.75299185E-01 -1.41736028E-16 -2.39411715E-01  6.43872407E-03
 -1.02082339E-03  3.81347082E-04  1.27468445E-16 -7.29703987E-19 -3.33261641E-05
 -4.47746040E-17 -2.60401721E-04  1.02941817E+00  3.15365731E-06 -4.26076877E-04
 -6.14706342E-16 -1.30710722E-17 -2.20476446E-04 -4.81440323E-02  6.44360310E-03
  6.01300569E-04  6.06154766E-04  2.45096803E-02 -9.18955590E-03 -1.82191071E-02
 -8.95345647E-02 -8.00828938E-04  1.54849808E+00 -1.79869423E-17  3.77240609E-04
 -2.30776107E-02 -5.78281885E-17 -4.18522099E-03  5.68233839E-02 -8.95410240E-04
 -6.41496437E-03  2.54411008E-17 -1.05964545E-03 -2.96552575E-01  2.33027213E-01
 -1.41042865E-02  4.45034693E-16 -1.75587651E-02 -2.10155142E-01 -3.25682510E-05
  1.48153200E-17 -2.33027213E-01  2.41516969E-05  6.81520192E-02 -2.60401721E-04
  8.83193013E-04  3.82945798E-04 -1.75526832E-01 -3.08074223E-05 -1.55078837E-04
 -1.34534233E-03 -9.72348704E-05 -3.32276443E-03 -3.99382194E-05  3.23957482E-04
 -8.99559571E-05 -7.23389576E-05 -5.19364053E-03  2.19933771E-18  2.24515049E-05
 -1.22130205E-04  1.27468445E-16  6.46008247E-17  1.61300449E-16 -1.06683380E-16
  3.91265795E-04 -1.06631495E-02 -4.00950720E-03  2.12205387E-03  2.92941107E-16
  5.28790273E-03 -1.32847503E-04  1.30267361E-03  2.14534965E-17  6.15260451E-04
 -4.46306405E-16 -1.07241934E-16  7.26358767E-16 -1.66887117E-17  2.86797268E-05
 -3.55689943E-17  1.08017415E-07  5.89434474E-05  1.42430198E-02  1.13739982E-17
 -5.21003455E-16  7.95247205E-04 -5.26494253E-17  2.77700184E-03  3.33261641E-05
  1.34534233E-03 -3.14873706E-03  9.56003635E-17  2.34456611E-04  2.48977939E-02
  8.80327922E-04 -2.57454879E-04  9.26306782E-04 -8.88480884E-17  1.24005910E-01
  1.24534895E+00  1.22889901E-02  1.75600054E-17  1.57915578E-16 -1.37931742E-16
 -3.83992950E-17 -5.90371895E-17 -1.62418228E-02  4.16454517E-04  1.41788671E-17
 -1.43782694E-17 -1.37876067E-16  8.11020756E-02 -6.52854143E-03 -4.18889713E-17
 -5.31518278E-16 -1.10978418E-16 -3.95347871E-16  1.28352838E-16 -4.91970867E-17
  3.07600953E-04  2.70332976E-02  3.95947114E-03 -6.41496437E-03 -1.01013387E-01
 -3.74955776E-03 -1.50296451E-02 -1.82191071E-02 -9.49847338E-17  3.79330937E-05
 -1.75299185E-01  2.18450307E-05  4.84199678E-17 -5.13295342E-17 -6.89206882E-17
  1.54470257E-17 -1.14115066E-02  9.43580567E-05  2.70612225E-16  4.10185098E-17
  3.16442564E-04 -1.80989852E-04 -3.04764220E-01  3.33215152E-04 -5.57998418E-17
 -2.57454879E-04  1.87944228E-16  4.78617724E-03 -9.20194819E-17 -1.21887545E-03
 -9.18955590E-03 -9.72348704E-05 -3.98292790E-02  1.29021550E-04  2.09682703E-02
 -2.20476446E-04  4.91096553E-17  1.73064936E-04  2.11306804E-02 -1.58376680E-16
 -5.18404858E-05  1.55651790E-02 -6.30731832E-06 -1.06374554E-02  1.28555169E-03
  4.97382653E-04 -8.87996795E-17 -5.10530629E-02  3.31654987E-04 -1.43840286E-16
 -1.32196747E-02 -6.17170095E-05 -1.08892439E-02  1.08422279E-03  2.54957542E-04
  6.14733748E-04 -3.98292790E-02 -4.78633542E-04 -2.89939646E-03 -1.07241934E-16
  2.91205162E-17 -1.69662038E-16 -1.76017648E-17  4.97382653E-04 -9.29956075E-02
  5.58469731E-04  8.82366454E-04  4.84199678E-17  1.90016618E-04  6.26500231E-05
 -4.96577291E-17  1.01883302E-04  1.31674698E-16 -4.78617724E-03 -2.40506066E-03
  1.28555169E-03  1.61300449E-16  2.39411715E-01 -1.38956909E-03  4.77404348E-17
  1.53145777E+00  7.42767498E-04 -1.75526832E-01 -4.43269035E-04  1.30547032E-01
  1.05981640E-03 -2.11306804E-02 -1.06631495E-02  1.55167823E-17 -1.22930373E-03
 -1.72904712E-03 -1.24604362E-04  3.82945798E-04  2.38107321E-04  4.63777773E-17
 -2.02830112E-01 -1.75587651E-02  8.50645601E-04  8.46818617E-04 -5.19364053E-03
  1.33162400E-04  1.94641610E-03 -1.13995253E-01 -2.57454879E-04  2.06396348E-06
  2.63853033E-03 -9.20194819E-17  1.82356175E-04  1.80585542E-17  5.91782021E-16
  1.01013387E-01 -2.22719242E-06  1.33024053E-16 -1.75486101E-01 -3.80086422E-17
  1.61428040E-04 -2.56749890E-04  1.32327368E-03 -1.23309252E-02 -1.34683647E-02
  1.08783142E-16  4.57328717E-06  5.19092173E-03 -9.24207444E-17  4.85554752E-04
 -1.52199097E-05  2.17954933E-02  4.85554752E-04  3.29359122E-04  3.12203508E-04
  8.11020756E-02  1.85431376E-04 -2.94372010E-04  8.11020756E-02 -1.13903761E-01
  3.40169819E-04  1.34547577E-05 -1.19675891E-06  1.54849808E+00  4.85454834E-04
  1.78555308E-04 -3.13531479E-16  1.76634745E-03 -5.03138237E-03 -5.02606718E-16
 -3.14082265E-03  2.33650948E-03 -2.65949432E-01 -3.47706690E-16 -1.85431376E-04
 -9.40169691E-06  2.34456611E-04  1.26390212E+00 -2.39373876E-05 -2.32613151E-17
 -7.00469140E-03  2.18771951E-02 -5.19092173E-03  8.12632423E-04  8.68662787E-02
  1.31844132E-04 -3.43347060E-17 -2.56749890E-04  0.00000000E+00 -2.08572720E-03
  5.28790273E-03  4.16454517E-04  8.60941226E-17  0.00000000E+00  3.95947114E-03
  7.17255833E-02  6.47300405E-17 -4.58024611E-17  0.00000000E+00 -2.79185231E-17
 -1.14005483E-16 -6.80326607E-16 -1.22453170E-03  0.00000000E+00 -9.62791154E-04
 -6.03543825E-04  6.15315027E-03  5.78411311E-03  0.00000000E+00  1.09216829E-02
  9.23012535E-05  3.42727726E-04 -9.08610313E-17 -7.23389576E-05 -1.22275698E-03
  8.00828938E-04 -1.08017416E-07  0.00000000E+00  0.00000000E+00  0.00000000E+00
  0.00000000E+00  0.00000000E+00  0.00000000E+00  0.00000000E+00  0.00000000E+00
  0.00000000E+00  0.00000000E+00 -1.85805311E-04  0.00000000E+00  1.14130354E-16
 -3.14429833E-04  5.70965948E-17  2.90935828E-17  3.81347082E-04 -1.75526832E-01
 -1.84362001E-06  1.55776724E-03 -8.06217335E-17 -1.75486101E-01 -3.15856844E-18
 -6.25880922E-07  1.97845713E-17 -9.18955590E-03 -3.14429833E-04  1.56639603E-16
 -1.76634745E-03  2.45096803E-02  3.63509406E-16 -1.70590945E-02  1.72082982E-02
  2.06396348E-06 -7.86852761E-03  5.15382366E-02 -2.53981189E-02 -1.76646299E-02
  9.40169691E-06 -8.95410240E-04  6.54870827E-17  2.70332976E-02  1.45492379E-16
  3.33215152E-04  5.83886807E-17  6.25880922E-07  4.10742509E-05 -3.83447021E-04
  0.00000000E+00  2.45431750E-06 -7.96625330E-07  4.97382653E-04 -1.08323139E-02
  0.00000000E+00 -1.28555169E-03 -3.55761164E-17  8.12632423E-04  3.16390990E-04
 -5.03076910E-03 -2.30229203E-01  3.99036934E-04 -1.70420569E-03  2.99639414E-18
  4.41777969E-04 -4.18522099E-03  1.54926463E+00 -1.52199097E-05 -2.09682703E-02
  1.28441504E-03  2.09682703E-02 -1.79207098E-16 -1.14328495E-03  2.45096803E-02
 -1.17557073E-04  1.16478419E-05 -1.06631495E-02  1.28995489E+00 -2.12431275E-02
  6.15260451E-04 -6.10082895E-18 -7.26754903E-16 -5.31518278E-16 -3.01684858E-03
 -8.95345647E-02  3.95947114E-03  1.30547032E-01 -2.15228404E-01  5.03076910E-03
 -2.49210030E-03 -2.09026718E-01  4.67492296E-04 -1.71546101E-16  6.03486543E-03
  3.15365731E-06  2.93556532E-17  3.81888626E-05  1.08972960E-16  0.00000000E+00
  5.19364053E-03  1.05964545E-03 -9.18225579E-18  3.85274528E-04  0.00000000E+00
  2.19155710E-02  3.32936630E-03 -1.85805311E-04  7.13690916E-04  1.11747824E-16
  9.42028751E-04  1.04762744E+00 -7.89125045E-16 -8.28117606E-17 -1.06374554E-02
 -1.41085626E-16 -3.57755952E-02 -3.92382632E-05 -4.49363575E-03  3.98292790E-02
  7.98887627E-17 -1.32327368E-03 -2.49210030E-03  1.63337237E-03  4.01305520E-03
 -6.10082895E-18 -1.68736160E-16 -3.71848636E-04  1.47264269E-05  3.01178552E-17
 -5.34684955E-16 -6.57886807E-03 -9.67333652E-05 -3.79160195E-03 -1.13995253E-01
 -7.90025723E-17 -1.74194257E-02 -6.94029312E-06  1.09356009E-16 -1.93231484E-17
  2.25670853E-04  1.61158148E-02 -1.93530304E-04 -1.28441504E-03 -2.39411715E-01
 -4.67106144E-05  2.70351666E-02 -3.07286916E-01 -1.53437252E-02  0.00000000E+00
 -3.14082265E-03  1.40075944E-02 -1.62915553E-02  2.22618434E-17  0.00000000E+00
  1.18204189E-17  1.78917245E-04 -1.26977775E-05 -1.47050232E-04  5.29410535E-17
  2.30663144E-16 -6.71400914E-18  1.83516737E-17  3.32276443E-03  1.70420569E-03
 -2.21098378E-17 -1.09216829E-02  2.39373876E-05 -5.57998418E-17  5.80673067E-17
  5.94931284E-17  5.97200506E-16 -1.19558721E-01 -3.31654987E-04  7.77112915E-18
 -1.13903761E-01  4.16283192E-18 -5.92431463E-16  5.44019416E-17 -8.68376393E-02
 -6.18959920E-17  8.36729838E-17 -1.13903761E-01  2.09866016E-17  4.09714343E-17
 -1.40450568E-16 -1.11682952E-16  2.92941107E-16 -1.69538529E-16 -2.26763237E-17
 -8.18818989E-17  2.72671244E-18 -2.02178382E-02  1.52573890E-03 -1.72651227E-17
  1.03668302E+00 -3.07286916E-01  3.46208952E-17 -4.18522099E-03  1.80005347E-16
  0.00000000E+00  2.70506041E-02 -3.04757699E-01  9.30336937E-02  2.99977798E-01
  0.00000000E+00  4.56866065E-17  1.50726514E-05  6.03957389E-06  1.28088556E-05
 -1.75486101E-01  7.61425173E-04  4.00950720E-03  4.10805287E-04 -1.94641610E-03
 -3.17907657E-17  1.13739982E-17  1.75162887E-16  0.00000000E+00  1.42716552E-03
  5.05946579E-04  1.52573890E-03  6.24452569E-03  0.00000000E+00 -2.12431275E-02
 -1.47264269E-05  1.47569323E-16 -8.73582272E-17  0.00000000E+00  2.07205712E-04
 -1.13903761E-01  7.43569548E-20  3.27818454E-03  0.00000000E+00 -4.02198905E-05
  1.80005347E-16 -6.17637641E-17  3.85274528E-04  0.00000000E+00  2.50077900E-01
 -1.06075501E-16 -1.10148476E-16 -1.33162070E-17  0.00000000E+00 -1.72651227E-17
 -1.62915553E-02 -3.59632100E-16 -2.56749890E-04 -3.19107488E-04  1.28088556E-05
  1.63180721E-04  2.86797268E-05  0.00000000E+00  0.00000000E+00  0.00000000E+00
  0.00000000E+00  0.00000000E+00  0.00000000E+00  0.00000000E+00  0.00000000E+00
  0.00000000E+00  0.00000000E+00  0.00000000E+00  0.00000000E+00  0.00000000E+00
  2.99226841E-17 -1.53146074E-03 -5.47799367E-17 -3.70303746E-03  1.02955122E+00
  4.18894771E-03  1.54607871E-02 -9.26306782E-04 -2.72371000E-17  1.02082339E-03
  1.70135980E-05  5.23203530E-04  1.08892439E-02 -3.05864637E-03  6.83568565E-03
  2.54957542E-04 -2.24515049E-05 -5.24116312E-16  1.32196747E-02  2.02830112E-01
 -3.04961374E-03 -5.74133133E-17  1.53145777E+00  2.70357797E-02  4.68780493E-16
  2.04673209E-02  2.96552575E-01  7.00469140E-03  2.24072391E-01  1.05917503E-02
  1.24924269E-16 -6.57933246E-03  1.55078837E-04  7.49065583E-18  3.20487351E-05
  1.54933750E-02  2.45096803E-02  9.62791154E-04  1.05520839E-04 -2.60401721E-04
  0.00000000E+00  3.29359122E-04  3.19107488E-04  3.16442564E-04  8.46818617E-04
  0.00000000E+00  0.00000000E+00  0.00000000E+00  0.00000000E+00  0.00000000E+00
 -9.18955590E-03  0.00000000E+00 -1.26168786E-04  8.94071743E-17  5.15568547E-17
  4.69115990E-17 -2.71720827E-17  5.07839095E-05 -2.26598547E-03  8.52358588E-17
  2.52384708E-04  3.81347082E-04  3.07286916E-01 -2.08572720E-03 -1.40075944E-02
  1.04506449E-05  1.85431376E-04  1.55651790E-02 -1.22889901E-02 -3.99036934E-04
  3.73121229E-16 -2.06457750E-04  2.17954933E-02  3.78759381E-16  1.90842720E-02
 -7.41474428E-17 -1.70948732E-02 -2.28421707E-01 -5.03138237E-03 -9.07380373E-03
  2.01174641E-03 -1.54933750E-02  1.32196747E-02  1.98778423E-02  7.17255833E-02
  5.71583350E-17 -1.75486101E-01 -1.54607871E-02  2.20063229E-03  2.11306804E-02
 -3.29940236E-03 -5.37351051E-17  2.09026718E-01 -4.21193180E-05  0.00000000E+00
 -1.72904712E-03  1.69793845E-02 -3.55217179E-17  5.58469731E-04  0.00000000E+00
  0.00000000E+00  0.00000000E+00  0.00000000E+00  0.00000000E+00 -5.78626786E-16
  0.00000000E+00  6.61515887E-02 -6.09484550E-03 -5.34684955E-16  1.48048780E-16
 -2.10925500E-03 -2.52840187E-16  2.50077900E-01 -6.37226306E-04  4.85554752E-04
 -1.12240334E-04 -2.15228404E-01 -6.89867743E-03  1.39177609E-04  5.62927703E-17
  6.14887082E-03  1.90795139E-02  2.07205712E-04  2.84942594E-17 -5.28739500E-17
  3.07600953E-04 -5.09318740E-03  6.17170095E-05  5.18404858E-05 -2.75766836E-06
 -1.55278893E-16 -2.03537730E-04  4.57328717E-06  9.95637581E-17  9.05398144E-04
  1.53110748E-16 -6.06154766E-04 -3.35056176E-16 -3.80086422E-17 -1.41736028E-16
  1.31674698E-16  8.68662787E-02  4.95643845E-04  6.63838960E-03 -5.26646335E-16
  5.91782021E-16  2.58960926E-02 -3.14082265E-03 -3.78375334E-03  0.00000000E+00
 -1.08422279E-03  8.50645601E-04  6.59586660E-04  1.63180721E-04  0.00000000E+00
  0.00000000E+00  0.00000000E+00  0.00000000E+00  0.00000000E+00 -2.33027213E-01
  0.00000000E+00  3.67168890E-03 -4.15220927E-17 -1.29813584E-16  1.53146074E-03
 -6.80326607E-16 -1.43782694E-17  6.14887082E-03 -6.14733748E-04  2.26598547E-03
  7.20583123E-03  3.47294378E-17 -6.81520192E-02 -1.38522737E-16 -2.81112574E-17
  3.63509406E-16 -3.10967086E-17 -2.72371000E-17  3.80471525E-17 -2.71909533E-17
  7.42362402E-17 -1.21887545E-03  1.06957709E-02  1.42430198E-02  5.19092173E-03
 -3.47706690E-16  1.83516737E-17  1.47569323E-16  6.63838960E-03 -9.29956075E-02
  6.54520101E-02 -1.08892439E-02  1.10967790E-16 -1.61878386E-16 -1.16861242E-16
 -3.99382194E-05 -9.61178328E-17 -1.34683647E-02  8.52856058E-05  5.83886807E-17
 -1.29813584E-16  1.16056412E-16  1.68592897E-04 -3.40361146E-01  4.18894771E-03
  0.00000000E+00 -2.66733569E-05 -2.22719242E-06 -1.34547577E-05 -1.80866557E-17
  0.00000000E+00  0.00000000E+00  0.00000000E+00  0.00000000E+00  0.00000000E+00
  1.05672187E-01  0.00000000E+00 -1.40237216E-03 -1.76017648E-17  4.78633542E-04
 -1.13995253E-01 -1.13275912E-01 -1.09649186E-17  6.17740837E-17 -2.12821077E-03
 -7.30543415E-03  4.15535048E-18  6.97380172E-17 -1.70948732E-02 -1.22275698E-03
 -1.93020349E-04  4.01305520E-03 -2.10925500E-03 -8.99559571E-05 -5.28739500E-17
  5.13973888E-05  3.32276443E-03 -6.43872407E-03 -1.23959854E-04 -1.05981640E-03
 -7.56180560E-03  9.62690058E-04  4.04416578E-03  3.16390990E-04 -8.73744395E-06
  2.72274583E-02  9.56003635E-17 -4.49363575E-03  2.84942594E-17 -1.52153217E-02
 -8.82366454E-04  2.46370302E-17 -7.41474428E-17  1.24534895E+00 -8.74282512E-17
  3.57755952E-02  1.57992509E-02  1.55078837E-04  1.11747824E-16 -7.13690916E-04
 -6.54520101E-02 -3.23957482E-04 -3.32936630E-03  8.58419946E-04 -5.78626786E-16
  4.76107187E-17  1.32327368E-03  0.00000000E+00  1.28995489E+00  1.22889901E-02
 -2.15228404E-01 -5.21003455E-16  2.66733569E-05  3.74955776E-03  1.56631445E-02
  1.50216665E-03 -3.44135820E-17  3.14873706E-03 -1.54984234E-16  6.65599802E-17
 -1.05964545E-03  3.67450530E-03  2.74420410E-03  1.03671375E+00 -1.23959854E-04
  7.77112915E-18 -1.75299185E-01  6.37226306E-04  1.54926463E+00  1.21567745E-04
 -1.93231484E-17  3.33215152E-04 -2.30776107E-02  3.01178552E-17 -1.10127923E-16
  5.23203530E-04 -7.96625330E-07  4.85454834E-04 -1.55078837E-04  3.10163712E-04
 -6.85579264E-06 -1.69793845E-02  2.94372010E-04  1.34534233E-03 -1.22333258E-05
  1.70135980E-05 -6.03957389E-06 -1.34417171E-04 -5.10530629E-02 -1.57749434E-03
  4.29817525E-05  3.29359122E-04 -7.56180560E-03 -1.23870375E-02 -1.48430797E-04
 -3.53790997E-17 -1.14201114E-16 -1.57158882E-16 -3.04764220E-01 -2.06457750E-04
  0.00000000E+00  2.24072391E-01 -6.83568565E-03 -1.72082982E-02 -1.32196747E-02
  0.00000000E+00  0.00000000E+00  0.00000000E+00  0.00000000E+00  0.00000000E+00
 -1.75299185E-01  0.00000000E+00 -1.06075501E-16 -1.08323139E-02  3.61631840E-03
  2.12821077E-03 -7.26754903E-16  2.14534965E-17  1.24591401E-04 -2.30776107E-02
 -1.19558721E-01  2.20618014E-06 -2.04851671E-17 -2.08352131E-01  6.63838960E-03
  5.89434474E-05 -6.14733748E-04 -3.04961374E-03 -2.48401589E-03  2.46370302E-17
  9.05398144E-04  1.57749434E-03 -1.19558721E-01  4.96911586E-17  1.29524183E-16
  1.50726514E-05  2.26239833E-04 -1.71674480E-02 -1.06014817E-02  6.10941874E-04
 -1.30782448E-16  3.46889200E-04  3.73121229E-16 -1.54933750E-02 -3.49979152E-04
  3.73549334E-17  4.45034693E-16 -8.42318688E-17  1.46570724E-02 -3.16898565E-17
  1.81196673E-16  2.70506041E-02 -1.79956643E-05  1.41788671E-17 -3.08074223E-05
 -3.25682510E-05  2.39411715E-01  4.81440323E-02 -1.06297950E-04  2.19155710E-02
  1.41042865E-02 -1.33162070E-17  1.10183959E-16  4.96911586E-17  0.00000000E+00
  1.70590945E-02 -3.13031158E-17 -1.76646299E-02 -1.05917503E-02  5.19568080E-03
  7.61425173E-04  1.02955122E+00  3.85274528E-04  3.31767937E-03  1.14115066E-02
 -5.24116312E-16 -9.05398144E-04 -1.06318012E-17 -3.32276443E-03  1.26132628E-02
 -2.18450307E-05  3.90615053E-17 -1.22930373E-03  3.05864637E-03 -6.41496437E-03
Overlap Matrix                             R   N=        1830
  1.00000000E+00  2.48362390E-01  1.00000000E+00  0.00000000E+00 -2.47021272E-16
  1.00000000E+00 -3.92614542E-18 -7.54489951E-17  2.92389811E-32  1.00000000E+00
  6.79642237E-33 -1.98870957E-32 -6.32704000E-48  0.00000000E+00  1.00000000E+00
  9.28499138E-07  3.79483092E-02 -4.17199964E-02  4.70919219E-02 -9.64711155E-17
  1.00000000E+00  3.79483092E-02  3.67071367E-01 -2.58382267E-01  2.91651932E-01
 -5.97469503E-16  2.48362390E-01  1.00000000E+00  4.17199964E-02  2.58382267E-01
 -2.38697895E-02  2.69517708E-01 -5.52125989E-16 -1.70023257E-18  0.00000000E+00
  1.00000000E+00 -4.70919219E-02 -2.91651932E-01  2.69517708E-01 -8.93180125E-02
  6.23218509E-16 -2.87661866E-16 -2.81810080E-16  0.00000000E+00  1.00000000E+00
  9.64711155E-17  5.97469503E-16 -5.52125989E-16  6.23218509E-16  2.14903175E-01
 -1.32042995E-31  5.55720627E-31  0.00000000E+00 -4.68271985E-46  1.00000000E+00
  2.05608027E-17  1.84257566E-03 -4.02361919E-03  1.34402295E-03 -3.05042292E-18
  9.35849271E-07  3.79890711E-02 -6.17105198E-02 -1.25887450E-02  1.81475131E-17
  1.00000000E+00  1.84257566E-03  6.12758481E-02 -8.54995256E-02  2.85596920E-02
 -6.48196810E-17  3.79890711E-02  3.67296441E-01 -3.81939539E-01 -7.79144214E-02
  1.12318820E-16  2.48362390E-01  1.00000000E+00  4.02361919E-03  8.54995256E-02
 -1.06061995E-01  4.40001101E-02 -9.98635807E-17  6.17105198E-02  3.81939539E-01
 -3.06403838E-01 -1.06380508E-01  1.53354578E-16 -8.66565768E-17 -2.73873542E-17
  1.00000000E+00 -1.34402295E-03 -2.85596920E-02  4.40001101E-02  1.09642096E-02
  3.33577653E-17  1.25887450E-02  7.79144214E-02 -1.06380508E-01  1.93376294E-01
  3.12838342E-17  7.46348625E-17 -1.40905040E-16 -7.12361375E-33  1.00000000E+00
  3.05042292E-18  6.48196810E-17 -9.98635807E-17  3.33577653E-17  2.56617133E-02
 -1.81475131E-17 -1.12318820E-16  1.53354578E-16  3.12838342E-17  2.15077572E-01
 -2.47674403E-31 -9.72994279E-32  2.53081600E-47 -2.53081600E-47  1.00000000E+00
  9.69956219E-23  4.22422022E-04 -1.09814248E-03 -2.23972451E-04  3.22848032E-19
  2.07766845E-17  1.84489037E-03 -3.17913752E-03 -2.81589233E-03  5.17352143E-18
  9.32781801E-07  3.79720926E-02 -1.99432541E-02 -5.97110317E-02  1.14682969E-16
  1.00000000E+00  4.22422022E-04  2.63846609E-02 -4.15260030E-02 -8.46946625E-03
  1.22084234E-17  1.84489037E-03  6.13204775E-02 -6.75227108E-02 -5.98076309E-02
  1.09882064E-16  3.79720926E-02  3.67202707E-01 -1.23466549E-01 -3.69664598E-01
  7.09989972E-16  2.48362390E-01  1.00000000E+00  1.09814248E-03  4.15260030E-02
 -6.02962948E-02 -1.43755942E-02  2.07218891E-17  3.17913752E-03  6.75227108E-02
 -5.64152786E-02 -7.27173659E-02  1.33600581E-16  1.99432541E-02  1.23466549E-01
  1.60500016E-01 -1.63190270E-01  3.13428594E-16  0.00000000E+00  2.47021272E-16
  1.00000000E+00  2.23972451E-04  8.46946625E-03 -1.43755942E-02  7.25561534E-03
  4.22634801E-18  2.81589233E-03  5.98076309E-02 -7.27173659E-02 -3.87262493E-02
  1.18335507E-16  5.97110317E-02  3.69664598E-01 -1.63190270E-01 -2.73594333E-01
  9.38419809E-16  3.92614542E-18  7.54489951E-17  2.92389811E-32  1.00000000E+00
 -3.22848032E-19 -1.22084234E-17  2.07218891E-17  4.22634801E-18  1.01876002E-02
 -5.17352143E-18 -1.09882064E-16  1.33600581E-16  1.18335507E-16  2.56825005E-02
 -1.14682969E-16 -7.09989972E-16  3.13428594E-16  9.38419809E-16  2.15004936E-01
 -6.79642237E-33  1.98870957E-32 -6.32704000E-48  0.00000000E+00  1.00000000E+00
  2.07766845E-17  1.84489037E-03 -3.17913752E-03 -2.81589233E-03  5.17352143E-18
  9.78578800E-23  4.22871019E-04 -3.55212406E-04 -1.06411980E-03  2.04380438E-18
  2.05843586E-17  1.84282927E-03  8.48599293E-04 -4.15694563E-03  8.21856855E-18
  9.28499138E-07  3.79483092E-02  4.17199964E-02 -4.70919219E-02  9.64711155E-17
  1.00000000E+00  1.84489037E-03  6.13204775E-02 -6.75227108E-02 -5.98076309E-02
  1.09882064E-16  4.22871019E-04  2.64005007E-02 -1.34265195E-02 -4.02222024E-02
  7.72528742E-17  1.84282927E-03  6.12807389E-02  1.80312937E-02 -8.83280342E-02
  1.74630623E-16  3.79483092E-02  3.67071367E-01  2.58382267E-01 -2.91651932E-01
  5.97469503E-16  2.48362390E-01  1.00000000E+00  3.17913752E-03  6.75227108E-02
 -5.64152786E-02 -7.27173659E-02  1.33600581E-16  3.55212406E-04  1.34265195E-02
  2.83008715E-03 -2.20609509E-02  4.23714209E-17 -8.48599293E-04 -1.80312937E-02
  1.98058897E-02  2.86964762E-02 -5.67349148E-17 -4.17199964E-02 -2.58382267E-01
 -2.38697895E-02  2.69517708E-01 -5.52125989E-16  2.58437827E-17  1.14080426E-16
  1.00000000E+00  2.81589233E-03  5.98076309E-02 -7.27173659E-02 -3.87262493E-02
  1.18335507E-16  1.06411980E-03  4.02222024E-02 -2.20609509E-02 -5.58943879E-02
  1.26933258E-16  4.15694563E-03  8.83280342E-02  2.86964762E-02 -1.14908470E-01
  2.77921462E-16  4.70919219E-02  2.91651932E-01  2.69517708E-01 -8.93180125E-02
  6.23218509E-16  2.87661866E-16  2.81810080E-16  2.92389811E-32  1.00000000E+00
 -5.17352143E-18 -1.09882064E-16  1.33600581E-16  1.18335507E-16  2.56825005E-02
 -2.04380438E-18 -7.72528742E-17  4.23714209E-17  1.26933258E-16  1.01942236E-02
 -8.21856855E-18 -1.74630623E-16 -5.67349148E-17  2.77921462E-16  2.56639912E-02
 -9.64711155E-17 -5.97469503E-16 -5.52125989E-16  6.23218509E-16  2.14903175E-01
  1.32042995E-31 -5.55720627E-31 -7.69875756E-47 -4.68271985E-46  1.00000000E+00
  9.32781801E-07  3.79720926E-02 -1.99432541E-02 -5.97110317E-02  1.14682969E-16
  2.05843586E-17  1.84282927E-03  8.48599293E-04 -4.15694563E-03  8.21856855E-18
  9.67201544E-23  4.22277839E-04  7.42855953E-04 -8.38725530E-04  1.71816797E-18
  2.05608027E-17  1.84257566E-03  4.02361919E-03 -1.34402295E-03  3.05042292E-18
  9.35849271E-07  3.79890711E-02  6.17105198E-02  1.25887450E-02 -1.81475131E-17
  1.00000000E+00  3.79720926E-02  3.67202707E-01 -1.23466549E-01 -3.69664598E-01
  7.09989972E-16  1.84282927E-03  6.12807389E-02  1.80312937E-02 -8.83280342E-02
  1.74630623E-16  4.22277839E-04  2.63795729E-02  2.80947942E-02 -3.17205793E-02
  6.49810713E-17  1.84257566E-03  6.12758481E-02  8.54995256E-02 -2.85596920E-02
  6.48196810E-17  3.79890711E-02  3.67296441E-01  3.81939539E-01  7.79144214E-02
 -1.12318820E-16  2.48362390E-01  1.00000000E+00  1.99432541E-02  1.23466549E-01
  1.60500016E-01 -1.63190270E-01  3.13428594E-16 -8.48599293E-04 -1.80312937E-02
  1.98058897E-02  2.86964762E-02 -5.67349148E-17 -7.42855953E-04 -2.80947942E-02
 -2.20833552E-02  3.64332946E-02 -7.46352861E-17 -4.02361919E-03 -8.54995256E-02
 -1.06061995E-01  4.40001101E-02 -9.98635807E-17 -6.17105198E-02 -3.81939539E-01
 -3.06403838E-01 -1.06380508E-01  1.53354578E-16  4.90705165E-17 -1.50897990E-16
  1.00000000E+00  5.97110317E-02  3.69664598E-01 -1.63190270E-01 -2.73594333E-01
  9.38419809E-16  4.15694563E-03  8.83280342E-02  2.86964762E-02 -1.14908470E-01
  2.77921462E-16  8.38725530E-04  3.17205793E-02  3.64332946E-02 -3.09497356E-02
  8.42673733E-17  1.34402295E-03  2.85596920E-02  4.40001101E-02  1.09642096E-02
  3.33577653E-17 -1.25887450E-02 -7.79144214E-02 -1.06380508E-01  1.93376294E-01
  3.12838342E-17 -7.46348625E-17  1.40905040E-16 -2.92389811E-32  1.00000000E+00
 -1.14682969E-16 -7.09989972E-16  3.13428594E-16  9.38419809E-16  2.15004936E-01
 -8.21856855E-18 -1.74630623E-16 -5.67349148E-17  2.77921462E-16  2.56639912E-02
 -1.71816797E-18 -6.49810713E-17 -7.46352861E-17  8.42673733E-17  1.01854727E-02
 -3.05042292E-18 -6.48196810E-17 -9.98635807E-17  3.33577653E-17  2.56617133E-02
  1.81475131E-17  1.12318820E-16  1.53354578E-16  3.12838342E-17  2.15077572E-01
  2.47674403E-31  9.72994279E-32  0.00000000E+00 -2.53081600E-47  1.00000000E+00
  5.29064196E-03  9.55903187E-02 -3.29116238E-02  1.19138660E-01 -2.36446288E-16
  6.08874056E-02  4.85212737E-01  1.47061368E-01  4.40014721E-01 -8.45096437E-16
  5.29176584E-03  9.56049109E-02  9.79163065E-02  7.54563185E-02 -1.37298098E-16
  9.20087291E-05  6.45003131E-03  6.75860783E-03  8.28683980E-03 -1.54974442E-17
  1.21817086E-05  1.84747902E-03  1.05294511E-03  3.15324093E-03 -6.05624175E-18
  9.19773484E-05  6.44864959E-03 -4.21949098E-04  1.06830173E-02 -2.09366027E-17
  1.00000000E+00  9.18753931E-05  6.44415922E-03 -9.45667472E-03  4.97273417E-03
 -1.07167321E-17  5.29116530E-03  9.55971136E-02 -1.19639927E-01  3.10704895E-02
 -7.33103689E-17  6.08838509E-02  4.85198418E-01 -3.07669085E-01  3.47234316E-01
 -7.11338637E-16  5.29246541E-03  9.56139937E-02 -1.64086457E-02  1.22533853E-01
 -2.41355408E-16  9.19352201E-05  6.44679436E-03 -3.79728042E-03  9.99121385E-03
 -1.99376529E-17  1.21620393E-05  1.84565734E-03 -2.20227216E-03  2.48620164E-03
 -5.09312538E-18  5.00066312E-02  1.00000000E+00  9.20087291E-05  6.45003131E-03
 -6.75860783E-03 -8.28683980E-03  1.54974442E-17  1.21817086E-05  1.84747902E-03
 -1.05294511E-03 -3.15324093E-03  6.05624175E-18  9.19773484E-05  6.44864959E-03
  4.21949098E-04 -1.06830173E-02  2.09366027E-17  5.29064196E-03  9.55903187E-02
  3.29116238E-02 -1.19138660E-01  2.36446288E-16  6.08874056E-02  4.85212737E-01
 -1.47061368E-01 -4.40014721E-01  8.45096437E-16  5.29176584E-03  9.56049109E-02
 -9.79163065E-02 -7.54563185E-02  1.37298098E-16  1.11528442E-04  7.61637368E-04
  1.00000000E+00  5.29246541E-03  9.56139937E-02  1.64086457E-02 -1.22533853E-01
  2.41355408E-16  9.19352201E-05  6.44679436E-03  3.79728042E-03 -9.99121385E-03
  1.99376529E-17  1.21620393E-05  1.84565734E-03  2.20227216E-03 -2.48620164E-03
  5.09312538E-18  9.18753931E-05  6.44415922E-03  9.45667472E-03 -4.97273417E-03
  1.07167321E-17  5.29116530E-03  9.55971136E-02  1.19639927E-01 -3.10704895E-02
  7.33103689E-17  6.08838509E-02  4.85198418E-01  3.07669085E-01 -3.47234316E-01
  7.11338637E-16  7.61637368E-04  1.11398407E-04  5.00066312E-02  1.00000000E+00
  9.22885316E-53  1.06745412E-07 -4.29246199E-07 -8.75707565E-08  1.26242119E-22
  1.51058224E-41  2.34817295E-06 -7.39185638E-06 -4.25538071E-06  7.54686924E-21
  3.91179358E-19  1.14467049E-03 -2.12573746E-03 -1.77720085E-03  3.25266754E-18
  6.33881341E-08  2.65883850E-02 -4.36861748E-02 -8.91677985E-03  1.28566721E-17
  3.88855306E-19  1.14385146E-03 -2.65040526E-03  8.01670772E-04 -1.84575270E-18
  1.49285306E-41  2.34485482E-06 -8.45667496E-06  1.01793783E-06 -2.87762100E-21
  2.05131401E-07  1.01737671E-03  1.01718898E-03  2.04866536E-07  1.00000000E+00
  1.06745412E-07  2.93227593E-04 -6.32203684E-04 -1.28976226E-04  1.85932299E-19
  2.34817295E-06  1.52827565E-03 -2.63558426E-03 -1.51726628E-03  2.69085447E-18
  1.14467049E-03  4.65534822E-02 -5.41969969E-02 -4.53108396E-02  8.29287794E-17
  2.65883850E-02  2.98493812E-01 -3.29566904E-01 -6.72678609E-02  9.69902640E-17
  1.14385146E-03  4.65343398E-02 -6.75924490E-02  2.04447568E-02 -4.70716488E-17
  2.34485482E-06  1.52711465E-03 -3.01717788E-03  3.63180506E-04 -1.02667945E-18
  1.58079961E-04  3.04893695E-02  3.04856017E-02  1.57958181E-04  2.48362390E-01
  1.00000000E+00  4.29246199E-07  6.32203684E-04 -1.28669150E-03 -2.81762970E-04
  4.06189871E-19  7.39185638E-06  2.63558426E-03 -4.16355691E-03 -2.68973754E-03
  4.77021890E-18  2.12573746E-03  5.41969969E-02 -5.01125605E-02 -5.77259802E-02
  1.05651211E-16  4.36861748E-02  3.29566904E-01 -2.94979322E-01 -9.37446014E-02
  1.35165791E-16  2.65040526E-03  6.75924490E-02 -8.85136172E-02  3.24973117E-02
 -7.48212396E-17  8.45667496E-06  3.01717788E-03 -5.61944053E-03  7.37599924E-04
 -2.08513033E-18  2.55811836E-04  1.99234120E-02  3.40091238E-02  3.15852575E-04
 -3.07793116E-16  6.95776166E-17  1.00000000E+00  8.75707565E-08  1.28976226E-04
 -2.81762970E-04  3.69454331E-05  8.28670222E-20  4.25538071E-06  1.51726628E-03
 -2.68973754E-03 -1.03975993E-03  2.74614339E-18  1.77720085E-03  4.53108396E-02
 -5.77259802E-02 -2.93268311E-02  8.83286039E-17  8.91677985E-03  6.72678609E-02
 -9.37446014E-02  1.45171458E-01  2.75886733E-17 -8.01670772E-04 -2.04447568E-02
  3.24973117E-02  9.09631159E-03  2.26312564E-17 -1.01793783E-06 -3.63180506E-04
  7.37599924E-04  4.19498624E-04  2.50989076E-19  2.06039548E-04  4.00232367E-02
 -2.90126424E-02 -8.92861032E-05 -5.75170757E-17  1.50897990E-16  0.00000000E+00
  1.00000000E+00 -1.26242119E-22 -1.85932299E-19  4.06189871E-19  8.28670222E-20
  9.44280538E-05 -7.54686924E-21 -2.69085447E-18  4.77021890E-18  2.74614339E-18
  5.08681585E-04 -3.25266754E-18 -8.29287794E-17  1.05651211E-16  8.83286039E-17
  1.89343784E-02 -1.28566721E-17 -9.69902640E-17  1.35165791E-16  2.75886733E-17
  1.64305657E-01  1.84575270E-18  4.70716488E-17 -7.48212396E-17  2.26312564E-17
  1.89258065E-02  2.87762100E-21  1.02667945E-18 -2.08513033E-18  2.50989076E-19
  5.08284213E-04 -3.76115472E-19 -7.61824135E-17  6.03055229E-17  2.07737820E-19
  7.28799087E-32 -2.04315539E-31 -1.30258264E-46 -2.59694320E-47  1.00000000E+00
  1.47225279E-74  2.64963546E-10 -1.29521865E-09  2.11748576E-11 -1.77244852E-25
  3.15953097E-53  9.38978532E-08 -3.77545207E-07 -8.54157144E-08  1.27449649E-22
  2.41845956E-25  2.05744451E-04 -5.62474885E-04 -1.33199226E-04  2.01503751E-19
  8.88424017E-19  1.26320676E-03 -2.92715020E-03  7.72108474E-04 -1.81696208E-18
  4.15816668E-40  3.49292959E-06 -1.11351303E-05  5.58991274E-06 -1.20997491E-20
  5.40065296E-68  1.61150042E-09 -7.20785179E-09  2.14683477E-09 -4.95439143E-24
  3.74728463E-08  1.48084008E-03  5.44616205E-06  1.39591865E-10  3.04987038E-06
  4.47243006E-02 -5.17653303E-02  5.31703981E-02 -1.09412038E-16  1.00000000E+00
  2.64963546E-10  1.22404593E-05 -3.16710808E-05  5.17774068E-07 -4.33404510E-21
  9.38978532E-08  2.73906286E-04 -5.90151022E-04 -1.33515590E-04  1.99219959E-19
  2.05744451E-04  1.76113287E-02 -2.85372124E-02 -6.75787439E-03  1.02233104E-17
  1.26320676E-03  4.92679015E-02 -7.18434953E-02  1.89505040E-02 -4.45952199E-17
  3.49292959E-06  1.89227713E-03 -3.31868299E-03  1.66600191E-03 -3.60617526E-18
  1.61150042E-09  3.17846220E-05 -7.53841746E-05  2.24529266E-05 -5.18160916E-20
  5.74574690E-05  3.92739296E-02  1.13225154E-03  2.08624942E-06  4.47243006E-02
  4.02773183E-01 -2.88955938E-01  2.96799077E-01 -6.10741936E-16  2.48362390E-01
  1.00000000E+00  1.29521865E-09  3.16710808E-05 -7.83167081E-05  1.34342676E-06
 -1.12451985E-20  3.77545207E-07  5.90151022E-04 -1.19972541E-03 -2.91363378E-04
  4.34746236E-19  5.62474885E-04  2.85372124E-02 -4.28466297E-02 -1.17070996E-02
  1.77104968E-17  2.92715020E-03  7.18434953E-02 -9.46869801E-02  3.02923286E-02
 -7.12853366E-17  1.11351303E-05  3.31868299E-03 -5.36450788E-03  3.01121358E-03
 -6.51797809E-18  7.20785179E-09  7.53841746E-05 -1.69541690E-04  5.34912347E-05
 -1.23445231E-19  1.15420705E-04  4.60238929E-02  1.55580819E-03  4.91997829E-06
  5.17653303E-02  2.88955938E-01 -3.45116016E-02  2.85322875E-01 -5.87126641E-16
 -2.00098325E-16  9.60127184E-16  1.00000000E+00 -2.11748576E-11 -5.17774068E-07
  1.34342676E-06  3.83573700E-06  1.83841915E-22  8.54157144E-08  1.33515590E-04
 -2.91363378E-04  2.22091918E-05  9.83568582E-20  1.33199226E-04  6.75787439E-03
 -1.17070996E-02  3.81786616E-03  4.19400854E-18 -7.72108474E-04 -1.89505040E-02
  3.02923286E-02  1.21642968E-02  1.88032758E-17 -5.58991274E-06 -1.66600191E-03
  3.01121358E-03 -8.77807551E-04  3.27207026E-18 -2.14683477E-09 -2.24529266E-05
  5.34912347E-05 -5.88069319E-06  3.67677531E-20  5.03504374E-05  3.22486839E-02
 -1.41043300E-03 -2.01183158E-06 -5.31703981E-02 -2.96799077E-01  2.85322875E-01
 -4.97960002E-02  6.03063036E-16 -2.62354908E-17 -7.54489951E-17 -5.84779622E-32
  1.00000000E+00  1.77244852E-25  4.33404510E-21 -1.12451985E-20  1.83841915E-22
  3.85769998E-06 -1.27449649E-22 -1.99219959E-19  4.34746236E-19  9.83568582E-20
  8.81271552E-05 -2.01503751E-19 -1.02233104E-17  1.77104968E-17  4.19400854E-18
  6.59021502E-03  1.81696208E-18  4.45952199E-17 -7.12853366E-17  1.88032758E-17
  2.01546499E-02  1.20997491E-20  3.60617526E-18 -6.51797809E-18  3.27207026E-18
  6.33842577E-04  4.95439143E-24  5.18160916E-20 -1.23445231E-19  3.67677531E-20
  1.00514938E-05 -8.63637798E-20 -5.82407833E-17  2.92149060E-18  4.45043392E-21
  1.09412038E-16  6.10741936E-16 -5.87126641E-16  6.03063036E-16  2.43271401E-01
 -1.49867846E-32  3.08986688E-32  0.00000000E+00  0.00000000E+00  1.00000000E+00
  7.41680361E-08  8.62330313E-05 -1.69957607E-04 -7.32511064E-05  1.25430234E-19
  2.85181282E-07  1.92426968E-04 -3.03518210E-04 -2.53656012E-04  4.64233965E-19
  6.94927243E-05  5.41006775E-03 -5.73149530E-03 -7.04009814E-03  1.31669580E-17
  4.44493833E-03  8.43832651E-02 -8.72231161E-02 -6.84032489E-02  1.24626122E-16
  1.14946288E-03  3.30926736E-02 -4.77834330E-02 -5.94354396E-03  6.61233956E-18
  4.69613642E-06  1.03505424E-03 -1.90849174E-03 -2.88671229E-04  3.64392747E-19
  1.49461234E-05  2.79609580E-03  5.54692998E-02  2.06833017E-04  6.10855877E-02
  4.86010001E-01 -1.04860636E-01 -4.52430081E-01  8.73802397E-16  5.78115105E-03
  1.01890938E-01  4.15192821E-02 -1.23887673E-01  2.46636459E-16  1.00000000E+00
  1.17574263E-11  4.82167356E-07 -1.29920889E-06 -2.80482495E-08 -8.13996524E-23
  2.61557141E-09  1.18376124E-05 -2.73329062E-05 -6.05946473E-06  8.98375816E-21
  5.71623743E-06  1.16596450E-03 -2.10470388E-03 -4.79472069E-04  7.16956910E-19
  5.60690731E-05  4.73213080E-03 -7.95518537E-03  9.58086885E-04 -2.70797997E-18
  2.49178440E-07  1.77533321E-04 -3.48016438E-04  1.15111225E-04 -2.61616117E-19
  1.14557941E-10  1.85585227E-06 -4.65407222E-06  9.53184455E-07 -2.35219341E-21
  2.78911361E-06  4.16626666E-03  1.98901713E-04  1.51794016E-07  5.78140573E-03
  1.01894175E-01 -1.22735715E-01  4.48206800E-02 -1.00525735E-16  6.10850997E-02
  4.86008040E-01 -4.55071040E-01 -9.27252732E-02  1.33614262E-16  4.83128210E-02
  1.00000000E+00  2.89127764E-08  4.92515142E-05 -1.05909652E-04  2.48515718E-05
 -5.97083380E-20  7.47252902E-06  1.37187357E-03 -2.51368675E-03  6.92817825E-05
 -3.99110582E-19  1.32819924E-03  3.64817255E-02 -5.20184038E-02  7.69756180E-03
 -2.05091636E-17  9.08755529E-04  2.82732793E-02 -3.28687591E-02  2.57405154E-02
 -5.37867606E-17  3.49483384E-06  8.65694395E-04 -1.22148400E-03  1.08212511E-03
 -2.24437021E-18  1.98010906E-08  3.93342514E-05 -7.68802784E-05  4.25362888E-05
 -9.12492248E-20  5.46289496E-04  1.29837666E-01  2.65253358E-04  2.09214798E-06
  5.78115091E-03  1.01890936E-01 -4.15192813E-02  1.23887672E-01 -2.46636455E-16
  6.10855863E-02  4.86009995E-01  1.04860634E-01  4.52430078E-01 -8.73802391E-16
  1.41444010E-02  1.52206714E-01  1.00000000E+00  6.33881341E-08  2.65883850E-02
  4.36861748E-02  8.91677985E-03 -1.28566721E-17  3.88855306E-19  1.14385146E-03
  2.65040526E-03 -8.01670772E-04  1.84575270E-18  1.49285306E-41  2.34485482E-06
  8.45667496E-06 -1.01793783E-06  2.87762100E-21  9.22885316E-53  1.06745412E-07
  4.29246199E-07  8.75707565E-08 -1.26242119E-22  1.51058224E-41  2.34817295E-06
  7.39185638E-06  4.25538071E-06 -7.54686924E-21  3.91179358E-19  1.14467049E-03
  2.12573746E-03  1.77720085E-03 -3.25266754E-18  1.01718898E-03  2.04866536E-07
  2.05131401E-07  1.01737671E-03  9.02103186E-96  7.80481257E-13  4.23971132E-12
  8.65056351E-13 -1.24712317E-27  0.00000000E+00  3.77253247E-16  2.37488320E-15
  7.95092581E-17  9.35690641E-32  3.63456936E-12  5.21668335E-17  2.01943028E-12
  1.00000000E+00  2.65883850E-02  2.98493812E-01  3.29566904E-01  6.72678609E-02
 -9.69902640E-17  1.14385146E-03  4.65343398E-02  6.75924490E-02 -2.04447568E-02
  4.70716488E-17  2.34485482E-06  1.52711465E-03  3.01717788E-03 -3.63180506E-04
  1.02667945E-18  1.06745412E-07  2.93227593E-04  6.32203684E-04  1.28976226E-04
 -1.85932299E-19  2.34817295E-06  1.52827565E-03  2.63558426E-03  1.51726628E-03
 -2.69085447E-18  1.14467049E-03  4.65534822E-02  5.41969969E-02  4.53108396E-02
 -8.29287794E-17  3.04856017E-02  1.57958181E-04  1.58079961E-04  3.04893695E-02
  7.80481257E-13  5.63355794E-07  1.61753600E-06  3.30036571E-07 -4.75802826E-22
  3.77253247E-16  9.94828380E-09  3.31343834E-08  1.10931361E-09  1.30547610E-24
  2.40635379E-07  3.25513079E-10  1.69926554E-07  2.48362390E-01  1.00000000E+00
 -4.36861748E-02 -3.29566904E-01 -2.94979322E-01 -9.37446014E-02  1.35165791E-16
 -2.65040526E-03 -6.75924490E-02 -8.85136172E-02  3.24973117E-02 -7.48212396E-17
 -8.45667496E-06 -3.01717788E-03 -5.61944053E-03  7.37599924E-04 -2.08513033E-18
 -4.29246199E-07 -6.32203684E-04 -1.28669150E-03 -2.81762970E-04  4.06189871E-19
 -7.39185638E-06 -2.63558426E-03 -4.16355691E-03 -2.68973754E-03  4.77021890E-18
 -2.12573746E-03 -5.41969969E-02 -5.01125605E-02 -5.77259802E-02  1.05651211E-16
 -3.40091238E-02 -3.15852575E-04 -2.55811836E-04 -1.99234120E-02 -4.23971132E-12
 -1.61753600E-06 -4.47030127E-06 -9.48173809E-07  1.36695087E-21 -2.37488320E-15
 -3.31343834E-08 -1.07249239E-07 -3.69502799E-09 -4.34842834E-24 -6.22725543E-07
 -1.08693996E-09 -4.71085513E-07  3.07793116E-16 -6.95776166E-17  1.00000000E+00
 -8.91677985E-03 -6.72678609E-02 -9.37446014E-02  1.45171458E-01  2.75886733E-17
  8.01670772E-04  2.04447568E-02  3.24973117E-02  9.09631159E-03  2.26312564E-17
  1.01793783E-06  3.63180506E-04  7.37599924E-04  4.19498624E-04  2.50989076E-19
 -8.75707565E-08 -1.28976226E-04 -2.81762970E-04  3.69454331E-05  8.28670222E-20
 -4.25538071E-06 -1.51726628E-03 -2.68973754E-03 -1.03975993E-03  2.74614339E-18
 -1.77720085E-03 -4.53108396E-02 -5.77259802E-02 -2.93268311E-02  8.83286039E-17
  2.90126424E-02  8.92861032E-05 -2.06039548E-04 -4.00232367E-02 -8.65056351E-13
 -3.30036571E-07 -9.48173809E-07 -1.66867195E-08  2.78908030E-22 -7.95092581E-17
 -1.10931361E-09 -3.69502799E-09  2.99482886E-09 -1.45582028E-25 -2.32855574E-07
 -6.20812511E-11  6.20212030E-08  5.75170757E-17 -1.50897990E-16  0.00000000E+00
  1.00000000E+00  1.28566721E-17  9.69902640E-17  1.35165791E-16  2.75886733E-17
  1.64305657E-01 -1.84575270E-18 -4.70716488E-17 -7.48212396E-17  2.26312564E-17
  1.89258065E-02 -2.87762100E-21 -1.02667945E-18 -2.08513033E-18  2.50989076E-19
  5.08284213E-04  1.26242119E-22  1.85932299E-19  4.06189871E-19  8.28670222E-20
  9.44280538E-05  7.54686924E-21  2.69085447E-18  4.77021890E-18  2.74614339E-18
  5.08681585E-04  3.25266754E-18  8.29287794E-17  1.05651211E-16  8.83286039E-17
  1.89343784E-02 -6.03055229E-17 -2.07737820E-19  3.76115472E-19  7.61824135E-17
  1.24712317E-27  4.75802826E-22  1.36695087E-21  2.78908030E-22  1.76775456E-07
 -9.35690641E-32 -1.30547610E-24 -4.34842834E-24 -1.45582028E-25  3.11853555E-09
  3.90079008E-22  7.41870502E-27 -1.70696752E-22 -7.28799087E-32  2.04315539E-31
 -1.30258264E-46 -2.59694320E-47  1.00000000E+00  8.88424017E-19  1.26320676E-03
  2.92715020E-03 -7.72108474E-04  1.81696208E-18  4.15816668E-40  3.49292959E-06
  1.11351303E-05 -5.58991274E-06  1.20997491E-20  5.40065296E-68  1.61150042E-09
  7.20785179E-09 -2.14683477E-09  4.95439143E-24  1.47225279E-74  2.64963546E-10
  1.29521865E-09 -2.11748576E-11  1.77244852E-25  3.15953097E-53  9.38978532E-08
  3.77545207E-07  8.54157144E-08 -1.27449649E-22  2.41845956E-25  2.05744451E-04
  5.62474885E-04  1.33199226E-04 -2.01503751E-19  5.44616205E-06  1.39591865E-10
  3.74728463E-08  1.48084008E-03  0.00000000E+00  3.77253247E-16  2.37488320E-15
  7.95092581E-17  9.35690641E-32  0.00000000E+00  1.32352584E-20  9.47072263E-20
 -9.05143163E-21  2.76337963E-35  2.51067327E-14  7.73708215E-21  2.95521187E-16
  3.04987038E-06  4.47243006E-02  5.17653303E-02 -5.31703981E-02  1.09412038E-16
  1.00000000E+00  1.26320676E-03  4.92679015E-02  7.18434953E-02 -1.89505040E-02
  4.45952199E-17  3.49292959E-06  1.89227713E-03  3.31868299E-03 -1.66600191E-03
  3.60617526E-18  1.61150042E-09  3.17846220E-05  7.53841746E-05 -2.24529266E-05
  5.18160916E-20  2.64963546E-10  1.22404593E-05  3.16710808E-05 -5.17774068E-07
  4.33404510E-21  9.38978532E-08  2.73906286E-04  5.90151022E-04  1.33515590E-04
 -1.99219959E-19  2.05744451E-04  1.76113287E-02  2.85372124E-02  6.75787439E-03
 -1.02233104E-17  1.13225154E-03  2.08624942E-06  5.74574690E-05  3.92739296E-02
  3.77253247E-16  9.94828380E-09  3.31343834E-08  1.10931361E-09  1.30547610E-24
  1.32352584E-20  4.35420739E-11  1.65098631E-10 -1.57789329E-11  4.81726910E-26
  1.26462377E-08  1.74466664E-12  9.09887554E-10  4.47243006E-02  4.02773183E-01
  2.88955938E-01 -2.96799077E-01  6.10741936E-16  2.48362390E-01  1.00000000E+00
 -2.92715020E-03 -7.18434953E-02 -9.46869801E-02  3.02923286E-02 -7.12853366E-17
 -1.11351303E-05 -3.31868299E-03 -5.36450788E-03  3.01121358E-03 -6.51797809E-18
 -7.20785179E-09 -7.53841746E-05 -1.69541690E-04  5.34912347E-05 -1.23445231E-19
 -1.29521865E-09 -3.16710808E-05 -7.83167081E-05  1.34342676E-06 -1.12451985E-20
 -3.77545207E-07 -5.90151022E-04 -1.19972541E-03 -2.91363378E-04  4.34746236E-19
 -5.62474885E-04 -2.85372124E-02 -4.28466297E-02 -1.17070996E-02  1.77104968E-17
 -1.55580819E-03 -4.91997829E-06 -1.15420705E-04 -4.60238929E-02 -2.37488320E-15
 -3.31343834E-08 -1.07249239E-07 -3.69502799E-09 -4.34842834E-24 -9.47072263E-20
 -1.65098631E-10 -6.12360559E-10  5.98293174E-11 -1.82657422E-25 -3.77302771E-08
 -6.52016240E-12 -2.88196906E-09 -5.17653303E-02 -2.88955938E-01 -3.45116016E-02
  2.85322875E-01 -5.87126641E-16  2.00098325E-16 -9.60127184E-16  1.00000000E+00
  7.72108474E-04  1.89505040E-02  3.02923286E-02  1.21642968E-02  1.88032758E-17
  5.58991274E-06  1.66600191E-03  3.01121358E-03 -8.77807551E-04  3.27207026E-18
  2.14683477E-09  2.24529266E-05  5.34912347E-05 -5.88069319E-06  3.67677531E-20
  2.11748576E-11  5.17774068E-07  1.34342676E-06  3.83573700E-06  1.83841915E-22
 -8.54157144E-08 -1.33515590E-04 -2.91363378E-04  2.22091918E-05  9.83568582E-20
 -1.33199226E-04 -6.75787439E-03 -1.17070996E-02  3.81786616E-03  4.19400854E-18
  1.41043300E-03  2.01183158E-06 -5.03504374E-05 -3.22486839E-02 -7.95092581E-17
 -1.10931361E-09 -3.69502799E-09  2.99482886E-09 -1.45582028E-25  9.05143163E-21
  1.57789329E-11  5.98293174E-11  7.92939705E-12  1.74570752E-26 -7.04753586E-09
  3.81113467E-13  7.04034012E-10  5.31703981E-02  2.96799077E-01  2.85322875E-01
 -4.97960002E-02  6.03063036E-16  2.62354908E-17  7.54489951E-17 -5.84779622E-32
  1.00000000E+00 -1.81696208E-18 -4.45952199E-17 -7.12853366E-17  1.88032758E-17
  2.01546499E-02 -1.20997491E-20 -3.60617526E-18 -6.51797809E-18  3.27207026E-18
  6.33842577E-04 -4.95439143E-24 -5.18160916E-20 -1.23445231E-19  3.67677531E-20
  1.00514938E-05 -1.77244852E-25 -4.33404510E-21 -1.12451985E-20  1.83841915E-22
  3.85769998E-06  1.27449649E-22  1.99219959E-19  4.34746236E-19  9.83568582E-20
  8.81271552E-05  2.01503751E-19  1.02233104E-17  1.77104968E-17  4.19400854E-18
  6.59021502E-03 -2.92149060E-18 -4.45043392E-21  8.63637798E-20  5.82407833E-17
 -9.35690641E-32 -1.30547610E-24 -4.34842834E-24 -1.45582028E-25  3.11853555E-09
 -2.76337963E-35 -4.81726910E-26 -1.82657422E-25  1.74570752E-26  1.36474504E-11
  9.82568154E-24 -1.42912024E-27 -1.67909327E-24 -1.09412038E-16 -6.10741936E-16
 -5.87126641E-16  6.03063036E-16  2.43271401E-01  1.49867846E-32 -3.08986688E-32
  0.00000000E+00  0.00000000E+00  1.00000000E+00  4.44493833E-03  8.43832651E-02
  8.72231161E-02  6.84032489E-02 -1.24626122E-16  1.14946288E-03  3.30926736E-02
  4.77834330E-02  5.94354396E-03 -6.61233956E-18  4.69613642E-06  1.03505424E-03
  1.90849174E-03  2.88671229E-04 -3.64392747E-19  7.41680361E-08  8.62330313E-05
  1.69957607E-04  7.32511064E-05 -1.25430234E-19  2.85181282E-07  1.92426968E-04
  3.03518210E-04  2.53656012E-04 -4.64233965E-19  6.94927243E-05  5.41006775E-03
  5.73149530E-03  7.04009814E-03 -1.31669580E-17  5.54692998E-02  2.06833017E-04
  1.49461234E-05  2.79609580E-03  3.63456936E-12  2.40635379E-07  6.22725543E-07
  2.32855574E-07 -3.90079008E-22  2.51067327E-14  1.26462377E-08  3.77302771E-08
  7.04753586E-09 -9.82568154E-24  5.59348657E-08  4.11819602E-10  2.83715240E-07
  6.10855877E-02  4.86010001E-01  1.04860636E-01  4.52430081E-01 -8.73802397E-16
  5.78115105E-03  1.01890938E-01 -4.15192821E-02  1.23887673E-01 -2.46636459E-16
  1.00000000E+00  5.60690731E-05  4.73213080E-03  7.95518537E-03 -9.58086885E-04
  2.70797997E-18  2.49178440E-07  1.77533321E-04  3.48016438E-04 -1.15111225E-04
  2.61616117E-19  1.14557941E-10  1.85585227E-06  4.65407222E-06 -9.53184455E-07
  2.35219341E-21  1.17574263E-11  4.82167356E-07  1.29920889E-06  2.80482495E-08
  8.13996524E-23  2.61557141E-09  1.18376124E-05  2.73329062E-05  6.05946473E-06
 -8.98375816E-21  5.71623743E-06  1.16596450E-03  2.10470388E-03  4.79472069E-04
 -7.16956910E-19  1.98901713E-04  1.51794016E-07  2.78911361E-06  4.16626666E-03
  5.21668335E-17  3.25513079E-10  1.08693996E-09  6.20812511E-11 -7.41870502E-27
  7.73708215E-21  1.74466664E-12  6.52016240E-12 -3.81113467E-13  1.42912024E-27
  4.11819602E-10  6.72822756E-14  4.63163947E-11  5.78140573E-03  1.01894175E-01
  1.22735715E-01 -4.48206800E-02  1.00525735E-16  6.10850997E-02  4.86008040E-01
  4.55071040E-01  9.27252732E-02 -1.33614262E-16  4.83128210E-02  1.00000000E+00
  9.08755529E-04  2.82732793E-02  3.28687591E-02 -2.57405154E-02  5.37867606E-17
  3.49483384E-06  8.65694395E-04  1.22148400E-03 -1.08212511E-03  2.24437021E-18
  1.98010906E-08  3.93342514E-05  7.68802784E-05 -4.25362888E-05  9.12492248E-20
  2.89127764E-08  4.92515142E-05  1.05909652E-04 -2.48515718E-05  5.97083380E-20
  7.47252902E-06  1.37187357E-03  2.51368675E-03 -6.92817825E-05  3.99110582E-19
  1.32819924E-03  3.64817255E-02  5.20184038E-02 -7.69756180E-03  2.05091636E-17
  2.65253358E-04  2.09214798E-06  5.46289496E-04  1.29837666E-01  2.01943028E-12
  1.69926554E-07  4.71085513E-07 -6.20212030E-08  1.70696752E-22  2.95521187E-16
  9.09887554E-10  2.88196906E-09 -7.04034012E-10  1.67909327E-24  2.83715240E-07
  4.63163947E-11  4.06637549E-09  5.78115091E-03  1.01890936E-01  4.15192813E-02
 -1.23887672E-01  2.46636455E-16  6.10855863E-02  4.86009995E-01 -1.04860634E-01
 -4.52430078E-01  8.73802391E-16  1.41444010E-02  1.52206714E-01  1.00000000E+00
Kinetic Energy Matrix                      R   N=        1830
  1.58911217E+01 -8.58900137E-02  4.72249973E-01  0.00000000E+00  0.00000000E+00
  1.47772808E+00  0.00000000E+00  0.00000000E+00  0.00000000E+00  1.47772808E+00
  0.00000000E+00  0.00000000E+00  0.00000000E+00  0.00000000E+00  1.47772808E+00
 -3.53940688E-05 -8.43110030E-03  7.71716965E-03 -8.71084328E-03  1.78447754E-17
  1.58911217E+01 -8.43110030E-03  4.60533250E-02 -9.92832755E-02  1.12067130E-01
 -2.29577401E-16 -8.58900137E-02  4.72249973E-01 -7.71716965E-03  9.92832755E-02
 -9.41345093E-02  1.90829709E-01 -3.90928086E-16  0.00000000E+00  0.00000000E+00
  1.47772808E+00  8.71084328E-03 -1.12067130E-01  1.90829709E-01 -1.40474564E-01
  4.41264537E-16  0.00000000E+00  0.00000000E+00  0.00000000E+00  1.47772808E+00
 -1.78447754E-17  2.29577401E-16 -3.90928086E-16  4.41264537E-16  7.49266469E-02
  0.00000000E+00  0.00000000E+00  0.00000000E+00  0.00000000E+00  1.47772808E+00
  0.00000000E+00 -2.29206936E-03  3.36295826E-03 -1.12334018E-03  2.54955662E-18
 -3.56485680E-05 -8.43112877E-03  1.13960470E-02  2.32475645E-03 -3.35129104E-18
  1.58911217E+01 -2.29206936E-03 -1.75273954E-02  9.77820148E-03 -3.26624528E-03
  7.41313939E-18 -8.43112877E-03  4.61444255E-02 -1.46862493E-01 -2.99594701E-02
  4.31885687E-17 -8.58900137E-02  4.72249973E-01 -3.36295826E-03 -9.77820148E-03
 -1.01223126E-02  2.08512477E-03 -4.73244329E-18 -1.13960470E-02  1.46862493E-01
 -2.94440655E-01 -7.53749244E-02  1.08657967E-16  0.00000000E+00  0.00000000E+00
  1.47772808E+00  1.12334018E-03  3.26624528E-03  2.08512477E-03 -4.57654834E-03
  1.58079383E-18 -2.32475645E-03  2.99594701E-02 -7.53749244E-02  5.96739312E-02
  2.21658711E-17  0.00000000E+00  0.00000000E+00  0.00000000E+00  1.47772808E+00
 -2.54955662E-18 -7.41313939E-18 -4.73244329E-18  1.58079383E-18 -3.88004715E-03
  3.35129104E-18 -4.31885687E-17  1.08657967E-16  2.21658711E-17  7.50501702E-02
  0.00000000E+00  0.00000000E+00  0.00000000E+00  0.00000000E+00  1.47772808E+00
  0.00000000E+00 -7.86369097E-04  1.58252465E-03  3.22764969E-04 -4.65253804E-19
  0.00000000E+00 -2.29398733E-03  2.65556483E-03  2.35214255E-03 -4.32149332E-18
 -3.55423808E-05 -8.43111840E-03  3.68545215E-03  1.10344154E-02 -2.11930607E-17
  1.58911217E+01 -7.86369097E-04 -1.21380658E-02  1.23197389E-02  2.51268134E-03
 -3.62193752E-18 -2.29398733E-03 -1.75307675E-02  7.71133828E-03  6.83024820E-03
 -1.25489299E-17 -8.43111840E-03  4.61064794E-02 -4.74612832E-02 -1.42101293E-01
  2.72924411E-16 -8.58900137E-02  4.72249973E-01 -1.58252465E-03 -1.23197389E-02
  6.44032044E-03  2.00491653E-03 -2.89001327E-18 -2.65556483E-03 -7.71133828E-03
 -7.78297102E-03 -3.45785358E-03  6.35297003E-18 -3.68545215E-03  4.74612832E-02
  3.63910900E-02 -1.15593020E-01  2.22011753E-16  0.00000000E+00  0.00000000E+00
  1.47772808E+00 -3.22764969E-04 -2.51268134E-03  2.00491653E-03 -2.98092081E-03
 -5.89434765E-19 -2.35214255E-03 -6.83024820E-03 -3.45785358E-03 -6.94182293E-03
  5.62708579E-18 -1.10344154E-02  1.42101293E-01 -1.15593020E-01 -2.71092175E-01
  6.64713529E-16  0.00000000E+00  0.00000000E+00  0.00000000E+00  1.47772808E+00
  4.65253804E-19  3.62193752E-18 -2.89001327E-18 -5.89434765E-19 -3.38983503E-03
  4.32149332E-18  1.25489299E-17  6.35297003E-18  5.62708579E-18 -3.87906037E-03
  2.11930607E-17 -2.72924411E-16  2.22011753E-16  6.64713529E-16  7.49987126E-02
  0.00000000E+00  0.00000000E+00  0.00000000E+00  0.00000000E+00  1.47772808E+00
  0.00000000E+00 -2.29398733E-03  2.65556483E-03  2.35214255E-03 -4.32149332E-18
  0.00000000E+00 -7.87015709E-04  5.11735627E-04  1.53302082E-03 -2.94440029E-18
  0.00000000E+00 -2.29227956E-03 -7.09216945E-04  3.47416773E-03 -6.86866949E-18
 -3.53940688E-05 -8.43110030E-03 -7.71716965E-03  8.71084328E-03 -1.78447754E-17
  1.58911217E+01 -2.29398733E-03 -1.75307675E-02  7.71133828E-03  6.83024820E-03
 -1.25489299E-17 -7.87015709E-04 -1.21421388E-02  3.98162305E-03  1.19278602E-02
 -2.29092747E-17 -2.29227956E-03 -1.75277652E-02 -2.06183898E-03  1.01001175E-02
 -1.99686296E-17 -8.43110030E-03  4.60533250E-02  9.92832755E-02 -1.12067130E-01
  2.29577401E-16 -8.58900137E-02  4.72249973E-01 -2.65556483E-03 -7.71133828E-03
 -7.78297102E-03 -3.45785358E-03  6.35297003E-18 -5.11735627E-04 -3.98162305E-03
 -2.36467689E-03  3.07386110E-03 -5.90381906E-18  7.09216945E-04  2.06183898E-03
 -4.15765383E-03  1.36041201E-03 -2.68962849E-18  7.71716965E-03 -9.92832755E-02
 -9.41345093E-02  1.90829709E-01 -3.90928086E-16  0.00000000E+00  0.00000000E+00
  1.47772808E+00 -2.35214255E-03 -6.83024820E-03 -3.45785358E-03 -6.94182293E-03
  5.62708579E-18 -1.53302082E-03 -1.19278602E-02  3.07386110E-03  5.81769386E-03
 -1.76862369E-17 -3.47416773E-03 -1.01001175E-02  1.36041201E-03 -1.05440489E-02
  1.31754050E-17 -8.71084328E-03  1.12067130E-01  1.90829709E-01 -1.40474564E-01
  4.41264537E-16  0.00000000E+00  0.00000000E+00  0.00000000E+00  1.47772808E+00
  4.32149332E-18  1.25489299E-17  6.35297003E-18  5.62708579E-18 -3.87906037E-03
  2.94440029E-18  2.29092747E-17 -5.90381906E-18 -1.76862369E-17 -3.39075835E-03
  6.86866949E-18  1.99686296E-17 -2.68962849E-18  1.31754050E-17 -3.87993918E-03
  1.78447754E-17 -2.29577401E-16 -3.90928086E-16  4.41264537E-16  7.49266469E-02
  0.00000000E+00  0.00000000E+00  0.00000000E+00  0.00000000E+00  1.47772808E+00
 -3.55423808E-05 -8.43111840E-03  3.68545215E-03  1.10344154E-02 -2.11930607E-17
  0.00000000E+00 -2.29227956E-03 -7.09216945E-04  3.47416773E-03 -6.86866949E-18
  0.00000000E+00 -7.86161413E-04 -1.07063031E-03  1.20880094E-03 -2.47628454E-18
  0.00000000E+00 -2.29206936E-03 -3.36295826E-03  1.12334018E-03 -2.54955662E-18
 -3.56485680E-05 -8.43112877E-03 -1.13960470E-02 -2.32475645E-03  3.35129104E-18
  1.58911217E+01 -8.43111840E-03  4.61064794E-02 -4.74612832E-02 -1.42101293E-01
  2.72924411E-16 -2.29227956E-03 -1.75277652E-02 -2.06183898E-03  1.01001175E-02
 -1.99686296E-17 -7.86161413E-04 -1.21367570E-02 -8.33616988E-03  9.41199767E-03
 -1.92809118E-17 -2.29206936E-03 -1.75273954E-02 -9.77820148E-03  3.26624528E-03
 -7.41313939E-18 -8.43112877E-03  4.61444255E-02  1.46862493E-01  2.99594701E-02
 -4.31885687E-17 -8.58900137E-02  4.72249973E-01 -3.68545215E-03  4.74612832E-02
  3.63910900E-02 -1.15593020E-01  2.22011753E-16  7.09216945E-04  2.06183898E-03
 -4.15765383E-03  1.36041201E-03 -2.68962849E-18  1.07063031E-03  8.33616988E-03
  1.11225453E-03 -5.08277350E-03  1.04122962E-17  3.36295826E-03  9.77820148E-03
 -1.01223126E-02  2.08512477E-03 -4.73244329E-18  1.13960470E-02 -1.46862493E-01
 -2.94440655E-01 -7.53749244E-02  1.08657967E-16  0.00000000E+00  0.00000000E+00
  1.47772808E+00 -1.10344154E-02  1.42101293E-01 -1.15593020E-01 -2.71092175E-01
  6.64713529E-16 -3.47416773E-03 -1.01001175E-02  1.36041201E-03 -1.05440489E-02
  1.31754050E-17 -1.20880094E-03 -9.41199767E-03 -5.08277350E-03  2.34919463E-03
 -1.17560593E-17 -1.12334018E-03 -3.26624528E-03  2.08512477E-03 -4.57654834E-03
  1.58079383E-18  2.32475645E-03 -2.99594701E-02 -7.53749244E-02  5.96739312E-02
  2.21658711E-17  0.00000000E+00  0.00000000E+00  0.00000000E+00  1.47772808E+00
  2.11930607E-17 -2.72924411E-16  2.22011753E-16  6.64713529E-16  7.49987126E-02
  6.86866949E-18  1.99686296E-17 -2.68962849E-18  1.31754050E-17 -3.87993918E-03
  2.47628454E-18  1.92809118E-17  1.04122962E-17 -1.17560593E-17 -3.38953827E-03
  2.54955662E-18  7.41313939E-18 -4.73244329E-18  1.58079383E-18 -3.88004715E-03
 -3.35129104E-18  4.31885687E-17  1.08657967E-16  2.21658711E-17  7.50501702E-02
  0.00000000E+00  0.00000000E+00  0.00000000E+00  0.00000000E+00  1.47772808E+00
 -2.30581547E-03 -1.49750251E-02  2.52716651E-04 -9.14823385E-04  1.81558692E-18
 -1.08452365E-02  1.03737710E-01  8.09145154E-02  2.42100140E-01 -4.64979820E-16
 -2.30601755E-03 -1.49747496E-02 -7.49159323E-04 -5.77317574E-04  1.05047008E-18
 -1.57947840E-04 -3.79960836E-03 -3.11734586E-03 -3.82222884E-03  7.14805396E-18
 -2.89026746E-05 -1.45227396E-03 -6.86304281E-04 -2.05526643E-03  3.94742763E-18
 -1.57904156E-04 -3.79900803E-03  1.94634147E-04 -4.92779808E-03  9.65751041E-18
  7.60031884E-01 -1.57762202E-04 -3.79705678E-03  4.36313802E-03 -2.29432926E-03
  4.94450563E-18 -2.30590957E-03 -1.49748969E-02  9.17133244E-04 -2.38179506E-04
  5.61981087E-19 -1.08460159E-02  1.03729691E-01 -1.69275433E-01  1.91043697E-01
 -3.91369045E-16 -2.30614332E-03 -1.49745779E-02  1.25260686E-04 -9.35401666E-04
  1.84246431E-18 -1.57845504E-04 -3.79820192E-03  1.75175588E-03 -4.60913225E-03
  9.19760904E-18 -2.88623782E-05 -1.45113596E-03  1.43576078E-03 -1.62086725E-03
  3.32043870E-18 -1.06935353E-02  7.60031884E-01 -1.57947840E-04 -3.79960836E-03
  3.11734586E-03  3.82222884E-03 -7.14805396E-18 -2.89026746E-05 -1.45227396E-03
  6.86304281E-04  2.05526643E-03 -3.94742763E-18 -1.57904156E-04 -3.79900803E-03
 -1.94634147E-04  4.92779808E-03 -9.65751041E-18 -2.30581547E-03 -1.49750251E-02
 -2.52716651E-04  9.14823385E-04 -1.81558692E-18 -1.08452365E-02  1.03737710E-01
 -8.09145154E-02 -2.42100140E-01  4.64979820E-16 -2.30601755E-03 -1.49747496E-02
  7.49159323E-04  5.77317574E-04 -1.05047008E-18 -1.17661992E-04 -5.95906669E-04
  7.60031884E-01 -2.30614332E-03 -1.49745779E-02 -1.25260686E-04  9.35401666E-04
 -1.84246431E-18 -1.57845504E-04 -3.79820192E-03 -1.75175588E-03  4.60913225E-03
 -9.19760904E-18 -2.88623782E-05 -1.45113596E-03 -1.43576078E-03  1.62086725E-03
 -3.32043870E-18 -1.57762202E-04 -3.79705678E-03 -4.36313802E-03  2.29432926E-03
 -4.94450563E-18 -2.30590957E-03 -1.49748969E-02 -9.17133244E-04  2.38179506E-04
 -5.61981087E-19 -1.08460159E-02  1.03729691E-01  1.69275433E-01 -1.91043697E-01
  3.91369045E-16 -5.95906669E-04 -1.17544232E-04 -1.06935353E-02  7.60031884E-01
  0.00000000E+00 -5.70158853E-07  2.11310060E-06  4.31094832E-07 -6.21466881E-22
  0.00000000E+00 -9.50078999E-06  2.68056939E-05  1.54316355E-05 -2.73678298E-20
  0.00000000E+00 -1.65122841E-03  2.18349576E-03  1.82548908E-03 -3.34104560E-18
 -3.01233856E-06 -8.00057657E-03  1.05502055E-02  2.15340117E-03 -3.10488464E-18
  0.00000000E+00 -1.65038980E-03  2.72319414E-03 -8.23687301E-04  1.89644317E-18
  0.00000000E+00 -9.48875619E-06  3.06721560E-05 -3.69203593E-06  1.04370619E-20
 -7.57944004E-07 -9.53415941E-04 -9.53300544E-04 -7.57050941E-07  1.58911217E+01
 -5.70158853E-07 -3.98615065E-04  7.38530389E-04  1.50667997E-04 -2.17203184E-19
 -9.50078999E-06 -1.56535083E-03  2.24202773E-03  1.29070170E-03 -2.28904476E-18
 -1.65122841E-03 -1.59908938E-02  9.48108168E-03  7.92656042E-03 -1.45073450E-17
 -8.00057657E-03  2.08886897E-02 -9.92240102E-02 -2.02526007E-02  2.92012420E-17
 -1.65038980E-03 -1.59882954E-02  1.18305211E-02 -3.57838974E-03  8.23882168E-18
 -9.48875619E-06 -1.56439302E-03  2.56707267E-03 -3.09000924E-04  8.73518525E-19
 -1.90373351E-04 -1.05867082E-02 -1.05860028E-02 -1.90248327E-04 -8.58900137E-02
  4.72249973E-01 -2.11310060E-06 -7.38530389E-04  1.26117122E-03  2.80091471E-04
 -4.03780236E-19 -2.68056939E-05 -2.24202773E-03  2.81594160E-03  1.87747473E-03
 -3.32968006E-18 -2.18349576E-03 -9.48108168E-03 -3.04792336E-03  7.98855182E-04
 -1.46208028E-18 -1.05502055E-02  9.92240102E-02 -2.14550844E-01 -5.25307866E-02
  7.57415918E-17 -2.72319414E-03 -1.18305211E-02 -2.50667934E-03 -4.52692660E-04
  1.04227163E-18 -3.06721560E-05 -2.56707267E-03  3.83299804E-03 -5.14954950E-04
  1.45573250E-18 -2.67179198E-04 -4.13484276E-03 -7.05886988E-03 -3.29928926E-04
  0.00000000E+00  0.00000000E+00  1.47772808E+00 -4.31094832E-07 -1.50667997E-04
  2.80091471E-04 -5.46135205E-05 -8.23754313E-20 -1.54316355E-05 -1.29070170E-03
  1.87747473E-03  6.35487251E-04 -1.91684681E-18 -1.82548908E-03 -7.92656042E-03
  7.98855182E-04 -3.33557179E-03 -1.22235712E-18 -2.15340117E-03  2.02526007E-02
 -5.25307866E-02  3.20923365E-02  1.54596071E-17  8.23687301E-04  3.57838974E-03
 -4.52692660E-04 -3.86640099E-03 -3.15256959E-19  3.69203593E-06  3.09000924E-04
 -5.14954950E-04 -3.83083755E-04 -1.75227875E-19 -2.15195208E-04 -8.30629767E-03
  6.02180957E-03  9.32652460E-05  0.00000000E+00  0.00000000E+00  0.00000000E+00
  1.47772808E+00  6.21466881E-22  2.17203184E-19 -4.03780236E-19 -8.23754313E-20
 -1.11755138E-04  2.73678298E-20  2.28904476E-18 -3.32968006E-18 -1.91684681E-18
 -4.45346759E-04  3.34104560E-18  1.45073450E-17 -1.46208028E-18 -1.22235712E-18
 -4.00344641E-03  3.10488464E-18 -2.92012420E-17  7.57415918E-17  1.54596071E-17
  4.28143890E-02 -1.89644317E-18 -8.23882168E-18  1.04227163E-18 -3.15256959E-19
 -4.00332740E-03 -1.04370619E-20 -8.73518525E-19  1.45573250E-18 -1.75227875E-19
 -4.45069361E-04  3.92828698E-19  1.58106604E-17 -1.25169011E-17 -2.16995906E-19
  0.00000000E+00  0.00000000E+00  0.00000000E+00  0.00000000E+00  1.47772808E+00
  0.00000000E+00 -2.07890539E-09  9.62253436E-09 -1.57313822E-10  1.31680059E-24
  0.00000000E+00 -5.06575030E-07  1.87886292E-06  4.25073385E-07 -6.34256286E-22
  0.00000000E+00 -4.45373554E-04  9.80685250E-04  2.32235288E-04 -3.51325475E-19
  0.00000000E+00 -1.77012919E-03  2.88919301E-03 -7.62096324E-04  1.79340102E-18
  0.00000000E+00 -1.35503201E-05  3.85224158E-05 -1.93385202E-05  4.18595518E-20
  0.00000000E+00 -1.14308024E-08  4.81201999E-08 -1.43324421E-08  3.30759168E-23
 -1.59048531E-07 -1.20924694E-03 -1.43427284E-05 -8.44307500E-10 -1.03696043E-04
 -8.25343488E-03  6.48506318E-03 -6.66108743E-03  1.37069343E-17  1.58911217E+01
 -2.07890539E-09 -2.49075308E-05  5.77178384E-05 -9.43598993E-07  7.89842684E-21
 -5.06575030E-07 -3.76213325E-04  6.97339027E-04  1.57765772E-04 -2.35403901E-19
 -4.45373554E-04 -9.53538616E-03  1.08548009E-02  2.57051670E-03 -3.88867691E-18
 -1.77012919E-03 -1.63423713E-02  1.16769127E-02 -3.08007537E-03  7.24817866E-18
 -1.35503201E-05 -1.85775885E-03  2.68955896E-03 -1.35017727E-03  2.92255121E-18
 -1.14308024E-08 -5.81233805E-05  1.22169711E-04 -3.63878437E-05  8.39746138E-20
 -7.96626457E-05 -1.20333193E-02 -9.80548577E-04 -4.18064458E-06 -8.25343488E-03
  6.11697558E-02 -1.23228592E-01  1.26573389E-01 -2.60457942E-16 -8.58900137E-02
  4.72249973E-01 -9.62253436E-09 -5.77178384E-05  1.25772111E-04 -2.17141344E-06
  1.81758886E-20 -1.87886292E-06 -6.97339027E-04  1.19088879E-03  2.93283897E-04
 -4.37611861E-19 -9.80685250E-04 -1.08548009E-02  8.49239578E-03  2.66024103E-03
 -4.02441185E-18 -2.88919301E-03 -1.16769127E-02 -3.87033595E-03 -3.75161763E-05
  8.82848360E-20 -3.85224158E-05 -2.68955896E-03  3.42800109E-03 -1.98706377E-03
  4.30113567E-18 -4.81201999E-08 -1.22169711E-04  2.38939016E-04 -7.60394886E-05
  1.75481316E-19 -1.40603058E-04 -7.53934180E-03 -1.13086745E-03 -8.95422572E-06
 -6.48506318E-03  1.23228592E-01 -1.22823892E-01  2.24923322E-01 -4.62838721E-16
  0.00000000E+00  0.00000000E+00  1.47772808E+00  1.57313822E-10  9.43598993E-07
 -2.17141344E-06 -7.01288986E-06 -2.97148172E-22 -4.25073385E-07 -1.57765772E-04
  2.93283897E-04 -3.91001767E-05 -9.90051763E-20 -2.32235288E-04 -2.57051670E-03
  2.66024103E-03 -2.11132429E-03 -9.53017743E-19  7.62096324E-04  3.08007537E-03
 -3.75161763E-05 -4.00266818E-03 -2.32873154E-20  1.93385202E-05  1.35017727E-03
 -1.98706377E-03  4.67281282E-04 -2.15919997E-18  1.43324421E-08  3.63878437E-05
 -7.60394886E-05  6.28971222E-06 -5.22665285E-20 -6.13358360E-05 -5.28277456E-03
  1.02519885E-03  3.66147836E-06  6.66108743E-03 -1.26573389E-01  2.24923322E-01
 -1.34872760E-01  4.75401565E-16  0.00000000E+00  0.00000000E+00  0.00000000E+00
  1.47772808E+00 -1.31680059E-24 -7.89842684E-21  1.81758886E-20 -2.97148172E-22
 -7.04838917E-06  6.34256286E-22  2.35403901E-19 -4.37611861E-19 -9.90051763E-20
 -1.05452638E-04  3.51325475E-19  3.88867691E-18 -4.02441185E-18 -9.53017743E-19
 -2.74129384E-03 -1.79340102E-18 -7.24817866E-18  8.82848360E-20 -2.32873154E-20
 -4.01256400E-03 -4.18595518E-20 -2.92255121E-18  4.30113567E-18 -2.15919997E-18
 -5.30238530E-04 -3.30759168E-23 -8.39746138E-20  1.75481316E-19 -5.22665285E-20
 -1.63583975E-05  1.05206527E-19  9.54063518E-18 -2.12353852E-18 -8.09966782E-21
 -1.37069343E-17  2.60457942E-16 -4.62838721E-16  4.75401565E-16  9.61556614E-02
  0.00000000E+00  0.00000000E+00  0.00000000E+00  0.00000000E+00  1.47772808E+00
 -2.98435808E-07 -1.13211648E-04  1.95063141E-04  8.40714994E-05 -1.43958342E-19
 -1.02333615E-06 -2.25032256E-04  3.06996985E-04  2.56563291E-04 -4.69554783E-19
 -1.25626701E-04 -3.33431397E-03  2.79897747E-03  3.43803407E-03 -6.43008793E-18
 -2.14310794E-03 -1.50529255E-02  2.62074167E-03  2.05527219E-03 -3.74456780E-18
 -1.03200554E-03 -1.10557063E-02  9.24273628E-03  1.14965807E-03 -1.27902302E-18
 -1.25929563E-05 -9.11739917E-04  1.41373547E-03  2.13836271E-04 -2.69927787E-19
 -2.04385924E-05 -1.71419908E-03 -1.09932119E-02 -1.99406863E-04 -1.08014555E-02
  1.04184621E-01 -5.78266795E-02 -2.49498098E-01  4.81869013E-16 -2.39134083E-03
 -1.48158827E-02  1.63626521E-04 -4.88238429E-04  9.71988527E-19  7.60031884E-01
 -8.04799161E-11 -1.10017088E-06  2.72139033E-06  5.87513180E-08  1.70503933E-22
 -1.33491668E-08 -1.98614947E-05  4.10036348E-05  9.09014495E-06 -1.34770425E-20
 -1.49643371E-05 -1.00410132E-03  1.52030482E-03  3.46340264E-04 -5.17884276E-19
 -1.05265799E-04 -3.01497200E-03  4.04809761E-03 -4.87534740E-04  1.37799017E-18
 -9.05020232E-07 -2.10145158E-04  3.56695846E-04 -1.17982059E-04  2.68140731E-19
 -7.00185681E-10 -3.76001123E-06  8.57181401E-06 -1.75556362E-06  4.33224142E-21
 -4.57656618E-06 -2.34144484E-03 -1.92887487E-04 -3.22729832E-07 -2.39138399E-03
 -1.48157805E-02 -4.84412796E-04  1.76898068E-04 -3.96754540E-19 -1.08015641E-02
  1.04183521E-01 -2.50953085E-01 -5.11341996E-02  7.36828061E-17 -1.05829622E-02
  7.60031884E-01 -1.25138450E-07 -6.96692638E-05  1.31875219E-04 -3.09443606E-05
  7.43468608E-20 -1.89132732E-05 -1.14478105E-03  1.75279952E-03 -4.83103454E-05
  2.78300721E-19 -1.13083202E-03 -1.16141880E-02  9.18577139E-03 -1.35928898E-03
  3.62165070E-18 -8.84737337E-04 -1.01578782E-02  7.24707698E-03 -5.67540431E-03
  1.18591880E-17 -9.70610738E-06 -7.88294655E-04  9.38784992E-04 -8.31679185E-04
  1.72493547E-18 -8.81226261E-08 -5.72589122E-05  9.87733596E-05 -5.46492838E-05
  1.17234129E-19 -4.51993717E-04 -9.39181489E-03 -2.46243143E-04 -3.53226785E-06
 -2.39134080E-03 -1.48158827E-02 -1.63626388E-04  4.88238032E-04 -9.71987737E-19
 -1.08014558E-02  1.04184618E-01  5.78266776E-02  2.49498093E-01 -4.81869002E-16
 -5.65016234E-03 -7.44381992E-03  7.60031884E-01 -3.01233856E-06 -8.00057657E-03
 -1.05502055E-02 -2.15340117E-03  3.10488464E-18  0.00000000E+00 -1.65038980E-03
 -2.72319414E-03  8.23687301E-04 -1.89644317E-18  0.00000000E+00 -9.48875619E-06
 -3.06721560E-05  3.69203593E-06 -1.04370619E-20  0.00000000E+00 -5.70158853E-07
 -2.11310060E-06 -4.31094832E-07  6.21466881E-22  0.00000000E+00 -9.50078999E-06
 -2.68056939E-05 -1.54316355E-05  2.73678298E-20  0.00000000E+00 -1.65122841E-03
 -2.18349576E-03 -1.82548908E-03  3.34104560E-18 -9.53300544E-04 -7.57050941E-07
 -7.57944004E-07 -9.53415941E-04  0.00000000E+00  0.00000000E+00  0.00000000E+00
  0.00000000E+00  0.00000000E+00  0.00000000E+00  0.00000000E+00  0.00000000E+00
  0.00000000E+00  0.00000000E+00 -2.62515555E-11  0.00000000E+00 -1.49675210E-11
  1.58911217E+01 -8.00057657E-03  2.08886897E-02  9.92240102E-02  2.02526007E-02
 -2.92012420E-17 -1.65038980E-03 -1.59882954E-02 -1.18305211E-02  3.57838974E-03
 -8.23882168E-18 -9.48875619E-06 -1.56439302E-03 -2.56707267E-03  3.09000924E-04
 -8.73518525E-19 -5.70158853E-07 -3.98615065E-04 -7.38530389E-04 -1.50667997E-04
  2.17203184E-19 -9.50078999E-06 -1.56535083E-03 -2.24202773E-03 -1.29070170E-03
  2.28904476E-18 -1.65122841E-03 -1.59908938E-02 -9.48108168E-03 -7.92656042E-03
  1.45073450E-17 -1.05860028E-02 -1.90248327E-04 -1.90373351E-04 -1.05867082E-02
  0.00000000E+00 -1.52673167E-06 -4.02853147E-06 -8.21967930E-07  1.18500402E-21
  0.00000000E+00 -3.58494249E-08 -1.12026315E-07 -3.75055466E-09 -4.41377391E-24
 -5.80821119E-07 -1.19717349E-09 -4.21435387E-07 -8.58900137E-02  4.72249973E-01
  1.05502055E-02 -9.92240102E-02 -2.14550844E-01 -5.25307866E-02  7.57415918E-17
  2.72319414E-03  1.18305211E-02 -2.50667934E-03 -4.52692660E-04  1.04227163E-18
  3.06721560E-05  2.56707267E-03  3.83299804E-03 -5.14954950E-04  1.45573250E-18
  2.11310060E-06  7.38530389E-04  1.26117122E-03  2.80091471E-04 -4.03780236E-19
  2.68056939E-05  2.24202773E-03  2.81594160E-03  1.87747473E-03 -3.32968006E-18
  2.18349576E-03  9.48108168E-03 -3.04792336E-03  7.98855182E-04 -1.46208028E-18
  7.05886988E-03  3.29928926E-04  2.67179198E-04  4.13484276E-03  0.00000000E+00
  4.02853147E-06  1.01216353E-05  2.15506062E-06 -3.10687974E-21  0.00000000E+00
  1.12026315E-07  3.38016621E-07  1.16695136E-08  1.37330607E-23  1.38579804E-06
  3.78858121E-09  1.07944106E-06  0.00000000E+00  0.00000000E+00  1.47772808E+00
  2.15340117E-03 -2.02526007E-02 -5.25307866E-02  3.20923365E-02  1.54596071E-17
 -8.23687301E-04 -3.57838974E-03 -4.52692660E-04 -3.86640099E-03 -3.15256959E-19
 -3.69203593E-06 -3.09000924E-04 -5.14954950E-04 -3.83083755E-04 -1.75227875E-19
  4.31094832E-07  1.50667997E-04  2.80091471E-04 -5.46135205E-05 -8.23754313E-20
  1.54316355E-05  1.29070170E-03  1.87747473E-03  6.35487251E-04 -1.91684681E-18
  1.82548908E-03  7.92656042E-03  7.98855182E-04 -3.33557179E-03 -1.22235712E-18
 -6.02180957E-03 -9.32652460E-05  2.15195208E-04  8.30629767E-03  0.00000000E+00
  8.21967930E-07  2.15506062E-06 -7.80278068E-10 -6.33917228E-22  0.00000000E+00
  3.75055466E-09  1.16695136E-08 -1.01525023E-08  4.59772283E-25  5.18191044E-07
  2.16387169E-10 -1.42114820E-07  0.00000000E+00  0.00000000E+00  0.00000000E+00
  1.47772808E+00 -3.10488464E-18  2.92012420E-17  7.57415918E-17  1.54596071E-17
  4.28143890E-02  1.89644317E-18  8.23882168E-18  1.04227163E-18 -3.15256959E-19
 -4.00332740E-03  1.04370619E-20  8.73518525E-19  1.45573250E-18 -1.75227875E-19
 -4.45069361E-04 -6.21466881E-22 -2.17203184E-19 -4.03780236E-19 -8.23754313E-20
 -1.11755138E-04 -2.73678298E-20 -2.28904476E-18 -3.32968006E-18 -1.91684681E-18
 -4.45346759E-04 -3.34104560E-18 -1.45073450E-17 -1.46208028E-18 -1.22235712E-18
 -4.00344641E-03  1.25169011E-17  2.16995906E-19 -3.92828698E-19 -1.58106604E-17
  0.00000000E+00 -1.18500402E-21 -3.10687974E-21 -6.33917228E-22 -4.40491555E-07
  0.00000000E+00  4.41377391E-24  1.37330607E-23  4.59772283E-25 -1.05431886E-08
 -8.68072190E-22 -2.58582510E-26  3.91132983E-22  0.00000000E+00  0.00000000E+00
  0.00000000E+00  0.00000000E+00  1.47772808E+00  0.00000000E+00 -1.77012919E-03
 -2.88919301E-03  7.62096324E-04 -1.79340102E-18  0.00000000E+00 -1.35503201E-05
 -3.85224158E-05  1.93385202E-05 -4.18595518E-20  0.00000000E+00 -1.14308024E-08
 -4.81201999E-08  1.43324421E-08 -3.30759168E-23  0.00000000E+00 -2.07890539E-09
 -9.62253436E-09  1.57313822E-10 -1.31680059E-24  0.00000000E+00 -5.06575030E-07
 -1.87886292E-06 -4.25073385E-07  6.34256286E-22  0.00000000E+00 -4.45373554E-04
 -9.80685250E-04 -2.32235288E-04  3.51325475E-19 -1.43427284E-05 -8.44307500E-10
 -1.59048531E-07 -1.20924694E-03  0.00000000E+00  0.00000000E+00  0.00000000E+00
  0.00000000E+00  0.00000000E+00  0.00000000E+00  0.00000000E+00  0.00000000E+00
  0.00000000E+00  0.00000000E+00  0.00000000E+00  0.00000000E+00  0.00000000E+00
 -1.03696043E-04 -8.25343488E-03 -6.48506318E-03  6.66108743E-03 -1.37069343E-17
  1.58911217E+01 -1.77012919E-03 -1.63423713E-02 -1.16769127E-02  3.08007537E-03
 -7.24817866E-18 -1.35503201E-05 -1.85775885E-03 -2.68955896E-03  1.35017727E-03
 -2.92255121E-18 -1.14308024E-08 -5.81233805E-05 -1.22169711E-04  3.63878437E-05
 -8.39746138E-20 -2.07890539E-09 -2.49075308E-05 -5.77178384E-05  9.43598993E-07
 -7.89842684E-21 -5.06575030E-07 -3.76213325E-04 -6.97339027E-04 -1.57765772E-04
  2.35403901E-19 -4.45373554E-04 -9.53538616E-03 -1.08548009E-02 -2.57051670E-03
  3.88867691E-18 -9.80548577E-04 -4.18064458E-06 -7.96626457E-05 -1.20333193E-02
  0.00000000E+00 -3.58494249E-08 -1.12026315E-07 -3.75055466E-09 -4.41377391E-24
  0.00000000E+00  0.00000000E+00  0.00000000E+00  0.00000000E+00  0.00000000E+00
 -3.76473162E-08  0.00000000E+00 -3.16676635E-09 -8.25343488E-03  6.11697558E-02
  1.23228592E-01 -1.26573389E-01  2.60457942E-16 -8.58900137E-02  4.72249973E-01
  2.88919301E-03  1.16769127E-02 -3.87033595E-03 -3.75161763E-05  8.82848360E-20
  3.85224158E-05  2.68955896E-03  3.42800109E-03 -1.98706377E-03  4.30113567E-18
  4.81201999E-08  1.22169711E-04  2.38939016E-04 -7.60394886E-05  1.75481316E-19
  9.62253436E-09  5.77178384E-05  1.25772111E-04 -2.17141344E-06  1.81758886E-20
  1.87886292E-06  6.97339027E-04  1.19088879E-03  2.93283897E-04 -4.37611861E-19
  9.80685250E-04  1.08548009E-02  8.49239578E-03  2.66024103E-03 -4.02441185E-18
  1.13086745E-03  8.95422572E-06  1.40603058E-04  7.53934180E-03  0.00000000E+00
  1.12026315E-07  3.38016621E-07  1.16695136E-08  1.37330607E-23  0.00000000E+00
  0.00000000E+00  0.00000000E+00  0.00000000E+00  0.00000000E+00  1.05130014E-07
  0.00000000E+00  9.47588652E-09  6.48506318E-03 -1.23228592E-01 -1.22823892E-01
  2.24923322E-01 -4.62838721E-16  0.00000000E+00  0.00000000E+00  1.47772808E+00
 -7.62096324E-04 -3.08007537E-03 -3.75161763E-05 -4.00266818E-03 -2.32873154E-20
 -1.93385202E-05 -1.35017727E-03 -1.98706377E-03  4.67281282E-04 -2.15919997E-18
 -1.43324421E-08 -3.63878437E-05 -7.60394886E-05  6.28971222E-06 -5.22665285E-20
 -1.57313822E-10 -9.43598993E-07 -2.17141344E-06 -7.01288986E-06 -2.97148172E-22
  4.25073385E-07  1.57765772E-04  2.93283897E-04 -3.91001767E-05 -9.90051763E-20
  2.32235288E-04  2.57051670E-03  2.66024103E-03 -2.11132429E-03 -9.53017743E-19
 -1.02519885E-03 -3.66147836E-06  6.13358360E-05  5.28277456E-03  0.00000000E+00
  3.75055466E-09  1.16695136E-08 -1.01525023E-08  4.59772283E-25  0.00000000E+00
  0.00000000E+00  0.00000000E+00  0.00000000E+00  0.00000000E+00  1.96369495E-08
  0.00000000E+00 -2.31485705E-09 -6.66108743E-03  1.26573389E-01  2.24923322E-01
 -1.34872760E-01  4.75401565E-16  0.00000000E+00  0.00000000E+00  0.00000000E+00
  1.47772808E+00  1.79340102E-18  7.24817866E-18  8.82848360E-20 -2.32873154E-20
 -4.01256400E-03  4.18595518E-20  2.92255121E-18  4.30113567E-18 -2.15919997E-18
 -5.30238530E-04  3.30759168E-23  8.39746138E-20  1.75481316E-19 -5.22665285E-20
 -1.63583975E-05  1.31680059E-24  7.89842684E-21  1.81758886E-20 -2.97148172E-22
 -7.04838917E-06 -6.34256286E-22 -2.35403901E-19 -4.37611861E-19 -9.90051763E-20
 -1.05452638E-04 -3.51325475E-19 -3.88867691E-18 -4.02441185E-18 -9.53017743E-19
 -2.74129384E-03  2.12353852E-18  8.09966782E-21 -1.05206527E-19 -9.54063518E-18
  0.00000000E+00  4.41377391E-24  1.37330607E-23  4.59772283E-25 -1.05431886E-08
  0.00000000E+00  0.00000000E+00  0.00000000E+00  0.00000000E+00  0.00000000E+00
 -2.73778546E-23  0.00000000E+00  5.52084250E-24  1.37069343E-17 -2.60457942E-16
 -4.62838721E-16  4.75401565E-16  9.61556614E-02  0.00000000E+00  0.00000000E+00
  0.00000000E+00  0.00000000E+00  1.47772808E+00 -2.14310794E-03 -1.50529255E-02
 -2.62074167E-03 -2.05527219E-03  3.74456780E-18 -1.03200554E-03 -1.10557063E-02
 -9.24273628E-03 -1.14965807E-03  1.27902302E-18 -1.25929563E-05 -9.11739917E-04
 -1.41373547E-03 -2.13836271E-04  2.69927787E-19 -2.98435808E-07 -1.13211648E-04
 -1.95063141E-04 -8.40714994E-05  1.43958342E-19 -1.02333615E-06 -2.25032256E-04
 -3.06996985E-04 -2.56563291E-04  4.69554783E-19 -1.25626701E-04 -3.33431397E-03
 -2.79897747E-03 -3.43803407E-03  6.43008793E-18 -1.09932119E-02 -1.99406863E-04
 -2.04385924E-05 -1.71419908E-03 -2.62515555E-11 -5.80821119E-07 -1.38579804E-06
 -5.18191044E-07  8.68072190E-22  0.00000000E+00 -3.76473162E-08 -1.05130014E-07
 -1.96369495E-08  2.73778546E-23 -1.28309367E-07 -1.28569479E-09 -5.73448237E-07
 -1.08014555E-02  1.04184621E-01  5.78266795E-02  2.49498098E-01 -4.81869013E-16
 -2.39134083E-03 -1.48158827E-02 -1.63626521E-04  4.88238429E-04 -9.71988527E-19
  7.60031884E-01 -1.05265799E-04 -3.01497200E-03 -4.04809761E-03  4.87534740E-04
 -1.37799017E-18 -9.05020232E-07 -2.10145158E-04 -3.56695846E-04  1.17982059E-04
 -2.68140731E-19 -7.00185681E-10 -3.76001123E-06 -8.57181401E-06  1.75556362E-06
 -4.33224142E-21 -8.04799161E-11 -1.10017088E-06 -2.72139033E-06 -5.87513180E-08
 -1.70503933E-22 -1.33491668E-08 -1.98614947E-05 -4.10036348E-05 -9.09014495E-06
  1.34770425E-20 -1.49643371E-05 -1.00410132E-03 -1.52030482E-03 -3.46340264E-04
  5.17884276E-19 -1.92887487E-04 -3.22729832E-07 -4.57656618E-06 -2.34144484E-03
  0.00000000E+00 -1.19717349E-09 -3.78858121E-09 -2.16387169E-10  2.58582510E-26
  0.00000000E+00  0.00000000E+00  0.00000000E+00  0.00000000E+00  0.00000000E+00
 -1.28569479E-09  0.00000000E+00 -1.61689920E-10 -2.39138399E-03 -1.48157805E-02
  4.84412796E-04 -1.76898068E-04  3.96754540E-19 -1.08015641E-02  1.04183521E-01
  2.50953085E-01  5.11341996E-02 -7.36828061E-17 -1.05829622E-02  7.60031884E-01
 -8.84737337E-04 -1.01578782E-02 -7.24707698E-03  5.67540431E-03 -1.18591880E-17
 -9.70610738E-06 -7.88294655E-04 -9.38784992E-04  8.31679185E-04 -1.72493547E-18
 -8.81226261E-08 -5.72589122E-05 -9.87733596E-05  5.46492838E-05 -1.17234129E-19
 -1.25138450E-07 -6.96692638E-05 -1.31875219E-04  3.09443606E-05 -7.43468608E-20
 -1.89132732E-05 -1.14478105E-03 -1.75279952E-03  4.83103454E-05 -2.78300721E-19
 -1.13083202E-03 -1.16141880E-02 -9.18577139E-03  1.35928898E-03 -3.62165070E-18
 -2.46243143E-04 -3.53226785E-06 -4.51993717E-04 -9.39181489E-03 -1.49675210E-11
 -4.21435387E-07 -1.07944106E-06  1.42114820E-07 -3.91132983E-22  0.00000000E+00
 -3.16676635E-09 -9.47588652E-09  2.31485705E-09 -5.52084250E-24 -5.73448237E-07
 -1.61689920E-10 -1.11223391E-08 -2.39134080E-03 -1.48158827E-02  1.63626388E-04
 -4.88238032E-04  9.71987737E-19 -1.08014558E-02  1.04184618E-01 -5.78266776E-02
 -2.49498093E-01  4.81869002E-16 -5.65016234E-03 -7.44381992E-03  7.60031884E-01
Nuclear Attraction Matrix                  R   N=        1830
 -4.83153191E+01 -7.83386164E+00 -1.98164389E+01  5.20418715E-02  5.92088618E-01
 -2.01189065E+01  1.87116200E-02  2.15243360E-01  9.71127726E-03 -1.99867798E+01
 -3.11357603E-17 -3.58848501E-16 -1.15042821E-16  1.53376209E-15 -1.92030324E+01
 -1.93565000E-05 -1.17954655E+00  1.29976970E+00 -1.46261502E+00  2.99668926E-15
 -4.74206633E+01 -1.21004701E+00 -7.09040167E+00  5.18859501E+00 -5.50377755E+00
  1.13076643E-14 -7.61166280E+00 -1.89150363E+01 -1.32967009E+00 -4.92288595E+00
  6.42038818E-01 -4.97431282E+00  1.01941824E-14  2.06447639E-02  2.39505635E-01
 -1.92508130E+01  1.50373525E+00  5.94370095E+00 -5.49058654E+00  1.99315771E+00
 -1.19102079E-14  1.09729756E-01  1.27666874E+00  7.31754003E-02 -1.89798768E+01
 -3.08024220E-15 -1.21401392E-14  1.12038384E-14 -1.18560645E-14 -3.80252772E+00
 -2.12429026E-16 -2.47161243E-15 -2.34642955E-16  1.18477517E-15 -1.83779824E+01
  0.00000000E+00 -5.61770889E-02  1.23941865E-01 -4.13076116E-02  9.37818599E-17
 -1.91139196E-05 -1.18460610E+00  1.92476796E+00  3.96186650E-01 -5.72949431E-16
 -4.75882020E+01 -5.73430631E-02 -1.18080267E+00  1.65423386E+00 -5.53887681E-01
  1.25670126E-15 -1.17897169E+00 -6.93992357E+00  7.26651274E+00  1.83501767E+00
 -2.82660685E-15 -7.65327310E+00 -1.90825540E+01 -1.26488570E-01 -1.66185870E+00
  2.07385184E+00 -8.59624957E-01  1.94517232E-15 -1.91700894E+00 -7.37765224E+00
  6.02784300E+00  2.38185761E+00 -3.63529288E-15 -5.10278117E-02 -5.92649033E-01
 -1.93531561E+01  4.22989023E-02  5.55580778E-01 -8.56572412E-01 -1.97235034E-01
 -5.72089269E-16 -3.87417516E-01 -1.15446795E+00  1.65649446E+00 -3.43966748E+00
 -3.84236444E-16  9.15309161E-02  1.06510731E+00 -1.36420549E-01 -1.92208467E+01
 -9.59875694E-17 -1.26081203E-15  1.93920258E-15 -5.72409400E-16 -4.43830831E-01
  5.56613699E-16  1.48402727E-15 -2.21672906E-15 -3.08165121E-16 -3.72497201E+00
 -1.84354829E-16 -2.14514110E-15  1.81222221E-16  1.32263459E-15 -1.85372201E+01
  0.00000000E+00 -1.29604248E-02  3.40392434E-02  6.94029118E-03 -1.00030388E-17
  0.00000000E+00 -5.74533924E-02  9.99933226E-02  8.86048337E-02 -1.62794302E-16
 -1.95933994E-05 -1.21173637E+00  6.35277786E-01  1.90703539E+00 -3.66288941E-15
 -4.83153191E+01 -1.29604248E-02 -5.03724509E-01  7.95692006E-01  1.62397628E-01
 -2.34147621E-16 -5.59950124E-02 -1.18408015E+00  1.31752711E+00  1.16425641E+00
 -2.13871630E-15 -1.18678617E+00 -7.14872586E+00  2.25615639E+00  7.43331762E+00
 -1.43004324E-14 -7.83386164E+00 -1.98164389E+01 -3.40392434E-02 -7.95692006E-01
  1.15771091E+00  2.77215383E-01 -4.02249342E-16 -9.75170968E-02 -1.30553090E+00
  1.10840934E+00  1.41242507E+00 -2.59931818E-15 -6.26134828E-01 -2.60322561E+00
 -2.95848673E+00  3.39103529E+00 -6.53996126E-15 -5.20418715E-02 -5.92088618E-01
 -2.01189065E+01 -6.94029118E-03 -1.62397628E-01  2.77215383E-01 -1.42364394E-01
 -3.70597462E-17 -8.62606815E-02 -1.16226895E+00  1.42383855E+00  7.72985063E-01
 -2.23252855E-15 -1.86645619E+00 -7.18328079E+00  2.96083134E+00  5.61552017E+00
 -1.81682947E-14 -1.87116200E-02 -2.15243360E-01  9.71127726E-03 -1.99867798E+01
  1.00030388E-17  2.34147621E-16 -4.02249342E-16 -3.70597462E-17 -1.76180225E-01
  1.58469627E-16  2.13608759E-15 -2.62163906E-15 -2.23372552E-15 -4.44941967E-01
  3.58448914E-15  1.37750470E-14 -5.69862851E-15 -1.81231778E-14 -3.83336441E+00
  3.11357603E-17  3.58848501E-16 -1.15042821E-16  1.53376209E-15 -1.92030324E+01
  0.00000000E+00 -5.59950124E-02  9.75170968E-02  8.62606815E-02 -1.58469627E-16
  0.00000000E+00 -1.26705914E-02  1.07543853E-02  3.22026342E-02 -6.18495599E-17
  0.00000000E+00 -5.60099174E-02 -2.60949379E-02  1.27581340E-01 -2.52242411E-16
 -1.93565000E-05 -1.17954655E+00 -1.29976970E+00  1.46261502E+00 -2.99668926E-15
 -4.74206633E+01 -5.74533924E-02 -1.18408015E+00  1.30553090E+00  1.16226895E+00
 -2.13608759E-15 -1.26705914E-02 -5.03251420E-01  2.56502508E-01  7.69375163E-01
 -1.47773607E-15 -5.62983748E-02 -1.19128563E+00 -3.39567219E-01  1.72953332E+00
 -3.41799101E-15 -1.21004701E+00 -7.09040167E+00 -5.18859501E+00  5.50377755E+00
 -1.13076643E-14 -7.61166280E+00 -1.89150363E+01 -9.99933226E-02 -1.31752711E+00
  1.10840934E+00  1.42383855E+00 -2.62163906E-15 -1.07543853E-02 -2.56502508E-01
 -5.96717978E-02  4.23754191E-01 -8.16556185E-16  2.61454255E-02  3.65330376E-01
 -3.79741933E-01 -5.83033055E-01  1.14724438E-15  1.32967009E+00  4.92288595E+00
  6.42038818E-01 -4.97431282E+00  1.01941824E-14 -2.06447639E-02 -2.39505635E-01
 -1.92508130E+01 -8.86048337E-02 -1.16425641E+00  1.41242507E+00  7.72985063E-01
 -2.23372552E-15 -3.22026342E-02 -7.69375163E-01  4.23754191E-01  1.07323200E+00
 -2.39794783E-15 -1.28254839E-01 -1.72684530E+00 -5.44163412E-01  2.27302313E+00
 -5.37606661E-15 -1.50373525E+00 -5.94370095E+00 -5.49058654E+00  1.99315771E+00
 -1.19102079E-14 -1.09729756E-01 -1.27666874E+00  7.31754003E-02 -1.89798768E+01
  1.62794302E-16  2.13871630E-15 -2.59931818E-15 -2.23252855E-15 -4.44941967E-01
  6.18495599E-17  1.47773607E-15 -8.16556185E-16 -2.39794783E-15 -1.75649795E-01
  2.53564841E-16  3.41543604E-15  1.07122856E-15 -5.38014300E-15 -4.46773687E-01
  3.08024220E-15  1.21401392E-14  1.12038384E-14 -1.18560645E-14 -3.80252772E+00
  2.12429026E-16  2.47161243E-15 -2.34642955E-16  1.18477517E-15 -1.83779824E+01
 -1.95933994E-05 -1.18678617E+00  6.26134828E-01  1.86645619E+00 -3.58448914E-15
  0.00000000E+00 -5.62983748E-02 -2.61454255E-02  1.28254839E-01 -2.53564841E-16
  0.00000000E+00 -1.27118060E-02 -2.25920821E-02  2.54976622E-02 -5.22340718E-17
  0.00000000E+00 -5.61770889E-02 -1.23941865E-01  4.13076116E-02 -9.37818599E-17
 -1.91139196E-05 -1.18460610E+00 -1.92476796E+00 -3.96186650E-01  5.72949431E-16
 -4.75882020E+01 -1.21173637E+00 -7.14872586E+00  2.60322561E+00  7.18328079E+00
 -1.37750470E-14 -5.60099174E-02 -1.19128563E+00 -3.65330376E-01  1.72684530E+00
 -3.41543604E-15 -1.27118060E-02 -5.03026928E-01 -5.37257396E-01  6.07216780E-01
 -1.24385370E-15 -5.73430631E-02 -1.18080267E+00 -1.65423386E+00  5.53887681E-01
 -1.25670126E-15 -1.17897169E+00 -6.93992357E+00 -7.26651274E+00 -1.83501767E+00
  2.82660685E-15 -7.65327310E+00 -1.90825540E+01 -6.35277786E-01 -2.25615639E+00
 -2.95848673E+00  2.96083134E+00 -5.69862851E-15  2.60949379E-02  3.39567219E-01
 -3.79741933E-01 -5.44163412E-01  1.07122856E-15  2.25920821E-02  5.37257396E-01
  4.19407433E-01 -7.01463472E-01  1.43422917E-15  1.26488570E-01  1.66185870E+00
  2.07385184E+00 -8.59624957E-01  1.94517232E-15  1.91700894E+00  7.37765224E+00
  6.02784300E+00  2.38185761E+00 -3.63529288E-15  5.10278117E-02  5.92649033E-01
 -1.93531561E+01 -1.90703539E+00 -7.43331762E+00  3.39103529E+00  5.61552017E+00
 -1.81231778E-14 -1.27581340E-01 -1.72953332E+00 -5.83033055E-01  2.27302313E+00
 -5.38014300E-15 -2.54976622E-02 -6.07216780E-01 -7.01463472E-01  5.94091418E-01
 -1.57890394E-15 -4.22989023E-02 -5.55580778E-01 -8.56572412E-01 -1.97235034E-01
 -5.72089269E-16  3.87417516E-01  1.15446795E+00  1.65649446E+00 -3.43966748E+00
 -3.84236444E-16 -9.15309161E-02 -1.06510731E+00 -1.36420549E-01 -1.92208467E+01
  3.66288941E-15  1.43004324E-14 -6.53996126E-15 -1.81682947E-14 -3.83336441E+00
  2.52242411E-16  3.41799101E-15  1.14724438E-15 -5.37606661E-15 -4.46773687E-01
  5.22340718E-17  1.24385370E-15  1.43422917E-15 -1.57890394E-15 -1.75643057E-01
  9.59875694E-17  1.26081203E-15  1.93920258E-15 -5.72409400E-16 -4.43830831E-01
 -5.56613699E-16 -1.48402727E-15 -2.21672906E-15 -3.08165121E-16 -3.72497201E+00
  1.84354829E-16  2.14514110E-15  1.81222221E-16  1.32263459E-15 -1.85372201E+01
 -1.67493811E-01 -1.67125326E+00  6.51882628E-01 -1.99663488E+00  3.97310450E-15
 -1.87374129E+00 -7.92467341E+00 -2.26879617E+00 -6.53115523E+00  1.25347837E-14
 -1.63582885E-01 -1.61794524E+00 -1.69973114E+00 -1.14032416E+00  2.05182990E-15
 -2.83112074E-03 -1.20989990E-01 -1.27734953E-01 -1.53588580E-01  2.86971066E-16
 -3.60621284E-04 -3.49644711E-02 -2.00203532E-02 -5.97972497E-02  1.14843497E-16
 -2.77645992E-03 -1.22988505E-01  8.37947037E-03 -2.03261816E-01  3.98389823E-16
 -1.40919632E+01 -2.82438074E-03 -1.20625684E-01  1.77602714E-01 -9.07763515E-02
  1.96153502E-16 -1.62761580E-01 -1.62409007E+00  2.02781182E+00 -3.83379978E-01
  9.62424542E-16 -1.88477277E+00 -8.07121123E+00  4.80591706E+00 -5.22271763E+00
  1.07178739E-14 -1.67719091E-01 -1.70293517E+00  2.01853966E-01 -2.13929017E+00
  4.20489371E-15 -2.76041486E-03 -1.23340488E-01  7.23660139E-02 -1.91289342E-01
  3.81686221E-16 -3.61711698E-04 -3.49540420E-02  4.18791797E-02 -4.71795733E-02
  9.66592261E-17 -7.24744961E-01 -1.45151666E+01 -2.83112074E-03 -1.20989990E-01
  1.27734953E-01  1.53588580E-01 -2.86971066E-16 -3.60621284E-04 -3.49644711E-02
  2.00203532E-02  5.97972497E-02 -1.14843497E-16 -2.77645992E-03 -1.22988505E-01
 -8.37947037E-03  2.03261816E-01 -3.98389823E-16 -1.67493811E-01 -1.67125326E+00
 -6.51882628E-01  1.99663488E+00 -3.97310450E-15 -1.87374129E+00 -7.92467341E+00
  2.26879617E+00  6.53115523E+00 -1.25347837E-14 -1.63582885E-01 -1.61794524E+00
  1.69973114E+00  1.14032416E+00 -2.05182990E-15 -2.08925698E-03 -1.41321633E-02
 -1.40919632E+01 -1.67719091E-01 -1.70293517E+00 -2.01853966E-01  2.13929017E+00
 -4.20489371E-15 -2.76041486E-03 -1.23340488E-01 -7.23660139E-02  1.91289342E-01
 -3.81686221E-16 -3.61711698E-04 -3.49540420E-02 -4.18791797E-02  4.71795733E-02
 -9.66592261E-17 -2.82438074E-03 -1.20625684E-01 -1.77602714E-01  9.07763515E-02
 -1.96153502E-16 -1.62761580E-01 -1.62409007E+00 -2.02781182E+00  3.83379978E-01
 -9.62424542E-16 -1.88477277E+00 -8.07121123E+00 -4.80591706E+00  5.22271763E+00
 -1.07178739E-14 -1.41321633E-02 -2.08728724E-03 -7.24744961E-01 -1.45151666E+01
  0.00000000E+00 -2.76791564E-06  1.12391925E-05  2.28963502E-06 -3.29905532E-21
  0.00000000E+00 -6.28795215E-05  1.99967471E-04  1.15102646E-04 -2.04130387E-19
  0.00000000E+00 -3.27398319E-02  6.14588161E-02  5.13818693E-02 -9.40400786E-17
 -1.21149309E-06 -7.82837117E-01  1.28815927E+00  2.61921658E-01 -3.77136072E-16
  0.00000000E+00 -3.25738490E-02  7.63090520E-02 -2.31521276E-02  5.32804862E-17
  0.00000000E+00 -6.25110413E-05  2.27783015E-04 -2.75470502E-05  7.77610557E-20
 -5.54269226E-06 -2.94649670E-02 -2.92762599E-02 -5.50124094E-06 -4.58360672E+01
 -3.02041200E-06 -5.66594154E-03  1.22576420E-02  2.49209397E-03 -3.58818793E-18
 -6.65309383E-05 -2.90140354E-02  4.94952506E-02  2.93453741E-02 -5.21988426E-17
 -3.45343311E-02 -8.31575311E-01  9.36605970E-01  8.46153504E-01 -1.55656363E-15
 -8.42202729E-01 -5.40057432E+00  5.88053952E+00  1.14663096E+00 -1.62570814E-15
 -3.42910729E-02 -8.13449933E-01  1.16276672E+00 -4.13641063E-01  9.30884692E-16
 -6.67111094E-05 -2.87300340E-02  5.64084541E-02 -7.68543730E-03  2.09458519E-17
 -2.86582781E-03 -4.94836747E-01 -4.69411567E-01 -2.82332729E-03 -7.21810871E+00
 -1.73316767E+01 -1.22570263E-05 -1.21811031E-02  2.49231679E-02  5.43698669E-03
 -7.85276441E-18 -2.11527576E-04 -5.07510579E-02  7.99129363E-02  5.24537844E-02
 -9.33239203E-17 -6.48895821E-02 -1.00689296E+00  9.00100770E-01  1.10864285E+00
 -2.04181584E-15 -1.38606080E+00 -6.14554659E+00  5.41039276E+00  1.63796809E+00
 -2.35042113E-15 -8.03611860E-02 -1.21312379E+00  1.56396052E+00 -6.62363201E-01
  1.49065866E-15 -2.42948217E-04 -5.72883182E-02  1.06421718E-01 -1.53320225E-02
  4.20135575E-17 -4.75439439E-03 -3.43172404E-01 -5.43652399E-01 -5.72884814E-03
 -5.86573164E-02 -7.06677945E-01 -1.76699887E+01 -2.50003012E-06 -2.49438335E-03
  5.47610840E-03 -6.83323695E-04 -1.19152420E-18 -1.21619337E-04 -2.82787093E-02
  4.94181023E-02  1.99918402E-02 -5.02708386E-17 -5.41305199E-02 -7.86095736E-01
  9.72133486E-01  5.47314620E-01 -1.56357741E-15 -2.83120229E-01 -1.32584300E+00
  1.77528801E+00 -2.44979241E+00 -3.46461318E-16  2.42026249E-02  3.07993013E-01
 -4.88275761E-01 -1.46469330E-01 -3.48130232E-16  2.91089402E-05  5.90825540E-03
 -1.16489787E-02 -7.45550523E-03 -2.83724476E-18 -3.63645816E-03 -6.28995678E-01
  4.08677828E-01  1.44193145E-03 -6.17412322E-02 -7.11930924E-01  1.40626512E-01
 -1.73336167E+01  3.60377292E-21  3.60069209E-18 -7.92927316E-18 -1.19562703E-18
 -1.58625280E-03  2.15662470E-19  4.99811080E-17 -8.73871578E-17 -4.99524762E-17
 -8.36353832E-03  9.90557089E-17  1.43173980E-15 -1.77484991E-15 -1.54926121E-15
 -3.04330472E-01  4.08326003E-16  1.94839378E-15 -2.61897222E-15 -3.60862529E-16
 -2.72215152E+00 -5.57598632E-17 -7.29554126E-16  1.15020279E-15 -3.66387379E-16
 -2.98296871E-01 -8.24060088E-20 -1.75625624E-17  3.48107753E-17 -3.22349821E-18
 -8.28160804E-03  6.61306675E-18  1.19411213E-15 -8.56249648E-16 -3.42073188E-18
  1.14593275E-16  1.31818321E-15 -3.60363067E-16  9.48423683E-16 -1.68561944E+01
  0.00000000E+00 -6.07813343E-09  2.99810262E-08 -4.74018244E-10  4.07123174E-24
  0.00000000E+00 -2.26939274E-06  9.21850810E-06  2.09229146E-06 -3.12503450E-21
  0.00000000E+00 -5.41191957E-03  1.49629224E-02  3.55636211E-03 -5.38582272E-18
  0.00000000E+00 -3.40351719E-02  7.97449224E-02 -2.10078793E-02  4.94473968E-17
  0.00000000E+00 -8.83118506E-05  2.84482327E-04 -1.42798145E-04  3.09099283E-19
  0.00000000E+00 -3.77478751E-08  1.70395897E-07 -5.06984540E-08  1.17018950E-22
 -9.29947689E-07 -4.02961009E-02 -1.42030974E-04 -3.35216643E-09 -5.59316707E-05
 -1.24377615E+00  1.44009879E+00 -1.48199414E+00  3.04930502E-15 -4.40525522E+01
 -7.11514110E-09 -2.32728996E-04  5.97066323E-04 -5.98149834E-06  7.43141731E-20
 -2.56792593E-06 -4.66935142E-03  9.83000252E-03  2.48222462E-03 -3.82348172E-18
 -6.05448721E-03 -2.78242839E-01  4.44085537E-01  1.22879655E-01 -1.93738073E-16
 -3.88132763E-02 -8.40011138E-01  1.21922925E+00 -3.00591493E-01  7.15719569E-16
 -9.86995583E-05 -3.34911939E-02  5.80219277E-02 -3.03132549E-02  6.53673842E-17
 -4.30081231E-08 -6.02910887E-04  1.41553548E-03 -4.33154064E-04  9.95554219E-19
 -8.90835437E-04 -5.61912838E-01 -1.85627234E-02 -3.82367585E-05 -1.31520983E+00
 -6.64785164E+00  4.55648773E+00 -5.06070512E+00  1.03748740E-14 -6.77515066E+00
 -1.55413311E+01 -3.50635805E-08 -6.07015196E-04  1.49261236E-03 -1.78313399E-05
  1.98027514E-19 -1.04234477E-05 -1.03123009E-02  2.05129660E-02  5.52072284E-03
 -8.50597820E-18 -1.67452143E-02 -4.61553569E-01  6.80334246E-01  2.15081946E-01
 -3.39234644E-16 -9.09744496E-02 -1.24574535E+00  1.63355749E+00 -4.92061880E-01
  1.16596738E-15 -3.17974073E-04 -5.96574544E-02  9.51419869E-02 -5.57554468E-02
  1.20041041E-16 -1.94000368E-07 -1.44425788E-03  3.22352381E-03 -1.04134000E-03
  2.39169764E-18 -1.84325019E-03 -6.77965561E-01 -2.61073011E-02 -9.12790815E-05
 -1.52663136E+00 -5.16562182E+00  8.22216268E-01 -5.00806490E+00  1.02645354E-14
 -1.02089480E-01 -1.18093414E+00 -1.57435502E+01  5.75518632E-10  1.37642679E-05
 -3.75603720E-05 -7.13069372E-05  1.20628385E-20 -2.35068261E-06 -2.07322900E-03
  4.40670079E-03 -3.41700326E-04 -1.46937885E-18 -3.94801484E-03 -9.18188707E-02
  1.58068328E-01 -6.02316177E-02 -5.29207596E-17  2.39687860E-02  3.54687379E-01
 -5.60820302E-01 -1.90142923E-01 -2.90119534E-16  1.59278782E-04  2.89841182E-02
 -5.20113907E-02  1.68385532E-02 -5.74891708E-17  5.77109793E-08  4.18712785E-04
 -9.87931728E-04  1.25767923E-04 -6.68975554E-19 -7.22491145E-04 -4.23289167E-01
  2.22672676E-02  3.56100081E-05  1.56297557E+00  4.96848546E+00 -4.49643375E+00
  1.18505420E+00 -9.95423755E-15  4.52465222E-02  5.17119227E-01  2.21026196E-01
 -1.55869437E+01 -4.80275693E-24 -9.05779982E-20  2.36610796E-19  1.41318899E-20
 -6.31245731E-05  3.50399363E-21  2.97304499E-18 -6.32732963E-18 -1.35254753E-18
 -1.32935898E-03  5.96484729E-18  1.31161801E-16 -2.27735383E-16 -4.69415458E-17
 -9.57684296E-02 -5.64156031E-17 -8.24293574E-16  1.30043549E-15 -2.82908602E-16
 -3.08417246E-01 -3.44842204E-19 -6.29395677E-17  1.12718939E-16 -5.78818228E-17
 -9.76860395E-03 -1.33208549E-22 -9.70324201E-19  2.28724921E-18 -6.74576663E-19
 -1.63325126E-04  1.21963918E-18  7.56709191E-16 -4.62851708E-17 -7.92138253E-20
 -3.21675215E-15 -1.02584057E-14  9.26395873E-15 -1.00078941E-14 -3.66378469E+00
 -9.91932957E-17 -1.13515810E-15 -4.93196049E-16  8.53381493E-16 -1.51624314E+01
 -2.16275321E-06 -1.63514990E-03  3.22497105E-03  1.37576559E-03 -2.35231619E-18
 -8.18374418E-06 -3.66413873E-03  5.74584069E-03  4.85283097E-03 -8.88790224E-18
 -2.08155318E-03 -9.73746667E-02  9.96358008E-02  1.28473811E-01 -2.40801966E-16
 -1.40099819E-01 -1.40931390E+00  1.42843898E+00  1.06661360E+00 -1.93612844E-15
 -3.48286955E-02 -5.16453825E-01  7.29023992E-01  4.71462937E-02 -1.57468802E-17
 -1.37611332E-04 -1.81905717E-02  3.31935860E-02  3.97570459E-03 -4.29400182E-18
 -2.75570048E-04 -4.63982758E-02 -7.29998666E-01 -3.26091441E-03 -1.78712222E+00
 -7.39188173E+00  1.24951752E+00  6.41143505E+00 -1.24075470E-14 -1.59406053E-01
 -1.53673155E+00 -7.60455830E-01  1.82082224E+00 -3.64066115E-15 -1.32696003E+01
 -3.22418461E-10 -9.00799494E-06  2.40183793E-05  6.83501862E-07  1.18219253E-21
 -7.20403616E-08 -1.95151403E-04  4.40287758E-04  1.09971342E-04 -1.68892085E-19
 -1.66227537E-04 -1.79945272E-02  3.21139693E-02  8.52991805E-03 -1.33137188E-17
 -1.70056408E-03 -7.84044060E-02  1.30379176E-01 -1.48019322E-02  4.26208611E-17
 -7.06763905E-06 -2.98912569E-03  5.79246615E-03 -2.07323579E-03  4.66202048E-18
 -3.11868656E-09 -3.38426835E-05  8.38344940E-05 -1.83667365E-05  4.47111062E-20
 -4.11870274E-05 -5.72718041E-02 -2.93855718E-03 -2.61433035E-06 -1.68496589E-01
 -1.49059812E+00  1.69444202E+00 -7.28853015E-01  1.60309077E-15 -1.67643653E+00
 -6.46865331E+00  5.47448689E+00  1.32189254E+00 -2.01104436E-15 -6.13825125E-01
 -1.14069886E+01 -8.36336672E-07 -9.20310136E-04  1.96960895E-03 -4.43381759E-04
  1.07366370E-18 -2.17991069E-04 -2.26147300E-02  4.06398647E-02  6.06042019E-04
  3.07682989E-18 -4.04186162E-02 -5.47951370E-01  7.56398523E-01 -7.91628363E-02
  2.34141716E-16 -2.82981822E-02 -4.60705922E-01  5.21203644E-01 -4.00601509E-01
  8.38100833E-16 -1.01865295E-04 -1.56984675E-02  2.16296890E-02 -1.96506942E-02
  4.06984599E-17 -5.60562365E-07 -7.50469753E-04  1.46222546E-03 -8.07691357E-04
  1.73291843E-18 -7.70429485E-03 -1.68138197E+00 -4.51711572E-03 -3.92776802E-05
 -1.69300713E-01 -1.60784450E+00  6.29576654E-01 -1.91760951E+00  3.81621842E-15
 -1.68401149E+00 -6.89390946E+00 -1.85970013E+00 -6.01968134E+00  1.15774179E-14
 -2.18415065E-01 -1.93238369E+00 -1.28573192E+01 -1.21149309E-06 -7.82837117E-01
 -1.28815927E+00 -2.61921658E-01  3.77136072E-16  0.00000000E+00 -3.25738490E-02
 -7.63090520E-02  2.31521276E-02 -5.32804862E-17  0.00000000E+00 -6.25110413E-05
 -2.27783015E-04  2.75470502E-05 -7.77610557E-20  0.00000000E+00 -2.76791564E-06
 -1.12391925E-05 -2.28963502E-06  3.29905532E-21  0.00000000E+00 -6.28795215E-05
 -1.99967471E-04 -1.15102646E-04  2.04130387E-19  0.00000000E+00 -3.27398319E-02
 -6.14588161E-02 -5.13818693E-02  9.40400786E-17 -2.92762599E-02 -5.50124094E-06
 -5.54269226E-06 -2.94649670E-02  0.00000000E+00  0.00000000E+00  0.00000000E+00
  0.00000000E+00  0.00000000E+00  0.00000000E+00  0.00000000E+00  0.00000000E+00
  0.00000000E+00  0.00000000E+00 -9.05591423E-11  0.00000000E+00 -4.98201300E-11
 -4.58360672E+01 -8.42202729E-01 -5.40057432E+00 -5.88053952E+00 -1.14663096E+00
  1.62570814E-15 -3.42910729E-02 -8.13449933E-01 -1.16276672E+00  4.13641063E-01
 -9.30884692E-16 -6.67111094E-05 -2.87300340E-02 -5.64084541E-02  7.68543730E-03
 -2.09458519E-17 -3.02041200E-06 -5.66594154E-03 -1.22576420E-02 -2.49209397E-03
  3.58818793E-18 -6.65309383E-05 -2.90140354E-02 -4.94952506E-02 -2.93453741E-02
  5.21988426E-17 -3.45343311E-02 -8.31575311E-01 -9.36605970E-01 -8.46153504E-01
  1.55656363E-15 -4.69411567E-01 -2.82332729E-03 -2.86582781E-03 -4.94836747E-01
  0.00000000E+00 -1.06754242E-05 -3.06546594E-05 -6.25470681E-06  9.01722165E-21
  0.00000000E+00 -1.90283617E-07 -6.32579788E-07 -2.10198665E-08 -2.52330982E-23
 -4.55020077E-06 -6.16905592E-09 -3.17043192E-06 -7.21810871E+00 -1.73316767E+01
  1.38606080E+00  6.14554659E+00  5.41039276E+00  1.63796809E+00 -2.35042113E-15
  8.03611860E-02  1.21312379E+00  1.56396052E+00 -6.62363201E-01  1.49065866E-15
  2.42948217E-04  5.72883182E-02  1.06421718E-01 -1.53320225E-02  4.20135575E-17
  1.22570263E-05  1.21811031E-02  2.49231679E-02  5.43698669E-03 -7.85276441E-18
  2.11527576E-04  5.07510579E-02  7.99129363E-02  5.24537844E-02 -9.33239203E-17
  6.48895821E-02  1.00689296E+00  9.00100770E-01  1.10864285E+00 -2.04181584E-15
  5.43652399E-01  5.72884814E-03  4.75439439E-03  3.43172404E-01  0.00000000E+00
  3.06546594E-05  8.46252782E-05  1.79675512E-05 -2.59521322E-20  0.00000000E+00
  6.34832313E-07  2.05101655E-06  6.91805048E-08  8.52523571E-23  1.17571972E-05
  2.06256143E-08  8.78363781E-06  5.86573164E-02  7.06677945E-01 -1.76699887E+01
  2.83120229E-01  1.32584300E+00  1.77528801E+00 -2.44979241E+00 -3.46461318E-16
 -2.42026249E-02 -3.07993013E-01 -4.88275761E-01 -1.46469330E-01 -3.48130232E-16
 -2.91089402E-05 -5.90825540E-03 -1.16489787E-02 -7.45550523E-03 -2.83724476E-18
  2.50003012E-06  2.49438335E-03  5.47610840E-03 -6.83323695E-04 -1.19152420E-18
  1.21619337E-04  2.82787093E-02  4.94181023E-02  1.99918402E-02 -5.02708386E-17
  5.41305199E-02  7.86095736E-01  9.72133486E-01  5.47314620E-01 -1.56357741E-15
 -4.08677828E-01 -1.44193145E-03  3.63645816E-03  6.28995678E-01  0.00000000E+00
  6.25470681E-06  1.79675512E-05  2.62413396E-07 -4.43484592E-21  0.00000000E+00
  2.14121133E-08  7.02356649E-08 -5.62153172E-08  1.56962977E-23  4.39979833E-06
  1.19655608E-09 -1.08497129E-06  6.17412322E-02  7.11930924E-01  1.40626512E-01
 -1.73336167E+01 -4.08326003E-16 -1.94839378E-15 -2.61897222E-15 -3.60862529E-16
 -2.72215152E+00  5.57598632E-17  7.29554126E-16  1.15020279E-15 -3.66387379E-16
 -2.98296871E-01  8.24060088E-20  1.75625624E-17  3.48107753E-17 -3.22349821E-18
 -8.28160804E-03 -3.60377292E-21 -3.60069209E-18 -7.92927316E-18 -1.19562703E-18
 -1.58625280E-03 -2.15662470E-19 -4.99811080E-17 -8.73871578E-17 -4.99524762E-17
 -8.36353832E-03 -9.90557089E-17 -1.43173980E-15 -1.77484991E-15 -1.54926121E-15
 -3.04330472E-01  8.56249648E-16  3.42073188E-18 -6.61306675E-18 -1.19411213E-15
  0.00000000E+00 -9.01722165E-21 -2.59521322E-20 -4.43484592E-21 -2.96880478E-06
  0.00000000E+00  2.47022267E-23  8.31888226E-23  1.55856395E-23 -5.19556598E-08
 -7.37149274E-21 -1.76978089E-25  3.04300540E-21 -1.14593275E-16 -1.31818321E-15
 -3.60363067E-16  9.48423683E-16 -1.68561944E+01  0.00000000E+00 -3.40351719E-02
 -7.97449224E-02  2.10078793E-02 -4.94473968E-17  0.00000000E+00 -8.83118506E-05
 -2.84482327E-04  1.42798145E-04 -3.09099283E-19  0.00000000E+00 -3.77478751E-08
 -1.70395897E-07  5.06984540E-08 -1.17018950E-22  0.00000000E+00 -6.07813343E-09
 -2.99810262E-08  4.74018244E-10 -4.07123174E-24  0.00000000E+00 -2.26939274E-06
 -9.21850810E-06 -2.09229146E-06  3.12503450E-21  0.00000000E+00 -5.41191957E-03
 -1.49629224E-02 -3.55636211E-03  5.38582272E-18 -1.42030974E-04 -3.35216643E-09
 -9.29947689E-07 -4.02961009E-02  0.00000000E+00  0.00000000E+00  0.00000000E+00
  0.00000000E+00  0.00000000E+00  0.00000000E+00  0.00000000E+00  0.00000000E+00
  0.00000000E+00  0.00000000E+00  0.00000000E+00  0.00000000E+00  0.00000000E+00
 -5.59316707E-05 -1.24377615E+00 -1.44009879E+00  1.48199414E+00 -3.04930502E-15
 -4.40525522E+01 -3.88132763E-02 -8.40011138E-01 -1.21922925E+00  3.00591493E-01
 -7.15719569E-16 -9.86995583E-05 -3.34911939E-02 -5.80219277E-02  3.03132549E-02
 -6.53673842E-17 -4.30081231E-08 -6.02910887E-04 -1.41553548E-03  4.33154064E-04
 -9.95554219E-19 -7.11514110E-09 -2.32728996E-04 -5.97066323E-04  5.98149834E-06
 -7.43141731E-20 -2.56792593E-06 -4.66935142E-03 -9.83000252E-03 -2.48222462E-03
  3.82348172E-18 -6.05448721E-03 -2.78242839E-01 -4.44085537E-01 -1.22879655E-01
  1.93738073E-16 -1.85627234E-02 -3.82367585E-05 -8.90835437E-04 -5.61912838E-01
  0.00000000E+00 -1.90283617E-07 -6.34832313E-07 -2.14121133E-08 -2.47022267E-23
  0.00000000E+00  0.00000000E+00  0.00000000E+00  0.00000000E+00  0.00000000E+00
 -2.32981680E-07  0.00000000E+00 -1.73066367E-08 -1.31520983E+00 -6.64785164E+00
 -4.55648773E+00  5.06070512E+00 -1.03748740E-14 -6.77515066E+00 -1.55413311E+01
  9.09744496E-02  1.24574535E+00  1.63355749E+00 -4.92061880E-01  1.16596738E-15
  3.17974073E-04  5.96574544E-02  9.51419869E-02 -5.57554468E-02  1.20041041E-16
  1.94000368E-07  1.44425788E-03  3.22352381E-03 -1.04134000E-03  2.39169764E-18
  3.50635805E-08  6.07015196E-04  1.49261236E-03 -1.78313399E-05  1.98027514E-19
  1.04234477E-05  1.03123009E-02  2.05129660E-02  5.52072284E-03 -8.50597820E-18
  1.67452143E-02  4.61553569E-01  6.80334246E-01  2.15081946E-01 -3.39234644E-16
  2.61073011E-02  9.12790815E-05  1.84325019E-03  6.77965561E-01  0.00000000E+00
  6.32579788E-07  2.05101655E-06  7.02356649E-08  8.31888226E-23  0.00000000E+00
  0.00000000E+00  0.00000000E+00  0.00000000E+00  0.00000000E+00  6.98986299E-07
  0.00000000E+00  5.47389093E-08  1.52663136E+00  5.16562182E+00  8.22216268E-01
 -5.00806490E+00  1.02645354E-14  1.02089480E-01  1.18093414E+00 -1.57435502E+01
 -2.39687860E-02 -3.54687379E-01 -5.60820302E-01 -1.90142923E-01 -2.90119534E-16
 -1.59278782E-04 -2.89841182E-02 -5.20113907E-02  1.68385532E-02 -5.74891708E-17
 -5.77109793E-08 -4.18712785E-04 -9.87931728E-04  1.25767923E-04 -6.68975554E-19
 -5.75518632E-10 -1.37642679E-05 -3.75603720E-05 -7.13069372E-05  1.20628385E-20
  2.35068261E-06  2.07322900E-03  4.40670079E-03 -3.41700326E-04 -1.46937885E-18
  3.94801484E-03  9.18188707E-02  1.58068328E-01 -6.02316177E-02 -5.29207596E-17
 -2.22672676E-02 -3.56100081E-05  7.22491145E-04  4.23289167E-01  0.00000000E+00
  2.10198665E-08  6.91805048E-08 -5.62153172E-08  1.55856395E-23  0.00000000E+00
  0.00000000E+00  0.00000000E+00  0.00000000E+00  0.00000000E+00  1.21719052E-07
  0.00000000E+00 -1.32976799E-08 -1.56297557E+00 -4.96848546E+00 -4.49643375E+00
  1.18505420E+00 -9.95423755E-15 -4.52465222E-02 -5.17119227E-01  2.21026196E-01
 -1.55869437E+01  5.64156031E-17  8.24293574E-16  1.30043549E-15 -2.82908602E-16
 -3.08417246E-01  3.44842204E-19  6.29395677E-17  1.12718939E-16 -5.78818228E-17
 -9.76860395E-03  1.33208549E-22  9.70324201E-19  2.28724921E-18 -6.74576663E-19
 -1.63325126E-04  4.80275693E-24  9.05779982E-20  2.36610796E-19  1.41318899E-20
 -6.31245731E-05 -3.50399363E-21 -2.97304499E-18 -6.32732963E-18 -1.35254753E-18
 -1.32935898E-03 -5.96484729E-18 -1.31161801E-16 -2.27735383E-16 -4.69415458E-17
 -9.57684296E-02  4.62851708E-17  7.92138253E-20 -1.21963918E-18 -7.56709191E-16
  0.00000000E+00  2.52330982E-23  8.52523571E-23  1.56962977E-23 -5.19556598E-08
  0.00000000E+00  0.00000000E+00  0.00000000E+00  0.00000000E+00  0.00000000E+00
 -1.64736009E-22  0.00000000E+00  3.17464003E-23  3.21675215E-15  1.02584057E-14
  9.26395873E-15 -1.00078941E-14 -3.66378469E+00  9.91932957E-17  1.13515810E-15
 -4.93196049E-16  8.53381493E-16 -1.51624314E+01 -1.40099819E-01 -1.40931390E+00
 -1.42843898E+00 -1.06661360E+00  1.93612844E-15 -3.48286955E-02 -5.16453825E-01
 -7.29023992E-01 -4.71462937E-02  1.57468802E-17 -1.37611332E-04 -1.81905717E-02
 -3.31935860E-02 -3.97570459E-03  4.29400182E-18 -2.16275321E-06 -1.63514990E-03
 -3.22497105E-03 -1.37576559E-03  2.35231619E-18 -8.18374418E-06 -3.66413873E-03
 -5.74584069E-03 -4.85283097E-03  8.88790224E-18 -2.08155318E-03 -9.73746667E-02
 -9.96358008E-02 -1.28473811E-01  2.40801966E-16 -7.29998666E-01 -3.26091441E-03
 -2.75570048E-04 -4.63982758E-02 -9.05591423E-11 -4.55020077E-06 -1.17571972E-05
 -4.39979833E-06  7.37149274E-21  0.00000000E+00 -2.32981680E-07 -6.98986299E-07
 -1.21719052E-07  1.64736009E-22 -1.04657574E-06 -7.42952170E-09 -4.76411167E-06
 -1.78712222E+00 -7.39188173E+00 -1.24951752E+00 -6.41143505E+00  1.24075470E-14
 -1.59406053E-01 -1.53673155E+00  7.60455830E-01 -1.82082224E+00  3.64066115E-15
 -1.32696003E+01 -1.70056408E-03 -7.84044060E-02 -1.30379176E-01  1.48019322E-02
 -4.26208611E-17 -7.06763905E-06 -2.98912569E-03 -5.79246615E-03  2.07323579E-03
 -4.66202048E-18 -3.11868656E-09 -3.38426835E-05 -8.38344940E-05  1.83667365E-05
 -4.47111062E-20 -3.22418461E-10 -9.00799494E-06 -2.40183793E-05 -6.83501862E-07
 -1.18219253E-21 -7.20403616E-08 -1.95151403E-04 -4.40287758E-04 -1.09971342E-04
  1.68892085E-19 -1.66227537E-04 -1.79945272E-02 -3.21139693E-02 -8.52991805E-03
  1.33137188E-17 -2.93855718E-03 -2.61433035E-06 -4.11870274E-05 -5.72718041E-02
  0.00000000E+00 -6.16905592E-09 -2.06256143E-08 -1.19655608E-09  1.76978089E-25
  0.00000000E+00  0.00000000E+00  0.00000000E+00  0.00000000E+00  0.00000000E+00
 -7.42952170E-09  0.00000000E+00 -8.61584026E-10 -1.68496589E-01 -1.49059812E+00
 -1.69444202E+00  7.28853015E-01 -1.60309077E-15 -1.67643653E+00 -6.46865331E+00
 -5.47448689E+00 -1.32189254E+00  2.01104436E-15 -6.13825125E-01 -1.14069886E+01
 -2.82981822E-02 -4.60705922E-01 -5.21203644E-01  4.00601509E-01 -8.38100833E-16
 -1.01865295E-04 -1.56984675E-02 -2.16296890E-02  1.96506942E-02 -4.06984599E-17
 -5.60562365E-07 -7.50469753E-04 -1.46222546E-03  8.07691357E-04 -1.73291843E-18
 -8.36336672E-07 -9.20310136E-04 -1.96960895E-03  4.43381759E-04 -1.07366370E-18
 -2.17991069E-04 -2.26147300E-02 -4.06398647E-02 -6.06042019E-04 -3.07682989E-18
 -4.04186162E-02 -5.47951370E-01 -7.56398523E-01  7.91628363E-02 -2.34141716E-16
 -4.51711572E-03 -3.92776802E-05 -7.70429485E-03 -1.68138197E+00 -4.98201300E-11
 -3.17043192E-06 -8.78363781E-06  1.08497129E-06 -3.04300540E-21  0.00000000E+00
 -1.73066367E-08 -5.47389093E-08  1.32976799E-08 -3.17464003E-23 -4.76411167E-06
 -8.61584026E-10 -7.60805475E-08 -1.69300713E-01 -1.60784450E+00 -6.29576654E-01
  1.91760951E+00 -3.81621842E-15 -1.68401149E+00 -6.89390946E+00  1.85970013E+00
  6.01968134E+00 -1.15774179E-14 -2.18415065E-01 -1.93238369E+00 -1.28573192E+01
Core Hamiltonian Matrix                    R   N=        1830
 -3.24241974E+01 -7.91975165E+00 -1.93441889E+01  5.20418715E-02  5.92088618E-01
 -1.86411784E+01  1.87116200E-02  2.15243360E-01  9.71127726E-03 -1.85090517E+01
 -3.11357603E-17 -3.58848501E-16 -1.15042821E-16  1.53376209E-15 -1.77253043E+01
 -5.47505688E-05 -1.18797766E+00  1.30748687E+00 -1.47132586E+00  3.01453403E-15
 -3.15295416E+01 -1.21847811E+00 -7.04434834E+00  5.08931173E+00 -5.39171042E+00
  1.10780869E-14 -7.69755281E+00 -1.84427863E+01 -1.33738726E+00 -4.82360267E+00
  5.47904308E-01 -4.78348311E+00  9.80325435E-15  2.06447639E-02  2.39505635E-01
 -1.77730849E+01  1.51244609E+00  5.83163382E+00 -5.29975684E+00  1.85268315E+00
 -1.14689433E-14  1.09729756E-01  1.27666874E+00  7.31754003E-02 -1.75021488E+01
 -3.09808698E-15 -1.19105618E-14  1.08129103E-14 -1.14147999E-14 -3.72760107E+00
 -2.12429026E-16 -2.47161243E-15 -2.34642955E-16  1.18477517E-15 -1.69002543E+01
  0.00000000E+00 -5.84691583E-02  1.27304824E-01 -4.24309518E-02  9.63314166E-17
 -5.47624876E-05 -1.19303722E+00  1.93616401E+00  3.98511407E-01 -5.76300722E-16
 -3.16970803E+01 -5.96351325E-02 -1.19833007E+00  1.66401206E+00 -5.57153926E-01
  1.26411440E-15 -1.18740282E+00 -6.89377915E+00  7.11965025E+00  1.80505820E+00
 -2.78341828E-15 -7.73916312E+00 -1.86103040E+01 -1.29851528E-01 -1.67163690E+00
  2.06372953E+00 -8.57539832E-01  1.94043988E-15 -1.92840499E+00 -7.23078975E+00
  5.73340235E+00  2.30648269E+00 -3.52663492E-15 -5.10278117E-02 -5.92649033E-01
 -1.78754280E+01  4.34222425E-02  5.58847024E-01 -8.54487288E-01 -2.01811582E-01
 -5.70508475E-16 -3.89742273E-01 -1.12450848E+00  1.58111954E+00 -3.37999355E+00
 -3.62070573E-16  9.15309161E-02  1.06510731E+00 -1.36420549E-01 -1.77431187E+01
 -9.85371260E-17 -1.26822517E-15  1.93447014E-15 -5.70828606E-16 -4.47710878E-01
  5.59964990E-16  1.44083871E-15 -2.10807109E-15 -2.85999250E-16 -3.64992184E+00
 -1.84354829E-16 -2.14514110E-15  1.81222221E-16  1.32263459E-15 -1.70594920E+01
  0.00000000E+00 -1.37467939E-02  3.56217681E-02  7.26305615E-03 -1.04682926E-17
  0.00000000E+00 -5.97473797E-02  1.02648887E-01  9.09569762E-02 -1.67115795E-16
 -5.51357803E-05 -1.22016749E+00  6.38963238E-01  1.91806981E+00 -3.68408247E-15
 -3.24241974E+01 -1.37467939E-02 -5.15862575E-01  8.08011745E-01  1.64910309E-01
 -2.37769558E-16 -5.82889997E-02 -1.20161092E+00  1.32523844E+00  1.17108666E+00
 -2.15126523E-15 -1.19521729E+00 -7.10261938E+00  2.20869511E+00  7.29121633E+00
 -1.40275080E-14 -7.91975165E+00 -1.93441889E+01 -3.56217681E-02 -8.08011745E-01
  1.16415123E+00  2.79220299E-01 -4.05139355E-16 -1.00172662E-01 -1.31324224E+00
  1.10062636E+00  1.40896722E+00 -2.59296521E-15 -6.29820280E-01 -2.55576432E+00
 -2.92209564E+00  3.27544227E+00 -6.31794950E-15 -5.20418715E-02 -5.92088618E-01
 -1.86411784E+01 -7.26305615E-03 -1.64910309E-01  2.79220299E-01 -1.45345315E-01
 -3.76491809E-17 -8.86128240E-02 -1.16909920E+00  1.42038069E+00  7.66043240E-01
 -2.22690147E-15 -1.87749061E+00 -7.04117950E+00  2.84523832E+00  5.34442800E+00
 -1.75035812E-14 -1.87116200E-02 -2.15243360E-01  9.71127726E-03 -1.85090517E+01
  1.04682926E-17  2.37769558E-16 -4.05139355E-16 -3.76491809E-17 -1.79570060E-01
  1.62791120E-16  2.14863652E-15 -2.61528609E-15 -2.22809844E-15 -4.48821027E-01
  3.60568220E-15  1.35021226E-14 -5.47661676E-15 -1.74584642E-14 -3.75836569E+00
  3.11357603E-17  3.58848501E-16 -1.15042821E-16  1.53376209E-15 -1.77253043E+01
  0.00000000E+00 -5.82889997E-02  1.00172662E-01  8.86128240E-02 -1.62791120E-16
  0.00000000E+00 -1.34576071E-02  1.12661209E-02  3.37356550E-02 -6.47939602E-17
  0.00000000E+00 -5.83021970E-02 -2.68041548E-02  1.31055507E-01 -2.59111080E-16
 -5.47505688E-05 -1.18797766E+00 -1.30748687E+00  1.47132586E+00 -3.01453403E-15
 -3.15295416E+01 -5.97473797E-02 -1.20161092E+00  1.31324224E+00  1.16909920E+00
 -2.14863652E-15 -1.34576071E-02 -5.15393559E-01  2.60484131E-01  7.81303023E-01
 -1.50064534E-15 -5.85906543E-02 -1.20881339E+00 -3.41629058E-01  1.73963343E+00
 -3.43795964E-15 -1.21847811E+00 -7.04434834E+00 -5.08931173E+00  5.39171042E+00
 -1.10780869E-14 -7.69755281E+00 -1.84427863E+01 -1.02648887E-01 -1.32523844E+00
  1.10062636E+00  1.42038069E+00 -2.61528609E-15 -1.12661209E-02 -2.60484131E-01
 -6.20364747E-02  4.26828052E-01 -8.22460004E-16  2.68546425E-02  3.67392215E-01
 -3.83899587E-01 -5.81672643E-01  1.14455475E-15  1.33738726E+00  4.82360267E+00
  5.47904308E-01 -4.78348311E+00  9.80325435E-15 -2.06447639E-02 -2.39505635E-01
 -1.77730849E+01 -9.09569762E-02 -1.17108666E+00  1.40896722E+00  7.66043240E-01
 -2.22809844E-15 -3.37356550E-02 -7.81303023E-01  4.26828052E-01  1.07904969E+00
 -2.41563407E-15 -1.31729007E-01 -1.73694542E+00 -5.42803000E-01  2.26247908E+00
 -5.36289120E-15 -1.51244609E+00 -5.83163382E+00 -5.29975684E+00  1.85268315E+00
 -1.14689433E-14 -1.09729756E-01 -1.27666874E+00  7.31754003E-02 -1.75021488E+01
  1.67115795E-16  2.15126523E-15 -2.59296521E-15 -2.22690147E-15 -4.48821027E-01
  6.47939602E-17  1.50064534E-15 -8.22460004E-16 -2.41563407E-15 -1.79040553E-01
  2.60433511E-16  3.43540467E-15  1.06853894E-15 -5.36696759E-15 -4.50653626E-01
  3.09808698E-15  1.19105618E-14  1.08129103E-14 -1.14147999E-14 -3.72760107E+00
  2.12429026E-16  2.47161243E-15 -2.34642955E-16  1.18477517E-15 -1.69002543E+01
 -5.51357803E-05 -1.19521729E+00  6.29820280E-01  1.87749061E+00 -3.60568220E-15
  0.00000000E+00 -5.85906543E-02 -2.68546425E-02  1.31729007E-01 -2.60433511E-16
  0.00000000E+00 -1.34979674E-02 -2.36627124E-02  2.67064632E-02 -5.47103564E-17
  0.00000000E+00 -5.84691583E-02 -1.27304824E-01  4.24309518E-02 -9.63314166E-17
 -5.47624876E-05 -1.19303722E+00 -1.93616401E+00 -3.98511407E-01  5.76300722E-16
 -3.16970803E+01 -1.22016749E+00 -7.10261938E+00  2.55576432E+00  7.04117950E+00
 -1.35021226E-14 -5.83021970E-02 -1.20881339E+00 -3.67392215E-01  1.73694542E+00
 -3.43540467E-15 -1.34979674E-02 -5.15163685E-01 -5.45593566E-01  6.16628777E-01
 -1.26313461E-15 -5.96351325E-02 -1.19833007E+00 -1.66401206E+00  5.57153926E-01
 -1.26411440E-15 -1.18740282E+00 -6.89377915E+00 -7.11965025E+00 -1.80505820E+00
  2.78341828E-15 -7.73916312E+00 -1.86103040E+01 -6.38963238E-01 -2.20869511E+00
 -2.92209564E+00  2.84523832E+00 -5.47661676E-15  2.68041548E-02  3.41629058E-01
 -3.83899587E-01 -5.42803000E-01  1.06853894E-15  2.36627124E-02  5.45593566E-01
  4.20519688E-01 -7.06546246E-01  1.44464146E-15  1.29851528E-01  1.67163690E+00
  2.06372953E+00 -8.57539832E-01  1.94043988E-15  1.92840499E+00  7.23078975E+00
  5.73340235E+00  2.30648269E+00 -3.52663492E-15  5.10278117E-02  5.92649033E-01
 -1.78754280E+01 -1.91806981E+00 -7.29121633E+00  3.27544227E+00  5.34442800E+00
 -1.74584642E-14 -1.31055507E-01 -1.73963343E+00 -5.81672643E-01  2.26247908E+00
 -5.36696759E-15 -2.67064632E-02 -6.16628777E-01 -7.06546246E-01  5.96440612E-01
 -1.59066000E-15 -4.34222425E-02 -5.58847024E-01 -8.54487288E-01 -2.01811582E-01
 -5.70508475E-16  3.89742273E-01  1.12450848E+00  1.58111954E+00 -3.37999355E+00
 -3.62070573E-16 -9.15309161E-02 -1.06510731E+00 -1.36420549E-01 -1.77431187E+01
  3.68408247E-15  1.40275080E-14 -6.31794950E-15 -1.75035812E-14 -3.75836569E+00
  2.59111080E-16  3.43795964E-15  1.14455475E-15 -5.36289120E-15 -4.50653626E-01
  5.47103564E-17  1.26313461E-15  1.44464146E-15 -1.59066000E-15 -1.79032595E-01
  9.85371260E-17  1.26822517E-15  1.93447014E-15 -5.70828606E-16 -4.47710878E-01
 -5.59964990E-16 -1.44083871E-15 -2.10807109E-15 -2.85999250E-16 -3.64992184E+00
  1.84354829E-16  2.14514110E-15  1.81222221E-16  1.32263459E-15 -1.70594920E+01
 -1.69799627E-01 -1.68622828E+00  6.52135345E-01 -1.99754971E+00  3.97492009E-15
 -1.88458653E+00 -7.82093570E+00 -2.18788166E+00 -6.28905509E+00  1.20698039E-14
 -1.65888903E-01 -1.63291999E+00 -1.70048030E+00 -1.14090147E+00  2.05288037E-15
 -2.98906858E-03 -1.24789599E-01 -1.30852299E-01 -1.57410809E-01  2.94119120E-16
 -3.89523959E-04 -3.64167450E-02 -2.07066574E-02 -6.18525162E-02  1.18790924E-16
 -2.93436408E-03 -1.26787513E-01  8.57410451E-03 -2.08189614E-01  4.08047334E-16
 -1.33319314E+01 -2.98214294E-03 -1.24422741E-01  1.81965852E-01 -9.30706807E-02
  2.01098008E-16 -1.65067490E-01 -1.63906497E+00  2.02872895E+00 -3.83618157E-01
  9.62986523E-16 -1.89561879E+00 -7.96748154E+00  4.63664163E+00 -5.03167393E+00
  1.03265049E-14 -1.70025234E-01 -1.71790974E+00  2.01979227E-01 -2.14022557E+00
  4.20673617E-15 -2.91826037E-03 -1.27138690E-01  7.41177698E-02 -1.95898475E-01
  3.90883830E-16 -3.90574076E-04 -3.64051780E-02  4.33149405E-02 -4.88004406E-02
  9.99796648E-17 -7.35438496E-01 -1.37551347E+01 -2.98906858E-03 -1.24789599E-01
  1.30852299E-01  1.57410809E-01 -2.94119120E-16 -3.89523959E-04 -3.64167450E-02
  2.07066574E-02  6.18525162E-02 -1.18790924E-16 -2.93436408E-03 -1.26787513E-01
 -8.57410451E-03  2.08189614E-01 -4.08047334E-16 -1.69799627E-01 -1.68622828E+00
 -6.52135345E-01  1.99754971E+00 -3.97492009E-15 -1.88458653E+00 -7.82093570E+00
  2.18788166E+00  6.28905509E+00 -1.20698039E-14 -1.65888903E-01 -1.63291999E+00
  1.70048030E+00  1.14090147E+00 -2.05288037E-15 -2.20691897E-03 -1.47280700E-02
 -1.33319314E+01 -1.70025234E-01 -1.71790974E+00 -2.01979227E-01  2.14022557E+00
 -4.20673617E-15 -2.91826037E-03 -1.27138690E-01 -7.41177698E-02  1.95898475E-01
 -3.90883830E-16 -3.90574076E-04 -3.64051780E-02 -4.33149405E-02  4.88004406E-02
 -9.99796648E-17 -2.98214294E-03 -1.24422741E-01 -1.81965852E-01  9.30706807E-02
 -2.01098008E-16 -1.65067490E-01 -1.63906497E+00 -2.02872895E+00  3.83618157E-01
 -9.62986523E-16 -1.89561879E+00 -7.96748154E+00 -4.63664163E+00  5.03167393E+00
 -1.03265049E-14 -1.47280700E-02 -2.20483147E-03 -7.35438496E-01 -1.37551347E+01
  0.00000000E+00 -3.33807450E-06  1.33522931E-05  2.72072985E-06 -3.92052220E-21
  0.00000000E+00 -7.23803115E-05  2.26773165E-04  1.30534282E-04 -2.31498217E-19
  0.00000000E+00 -3.43910603E-02  6.36423119E-02  5.32073584E-02 -9.73811242E-17
 -4.22383165E-06 -7.90837694E-01  1.29870948E+00  2.64075060E-01 -3.80240956E-16
  0.00000000E+00 -3.42242388E-02  7.90322462E-02 -2.39758149E-02  5.51769294E-17
  0.00000000E+00 -7.19997975E-05  2.58455171E-04 -3.12390861E-05  8.81981176E-20
 -6.30063627E-06 -3.04183830E-02 -3.02295604E-02 -6.25829188E-06 -2.99449455E+01
 -3.59057085E-06 -6.06455660E-03  1.29961724E-02  2.64276197E-03 -3.80539112E-18
 -7.60317283E-05 -3.05793862E-02  5.17372783E-02  3.06360758E-02 -5.44878873E-17
 -3.61855596E-02 -8.47566205E-01  9.46087052E-01  8.54080065E-01 -1.57107097E-15
 -8.50203306E-01 -5.37968563E+00  5.78131551E+00  1.12637836E+00 -1.59650690E-15
 -3.59414627E-02 -8.29438228E-01  1.17459724E+00 -4.17219453E-01  9.39123513E-16
 -7.61998656E-05 -3.02944270E-02  5.89755267E-02 -7.99443822E-03  2.18193704E-17
 -3.05620116E-03 -5.05423455E-01 -4.79997570E-01 -3.01357562E-03 -7.30399872E+00
 -1.68594268E+01 -1.43701269E-05 -1.29196335E-02  2.61843391E-02  5.71707817E-03
 -8.25654464E-18 -2.38333270E-04 -5.29930856E-02  8.27288779E-02  5.43312591E-02
 -9.66536003E-17 -6.70730779E-02 -1.01637404E+00  8.97052847E-01  1.10944171E+00
 -2.04327792E-15 -1.39661100E+00 -6.04632258E+00  5.19584192E+00  1.58543730E+00
 -2.27467953E-15 -8.30843801E-02 -1.22495431E+00  1.56145384E+00 -6.62815894E-01
  1.49170093E-15 -2.73620373E-04 -5.98553909E-02  1.10254716E-01 -1.58469775E-02
  4.34692900E-17 -5.02157358E-03 -3.47307247E-01 -5.50711269E-01 -6.05877707E-03
 -5.86573164E-02 -7.06677945E-01 -1.61922606E+01 -2.93112495E-06 -2.64505135E-03
  5.75619987E-03 -7.37937216E-04 -1.27389963E-18 -1.37050972E-04 -2.95694110E-02
  5.12955771E-02  2.06273275E-02 -5.21876854E-17 -5.59560090E-02 -7.94022297E-01
  9.72932341E-01  5.43979048E-01 -1.56479977E-15 -2.85273630E-01 -1.30559040E+00
  1.72275722E+00 -2.41770007E+00 -3.31001711E-16  2.50263122E-02  3.11571403E-01
 -4.88728453E-01 -1.50335731E-01 -3.48445489E-16  3.28009761E-05  6.21725633E-03
 -1.21639336E-02 -7.83858899E-03 -3.01247263E-18 -3.85165337E-03 -6.37301976E-01
  4.14699638E-01  1.53519669E-03 -6.17412322E-02 -7.11930924E-01  1.40626512E-01
 -1.58558886E+01  4.22523980E-21  3.81789527E-18 -8.33305340E-18 -1.27800246E-18
 -1.69800793E-03  2.43030300E-19  5.22701528E-17 -9.07168378E-17 -5.18693230E-17
 -8.80888508E-03  1.02396754E-16  1.44624715E-15 -1.77631199E-15 -1.55048357E-15
 -3.08333919E-01  4.11430887E-16  1.91919254E-15 -2.54323063E-15 -3.45402922E-16
 -2.67933713E+00 -5.76563064E-17 -7.37792948E-16  1.15124506E-15 -3.66702636E-16
 -3.02300199E-01 -9.28430707E-20 -1.84360809E-17  3.62665078E-17 -3.39872608E-18
 -8.72667740E-03  7.00589545E-18  1.20992279E-15 -8.68766549E-16 -3.63772779E-18
  1.14593275E-16  1.31818321E-15 -3.60363067E-16  9.48423683E-16 -1.53784664E+01
  0.00000000E+00 -8.15703882E-09  3.96035605E-08 -6.31332066E-10  5.38803233E-24
  0.00000000E+00 -2.77596777E-06  1.10973710E-05  2.51736485E-06 -3.75929079E-21
  0.00000000E+00 -5.85729312E-03  1.59436076E-02  3.78859740E-03 -5.73714820E-18
  0.00000000E+00 -3.58053011E-02  8.26341154E-02 -2.17699757E-02  5.12407978E-17
  0.00000000E+00 -1.01862171E-04  3.23004742E-04 -1.62136665E-04  3.50958835E-19
  0.00000000E+00 -4.91786775E-08  2.18516097E-07 -6.50308961E-08  1.50094867E-22
 -1.08899622E-06 -4.15053479E-02 -1.56373702E-04 -4.19647393E-09 -1.59627713E-04
 -1.25202959E+00  1.44658385E+00 -1.48865523E+00  3.06301196E-15 -2.81614305E+01
 -9.19404649E-09 -2.57636527E-04  6.54784161E-04 -6.92509733E-06  8.22125999E-20
 -3.07450096E-06 -5.04556474E-03  1.05273416E-02  2.63999039E-03 -4.05888562E-18
 -6.49986076E-03 -2.87778225E-01  4.54940338E-01  1.25450172E-01 -1.97626750E-16
 -4.05834055E-02 -8.56353510E-01  1.23090616E+00 -3.03671568E-01  7.22967748E-16
 -1.12249878E-04 -3.53489528E-02  6.07114866E-02 -3.16634322E-02  6.82899354E-17
 -5.44389255E-08 -6.61034267E-04  1.53770519E-03 -4.69541908E-04  1.07952883E-18
 -9.70498082E-04 -5.73946157E-01 -1.95432720E-02 -4.24174030E-05 -1.32346326E+00
 -6.58668188E+00  4.43325914E+00 -4.93413174E+00  1.01144160E-14 -6.86104067E+00
 -1.50690811E+01 -4.46861149E-08 -6.64733035E-04  1.61838447E-03 -2.00027533E-05
  2.16203402E-19 -1.23023107E-05 -1.10096399E-02  2.17038548E-02  5.81400674E-03
 -8.94359006E-18 -1.77258996E-02 -4.72408370E-01  6.88826642E-01  2.17742187E-01
 -3.43259056E-16 -9.38636426E-02 -1.25742226E+00  1.62968716E+00 -4.92099397E-01
  1.16605567E-15 -3.56496489E-04 -6.23470134E-02  9.85699880E-02 -5.77425105E-02
  1.24342176E-16 -2.42120568E-07 -1.56642759E-03  3.46246283E-03 -1.11737949E-03
  2.56717895E-18 -1.98385325E-03 -6.85504903E-01 -2.72381685E-02 -1.00233307E-04
 -1.53311643E+00 -5.04239323E+00  6.99392376E-01 -4.78314158E+00  9.80169669E-15
 -1.02089480E-01 -1.18093414E+00 -1.42658221E+01  7.32832453E-10  1.47078669E-05
 -3.97317855E-05 -7.83198271E-05  1.17656904E-20 -2.77575600E-06 -2.23099477E-03
  4.69998468E-03 -3.80800502E-04 -1.56838403E-18 -4.18025013E-03 -9.43893874E-02
  1.60728569E-01 -6.23429420E-02 -5.38737773E-17  2.47308823E-02  3.57767454E-01
 -5.60857818E-01 -1.94145591E-01 -2.90142822E-16  1.78617302E-04  3.03342954E-02
 -5.39984545E-02  1.73058345E-02 -5.96483707E-17  7.20434214E-08  4.55100629E-04
 -1.06397122E-03  1.32057635E-04 -7.21242083E-19 -7.83826981E-04 -4.28571941E-01
  2.32924664E-02  3.92714865E-05  1.56963666E+00  4.84191208E+00 -4.27151042E+00
  1.05018144E+00 -9.47883599E-15  4.52465222E-02  5.17119227E-01  2.21026196E-01
 -1.41092156E+01 -6.11955752E-24 -9.84764251E-20  2.54786685E-19  1.38347417E-20
 -7.01729622E-05  4.13824991E-21  3.20844889E-18 -6.76494149E-18 -1.45155271E-18
 -1.43481161E-03  6.31617276E-18  1.35050478E-16 -2.31759794E-16 -4.78945635E-17
 -9.85097234E-02 -5.82090041E-17 -8.31541752E-16  1.30052377E-15 -2.82931890E-16
 -3.12429810E-01 -3.86701756E-19 -6.58621189E-17  1.17020075E-16 -6.00410228E-17
 -1.02988425E-02 -1.66284465E-22 -1.05429881E-18  2.46273053E-18 -7.26843191E-19
 -1.79683524E-04  1.32484571E-18  7.66249826E-16 -4.84087093E-17 -8.73134932E-20
 -3.23045909E-15 -9.99794771E-15  8.80112001E-15 -9.53249250E-15 -3.56762902E+00
 -9.91932957E-17 -1.13515810E-15 -4.93196049E-16  8.53381493E-16 -1.36847033E+01
 -2.46118902E-06 -1.74836155E-03  3.42003419E-03  1.45983709E-03 -2.49627454E-18
 -9.20708033E-06 -3.88917098E-03  6.05283768E-03  5.10939427E-03 -9.35745702E-18
 -2.20717988E-03 -1.00708981E-01  1.02434778E-01  1.31911845E-01 -2.47232054E-16
 -1.42242927E-01 -1.42436683E+00  1.43105972E+00  1.06866887E+00 -1.93987301E-15
 -3.58607010E-02 -5.27509531E-01  7.38266728E-01  4.82959518E-02 -1.70259032E-17
 -1.50204288E-04 -1.91023116E-02  3.46073215E-02  4.18954086E-03 -4.56392961E-18
 -2.96008640E-04 -4.81124749E-02 -7.40991878E-01 -3.46032128E-03 -1.79792367E+00
 -7.28769711E+00  1.19169084E+00  6.16193695E+00 -1.19256780E-14 -1.61797394E-01
 -1.55154743E+00 -7.60292203E-01  1.82033400E+00 -3.63968916E-15 -1.25095684E+01
 -4.02898377E-10 -1.01081658E-05  2.67397697E-05  7.42253180E-07  1.35269646E-21
 -8.53895283E-08 -2.15012898E-04  4.81291393E-04  1.19061487E-04 -1.82369127E-19
 -1.81191874E-04 -1.89986285E-02  3.36342741E-02  8.87625832E-03 -1.38316031E-17
 -1.80582988E-03 -8.14193780E-02  1.34427274E-01 -1.52894669E-02  4.39988512E-17
 -7.97265928E-06 -3.19927084E-03  6.14916199E-03 -2.19121785E-03  4.93016121E-18
 -3.81887224E-09 -3.76026947E-05  9.24063080E-05 -2.01223001E-05  4.90433477E-20
 -4.57635936E-05 -5.96132490E-02 -3.13144467E-03 -2.93706018E-06 -1.70887973E-01
 -1.50541390E+00  1.69395760E+00 -7.28676116E-01  1.60269401E-15 -1.68723810E+00
 -6.36446979E+00  5.22353381E+00  1.27075834E+00 -1.93736155E-15 -6.24408087E-01
 -1.06469567E+01 -9.61475121E-07 -9.89979400E-04  2.10148417E-03 -4.74326119E-04
  1.14801056E-18 -2.36904342E-04 -2.37595110E-02  4.23926642E-02  5.57731674E-04
  3.35513061E-18 -4.15494483E-02 -5.59565558E-01  7.65584294E-01 -8.05221253E-02
  2.37763367E-16 -2.91829195E-02 -4.70863801E-01  5.28450721E-01 -4.06276913E-01
  8.49960021E-16 -1.11571403E-04 -1.64867622E-02  2.25684740E-02 -2.04823734E-02
  4.24233954E-17 -6.48684991E-07 -8.07728665E-04  1.56099882E-03 -8.62340641E-04
  1.85015256E-18 -8.15628857E-03 -1.69077379E+00 -4.76335887E-03 -4.28099480E-05
 -1.71692054E-01 -1.62266039E+00  6.29413028E-01 -1.91712127E+00  3.81524643E-15
 -1.69481295E+00 -6.78972485E+00 -1.80187346E+00 -5.77018325E+00  1.10955489E-14
 -2.24065227E-01 -1.93982751E+00 -1.20972873E+01 -4.22383165E-06 -7.90837694E-01
 -1.29870948E+00 -2.64075060E-01  3.80240956E-16  0.00000000E+00 -3.42242388E-02
 -7.90322462E-02  2.39758149E-02 -5.51769294E-17  0.00000000E+00 -7.19997975E-05
 -2.58455171E-04  3.12390861E-05 -8.81981176E-20  0.00000000E+00 -3.33807450E-06
 -1.33522931E-05 -2.72072985E-06  3.92052220E-21  0.00000000E+00 -7.23803115E-05
 -2.26773165E-04 -1.30534282E-04  2.31498217E-19  0.00000000E+00 -3.43910603E-02
 -6.36423119E-02 -5.32073584E-02  9.73811242E-17 -3.02295604E-02 -6.25829188E-06
 -6.30063627E-06 -3.04183830E-02  0.00000000E+00  0.00000000E+00  0.00000000E+00
  0.00000000E+00  0.00000000E+00  0.00000000E+00  0.00000000E+00  0.00000000E+00
  0.00000000E+00  0.00000000E+00 -1.16810698E-10  0.00000000E+00 -6.47876510E-11
 -2.99449455E+01 -8.50203306E-01 -5.37968563E+00 -5.78131551E+00 -1.12637836E+00
  1.59650690E-15 -3.59414627E-02 -8.29438228E-01 -1.17459724E+00  4.17219453E-01
 -9.39123513E-16 -7.61998656E-05 -3.02944270E-02 -5.89755267E-02  7.99443822E-03
 -2.18193704E-17 -3.59057085E-06 -6.06455660E-03 -1.29961724E-02 -2.64276197E-03
  3.80539112E-18 -7.60317283E-05 -3.05793862E-02 -5.17372783E-02 -3.06360758E-02
  5.44878873E-17 -3.61855596E-02 -8.47566205E-01 -9.46087052E-01 -8.54080065E-01
  1.57107097E-15 -4.79997570E-01 -3.01357562E-03 -3.05620116E-03 -5.05423455E-01
  0.00000000E+00 -1.22021559E-05 -3.46831909E-05 -7.07667474E-06  1.02022257E-20
  0.00000000E+00 -2.26133042E-07 -7.44606103E-07 -2.47704211E-08 -2.96468721E-23
 -5.13102188E-06 -7.36622941E-09 -3.59186731E-06 -7.30399872E+00 -1.68594268E+01
  1.39661100E+00  6.04632258E+00  5.19584192E+00  1.58543730E+00 -2.27467953E-15
  8.30843801E-02  1.22495431E+00  1.56145384E+00 -6.62815894E-01  1.49170093E-15
  2.73620373E-04  5.98553909E-02  1.10254716E-01 -1.58469775E-02  4.34692900E-17
  1.43701269E-05  1.29196335E-02  2.61843391E-02  5.71707817E-03 -8.25654464E-18
  2.38333270E-04  5.29930856E-02  8.27288779E-02  5.43312591E-02 -9.66536003E-17
  6.70730779E-02  1.01637404E+00  8.97052847E-01  1.10944171E+00 -2.04327792E-15
  5.50711269E-01  6.05877707E-03  5.02157358E-03  3.47307247E-01  0.00000000E+00
  3.46831909E-05  9.47469135E-05  2.01226119E-05 -2.90590120E-20  0.00000000E+00
  7.46858628E-07  2.38903317E-06  8.08500185E-08  9.89854178E-23  1.31429953E-05
  2.44141955E-08  9.86307886E-06  5.86573164E-02  7.06677945E-01 -1.61922606E+01
  2.85273630E-01  1.30559040E+00  1.72275722E+00 -2.41770007E+00 -3.31001711E-16
 -2.50263122E-02 -3.11571403E-01 -4.88728453E-01 -1.50335731E-01 -3.48445489E-16
 -3.28009761E-05 -6.21725633E-03 -1.21639336E-02 -7.83858899E-03 -3.01247263E-18
  2.93112495E-06  2.64505135E-03  5.75619987E-03 -7.37937216E-04 -1.27389963E-18
  1.37050972E-04  2.95694110E-02  5.12955771E-02  2.06273275E-02 -5.21876854E-17
  5.59560090E-02  7.94022297E-01  9.72932341E-01  5.43979048E-01 -1.56479977E-15
 -4.14699638E-01 -1.53519669E-03  3.85165337E-03  6.37301976E-01  0.00000000E+00
  7.07667474E-06  2.01226119E-05  2.61633118E-07 -5.06876315E-21  0.00000000E+00
  2.51626680E-08  8.19051785E-08 -6.63678195E-08  1.61560700E-23  4.91798937E-06
  1.41294325E-09 -1.22708611E-06  6.17412322E-02  7.11930924E-01  1.40626512E-01
 -1.58558886E+01 -4.11430887E-16 -1.91919254E-15 -2.54323063E-15 -3.45402922E-16
 -2.67933713E+00  5.76563064E-17  7.37792948E-16  1.15124506E-15 -3.66702636E-16
 -3.02300199E-01  9.28430707E-20  1.84360809E-17  3.62665078E-17 -3.39872608E-18
 -8.72667740E-03 -4.22523980E-21 -3.81789527E-18 -8.33305340E-18 -1.27800246E-18
 -1.69800793E-03 -2.43030300E-19 -5.22701528E-17 -9.07168378E-17 -5.18693230E-17
 -8.80888508E-03 -1.02396754E-16 -1.44624715E-15 -1.77631199E-15 -1.55048357E-15
 -3.08333919E-01  8.68766549E-16  3.63772779E-18 -7.00589545E-18 -1.20992279E-15
  0.00000000E+00 -1.02022257E-20 -2.90590120E-20 -5.06876315E-21 -3.40929633E-06
  0.00000000E+00  2.91160006E-23  9.69218833E-23  1.60454118E-23 -6.24988484E-08
 -8.23956493E-21 -2.02836340E-25  3.43413838E-21 -1.14593275E-16 -1.31818321E-15
 -3.60363067E-16  9.48423683E-16 -1.53784664E+01  0.00000000E+00 -3.58053011E-02
 -8.26341154E-02  2.17699757E-02 -5.12407978E-17  0.00000000E+00 -1.01862171E-04
 -3.23004742E-04  1.62136665E-04 -3.50958835E-19  0.00000000E+00 -4.91786775E-08
 -2.18516097E-07  6.50308961E-08 -1.50094867E-22  0.00000000E+00 -8.15703882E-09
 -3.96035605E-08  6.31332066E-10 -5.38803233E-24  0.00000000E+00 -2.77596777E-06
 -1.10973710E-05 -2.51736485E-06  3.75929079E-21  0.00000000E+00 -5.85729312E-03
 -1.59436076E-02 -3.78859740E-03  5.73714820E-18 -1.56373702E-04 -4.19647393E-09
 -1.08899622E-06 -4.15053479E-02  0.00000000E+00  0.00000000E+00  0.00000000E+00
  0.00000000E+00  0.00000000E+00  0.00000000E+00  0.00000000E+00  0.00000000E+00
  0.00000000E+00  0.00000000E+00  0.00000000E+00  0.00000000E+00  0.00000000E+00
 -1.59627713E-04 -1.25202959E+00 -1.44658385E+00  1.48865523E+00 -3.06301196E-15
 -2.81614305E+01 -4.05834055E-02 -8.56353510E-01 -1.23090616E+00  3.03671568E-01
 -7.22967748E-16 -1.12249878E-04 -3.53489528E-02 -6.07114866E-02  3.16634322E-02
 -6.82899354E-17 -5.44389255E-08 -6.61034267E-04 -1.53770519E-03  4.69541908E-04
 -1.07952883E-18 -9.19404649E-09 -2.57636527E-04 -6.54784161E-04  6.92509733E-06
 -8.22125999E-20 -3.07450096E-06 -5.04556474E-03 -1.05273416E-02 -2.63999039E-03
  4.05888562E-18 -6.49986076E-03 -2.87778225E-01 -4.54940338E-01 -1.25450172E-01
  1.97626750E-16 -1.95432720E-02 -4.24174030E-05 -9.70498082E-04 -5.73946157E-01
  0.00000000E+00 -2.26133042E-07 -7.46858628E-07 -2.51626680E-08 -2.91160006E-23
  0.00000000E+00  0.00000000E+00  0.00000000E+00  0.00000000E+00  0.00000000E+00
 -2.70628996E-07  0.00000000E+00 -2.04734031E-08 -1.32346326E+00 -6.58668188E+00
 -4.43325914E+00  4.93413174E+00 -1.01144160E-14 -6.86104067E+00 -1.50690811E+01
  9.38636426E-02  1.25742226E+00  1.62968716E+00 -4.92099397E-01  1.16605567E-15
  3.56496489E-04  6.23470134E-02  9.85699880E-02 -5.77425105E-02  1.24342176E-16
  2.42120568E-07  1.56642759E-03  3.46246283E-03 -1.11737949E-03  2.56717895E-18
  4.46861149E-08  6.64733035E-04  1.61838447E-03 -2.00027533E-05  2.16203402E-19
  1.23023107E-05  1.10096399E-02  2.17038548E-02  5.81400674E-03 -8.94359006E-18
  1.77258996E-02  4.72408370E-01  6.88826642E-01  2.17742187E-01 -3.43259056E-16
  2.72381685E-02  1.00233307E-04  1.98385325E-03  6.85504903E-01  0.00000000E+00
  7.44606103E-07  2.38903317E-06  8.19051785E-08  9.69218833E-23  0.00000000E+00
  0.00000000E+00  0.00000000E+00  0.00000000E+00  0.00000000E+00  8.04116313E-07
  0.00000000E+00  6.42147959E-08  1.53311643E+00  5.04239323E+00  6.99392376E-01
 -4.78314158E+00  9.80169669E-15  1.02089480E-01  1.18093414E+00 -1.42658221E+01
 -2.47308823E-02 -3.57767454E-01 -5.60857818E-01 -1.94145591E-01 -2.90142822E-16
 -1.78617302E-04 -3.03342954E-02 -5.39984545E-02  1.73058345E-02 -5.96483707E-17
 -7.20434214E-08 -4.55100629E-04 -1.06397122E-03  1.32057635E-04 -7.21242083E-19
 -7.32832453E-10 -1.47078669E-05 -3.97317855E-05 -7.83198271E-05  1.17656904E-20
  2.77575600E-06  2.23099477E-03  4.69998468E-03 -3.80800502E-04 -1.56838403E-18
  4.18025013E-03  9.43893874E-02  1.60728569E-01 -6.23429420E-02 -5.38737773E-17
 -2.32924664E-02 -3.92714865E-05  7.83826981E-04  4.28571941E-01  0.00000000E+00
  2.47704211E-08  8.08500185E-08 -6.63678195E-08  1.60454118E-23  0.00000000E+00
  0.00000000E+00  0.00000000E+00  0.00000000E+00  0.00000000E+00  1.41356001E-07
  0.00000000E+00 -1.56125369E-08 -1.56963666E+00 -4.84191208E+00 -4.27151042E+00
  1.05018144E+00 -9.47883599E-15 -4.52465222E-02 -5.17119227E-01  2.21026196E-01
 -1.41092156E+01  5.82090041E-17  8.31541752E-16  1.30052377E-15 -2.82931890E-16
 -3.12429810E-01  3.86701756E-19  6.58621189E-17  1.17020075E-16 -6.00410228E-17
 -1.02988425E-02  1.66284465E-22  1.05429881E-18  2.46273053E-18 -7.26843191E-19
 -1.79683524E-04  6.11955752E-24  9.84764251E-20  2.54786685E-19  1.38347417E-20
 -7.01729622E-05 -4.13824991E-21 -3.20844889E-18 -6.76494149E-18 -1.45155271E-18
 -1.43481161E-03 -6.31617276E-18 -1.35050478E-16 -2.31759794E-16 -4.78945635E-17
 -9.85097234E-02  4.84087093E-17  8.73134932E-20 -1.32484571E-18 -7.66249826E-16
  0.00000000E+00  2.96468721E-23  9.89854178E-23  1.61560700E-23 -6.24988484E-08
  0.00000000E+00  0.00000000E+00  0.00000000E+00  0.00000000E+00  0.00000000E+00
 -1.92113864E-22  0.00000000E+00  3.72672428E-23  3.23045909E-15  9.99794771E-15
  8.80112001E-15 -9.53249250E-15 -3.56762902E+00  9.91932957E-17  1.13515810E-15
 -4.93196049E-16  8.53381493E-16 -1.36847033E+01 -1.42242927E-01 -1.42436683E+00
 -1.43105972E+00 -1.06866887E+00  1.93987301E-15 -3.58607010E-02 -5.27509531E-01
 -7.38266728E-01 -4.82959518E-02  1.70259032E-17 -1.50204288E-04 -1.91023116E-02
 -3.46073215E-02 -4.18954086E-03  4.56392961E-18 -2.46118902E-06 -1.74836155E-03
 -3.42003419E-03 -1.45983709E-03  2.49627454E-18 -9.20708033E-06 -3.88917098E-03
 -6.05283768E-03 -5.10939427E-03  9.35745702E-18 -2.20717988E-03 -1.00708981E-01
 -1.02434778E-01 -1.31911845E-01  2.47232054E-16 -7.40991878E-01 -3.46032128E-03
 -2.96008640E-04 -4.81124749E-02 -1.16810698E-10 -5.13102188E-06 -1.31429953E-05
 -4.91798937E-06  8.23956493E-21  0.00000000E+00 -2.70628996E-07 -8.04116313E-07
 -1.41356001E-07  1.92113864E-22 -1.17488511E-06 -8.71521649E-09 -5.33755991E-06
 -1.79792367E+00 -7.28769711E+00 -1.19169084E+00 -6.16193695E+00  1.19256780E-14
 -1.61797394E-01 -1.55154743E+00  7.60292203E-01 -1.82033400E+00  3.63968916E-15
 -1.25095684E+01 -1.80582988E-03 -8.14193780E-02 -1.34427274E-01  1.52894669E-02
 -4.39988512E-17 -7.97265928E-06 -3.19927084E-03 -6.14916199E-03  2.19121785E-03
 -4.93016121E-18 -3.81887224E-09 -3.76026947E-05 -9.24063080E-05  2.01223001E-05
 -4.90433477E-20 -4.02898377E-10 -1.01081658E-05 -2.67397697E-05 -7.42253180E-07
 -1.35269646E-21 -8.53895283E-08 -2.15012898E-04 -4.81291393E-04 -1.19061487E-04
  1.82369127E-19 -1.81191874E-04 -1.89986285E-02 -3.36342741E-02 -8.87625832E-03
  1.38316031E-17 -3.13144467E-03 -2.93706018E-06 -4.57635936E-05 -5.96132490E-02
  0.00000000E+00 -7.36622941E-09 -2.44141955E-08 -1.41294325E-09  2.02836340E-25
  0.00000000E+00  0.00000000E+00  0.00000000E+00  0.00000000E+00  0.00000000E+00
 -8.71521649E-09  0.00000000E+00 -1.02327395E-09 -1.70887973E-01 -1.50541390E+00
 -1.69395760E+00  7.28676116E-01 -1.60269401E-15 -1.68723810E+00 -6.36446979E+00
 -5.22353381E+00 -1.27075834E+00  1.93736155E-15 -6.24408087E-01 -1.06469567E+01
 -2.91829195E-02 -4.70863801E-01 -5.28450721E-01  4.06276913E-01 -8.49960021E-16
 -1.11571403E-04 -1.64867622E-02 -2.25684740E-02  2.04823734E-02 -4.24233954E-17
 -6.48684991E-07 -8.07728665E-04 -1.56099882E-03  8.62340641E-04 -1.85015256E-18
 -9.61475121E-07 -9.89979400E-04 -2.10148417E-03  4.74326119E-04 -1.14801056E-18
 -2.36904342E-04 -2.37595110E-02 -4.23926642E-02 -5.57731674E-04 -3.35513061E-18
 -4.15494483E-02 -5.59565558E-01 -7.65584294E-01  8.05221253E-02 -2.37763367E-16
 -4.76335887E-03 -4.28099480E-05 -8.15628857E-03 -1.69077379E+00 -6.47876510E-11
 -3.59186731E-06 -9.86307886E-06  1.22708611E-06 -3.43413838E-21  0.00000000E+00
 -2.04734031E-08 -6.42147959E-08  1.56125369E-08 -3.72672428E-23 -5.33755991E-06
 -1.02327395E-09 -8.72028866E-08 -1.71692054E-01 -1.62266039E+00 -6.29413028E-01
  1.91712127E+00 -3.81524643E-15 -1.69481295E+00 -6.78972485E+00  1.80187346E+00
  5.77018325E+00 -1.10955489E-14 -2.24065227E-01 -1.93982751E+00 -1.20972873E+01
Multipole Matrix (1,0,0)                   R   N=        1830
  2.58290277E+00  6.41495906E-01  2.58290277E+00  7.18554879E-02  8.38743577E-01
  2.58290277E+00  0.00000000E+00  0.00000000E+00  0.00000000E+00  2.58290277E+00
  0.00000000E+00  0.00000000E+00  0.00000000E+00  0.00000000E+00  2.58290277E+00
  1.58657192E-06  3.50872644E-02 -3.71090837E-02  4.47825422E-02 -9.17401888E-17
  8.34595104E-01  9.46010014E-02  6.27232808E-01 -1.92166282E-01  5.21471936E-01
 -1.06827195E-15  2.07282035E-01  8.34595104E-01  1.05468915E-01  6.90854566E-01
 -4.07874774E-02  6.72585448E-01 -1.37783861E-15  7.18554879E-02  8.38743577E-01
  8.34595104E-01 -1.16154001E-01 -4.75247920E-01  2.48490746E-01 -1.52622059E-01
  1.06492396E-15  0.00000000E+00  0.00000000E+00  0.00000000E+00  8.34595104E-01
  2.37949643E-16  9.73578804E-16 -5.09050778E-16  1.06492396E-15  3.67215572E-01
  0.00000000E+00  0.00000000E+00  0.00000000E+00  0.00000000E+00  8.34595104E-01
  0.00000000E+00 -2.85125773E-03  6.33232273E-03 -2.08135908E-03  4.72389660E-18
 -4.27331012E-07 -6.13470994E-02  9.98176832E-02  1.98385127E-02 -2.85985355E-17
 -1.74784262E+00  4.38991924E-03  2.55845094E-02 -4.75242710E-03  1.50903675E-02
 -3.42494172E-17  2.66536745E-02 -1.67716281E-01  3.99685289E-01  2.64554594E-02
 -3.81373043E-17 -4.34098371E-01 -1.74784262E+00  9.69228676E-03  6.66448194E-02
 -4.42840727E-02  3.69326577E-02 -8.38231411E-17  4.34607042E-02  5.08799536E-02
  1.39911272E-01 -8.07651988E-03  1.16428406E-17  7.18554879E-02  8.38743577E-01
 -1.74784262E+00 -3.20369909E-03 -8.75869313E-03 -1.89919193E-04  4.57788726E-03
  1.39278702E-17  8.34187262E-03 -4.46996925E-02  1.05228255E-01 -8.83002104E-02
 -1.42849419E-17  0.00000000E+00  0.00000000E+00  0.00000000E+00 -1.74784262E+00
  7.27118321E-18  1.98789152E-17  4.31044618E-19  1.39278702E-17  1.07145371E-02
 -1.20253642E-17  6.44375796E-17 -1.51693528E-16 -1.42849419E-17 -9.82095291E-02
  0.00000000E+00  0.00000000E+00  0.00000000E+00  0.00000000E+00 -1.74784262E+00
  0.00000000E+00 -9.88857714E-04  2.59640750E-03  5.24759722E-04 -7.56421793E-19
  0.00000000E+00 -4.47340542E-03  7.81302411E-03  6.83045071E-03 -1.25493020E-17
 -2.01982024E-06 -9.64455135E-02  5.29698219E-02  1.50908274E-01 -2.89839390E-16
 -2.58290277E+00  9.88857714E-04  0.00000000E+00  1.29168224E-02 -8.05640677E-04
  1.16130133E-18  1.24796945E-03 -5.36035304E-02  9.35716652E-02  4.70480353E-02
 -8.64393912E-17 -6.80019513E-02 -7.95130716E-01  5.32601897E-01  7.86467854E-01
 -1.51051600E-15 -6.41495906E-01 -2.58290277E+00  2.59640750E-03  1.29168224E-02
  1.73472348E-18 -5.36680554E-03  7.73605234E-18  2.25491362E-03 -2.44788076E-02
  4.93156320E-02  2.46954703E-02 -4.53719566E-17 -3.33993338E-02 -2.10029019E-03
 -3.47542352E-01  8.45891186E-02 -1.62464640E-16  7.18554879E-02  8.38743577E-01
 -2.58290277E+00  5.24759722E-04 -8.05640677E-04  5.36680554E-03  2.16840434E-19
 -3.85185989E-34  1.90740457E-03 -5.75141042E-02  1.02436858E-01  3.38526993E-02
 -1.03443437E-16 -1.07685001E-01 -8.14455400E-01  6.22146390E-01  5.92433699E-01
 -2.03202863E-15  0.00000000E+00  0.00000000E+00  0.00000000E+00 -2.58290277E+00
 -7.56421793E-19  1.16130133E-18 -7.73605234E-18  5.77778983E-34  0.00000000E+00
 -3.50439479E-18  1.05668263E-16 -1.88202963E-16 -1.03443437E-16 -2.24504562E-02
  2.06823351E-16  1.56426980E-15 -1.19491480E-15 -2.03202863E-15 -4.65565818E-01
  0.00000000E+00  0.00000000E+00  0.00000000E+00  0.00000000E+00 -2.58290277E+00
  0.00000000E+00 -1.24796945E-03  2.25491362E-03  1.90740457E-03 -3.50439479E-18
  0.00000000E+00 -3.19862524E-04  2.92441775E-04  8.05609511E-04 -1.54729593E-18
  0.00000000E+00 -1.61589783E-03 -6.42545799E-04  3.64401864E-03 -7.20447647E-18
 -1.58657192E-06 -3.50872644E-02 -3.71090837E-02  4.47825422E-02 -9.17401888E-17
 -8.34595104E-01  4.47340542E-03  5.36035304E-02 -2.44788076E-02 -5.75141042E-02
  1.05668263E-16  3.19862524E-04  2.80443751E-18  1.64645639E-02 -1.23659119E-03
  2.37506198E-18 -3.14309400E-03 -7.91268459E-02  1.67233206E-02  1.16115596E-01
 -2.29568552E-16 -9.46010014E-02 -6.27232808E-01 -1.92166282E-01  5.21471936E-01
 -1.06827195E-15 -2.07282035E-01 -8.34595104E-01  7.81302411E-03  9.35716652E-02
 -4.93156320E-02 -1.02436858E-01  1.88202963E-16  2.92441775E-04  1.64645639E-02
  1.59867358E-18 -2.54878022E-02  4.89532115E-17  1.54890903E-03  6.32880136E-02
 -2.55737384E-02 -9.44590472E-02  1.86752059E-16  1.05468915E-01  6.90854566E-01
  4.07874774E-02 -6.72585448E-01  1.37783861E-15  7.18554879E-02  8.38743577E-01
 -8.34595104E-01  6.83045071E-03  4.70480353E-02 -2.46954703E-02 -3.38526993E-02
  1.03443437E-16  8.05609511E-04 -1.23659119E-03  2.54878022E-02 -5.27666773E-18
  1.75397403E-32 -7.09103458E-03 -1.11986051E-01  2.03521846E-02  1.48371984E-01
 -3.58857434E-16 -1.16154001E-01 -4.75247920E-01 -2.48490746E-01  1.52622059E-01
 -1.06492396E-15  0.00000000E+00  0.00000000E+00  0.00000000E+00 -8.34595104E-01
 -1.25493020E-17 -8.64393912E-17  4.53719566E-17  1.03443437E-16  2.24504562E-02
 -1.54729593E-18  2.37506198E-18 -4.89532115E-17  1.44582524E-32  1.10230514E-18
  1.40194650E-17  2.21404156E-16 -4.02376743E-17 -3.58857434E-16 -3.31378296E-02
  2.37949643E-16  9.73578804E-16  5.09050778E-16 -1.06492396E-15 -3.67215572E-01
  0.00000000E+00  0.00000000E+00  0.00000000E+00  0.00000000E+00 -8.34595104E-01
  2.01982024E-06  6.80019513E-02 -3.33993338E-02 -1.07685001E-01  2.06823351E-16
  0.00000000E+00  3.14309400E-03  1.54890903E-03 -7.09103458E-03  1.40194650E-17
  0.00000000E+00  6.68928473E-04  1.20127088E-03 -1.32978029E-03  2.72411633E-18
  0.00000000E+00  2.85125773E-03  6.33232273E-03 -2.08135908E-03  4.72389660E-18
  4.27331012E-07  6.13470994E-02  9.98176832E-02  1.98385127E-02 -2.85985355E-17
  1.74784262E+00  9.64455135E-02  7.95130716E-01 -2.10029019E-03 -8.14455400E-01
  1.56426980E-15  1.61589783E-03  7.91268459E-02  6.32880136E-02 -1.11986051E-01
  2.21404156E-16 -6.68928473E-04  1.18609723E-17  1.50552396E-02  2.04167344E-03
 -4.18246230E-18 -4.38991924E-03 -2.55845094E-02 -4.75242710E-03  1.50903675E-02
 -3.42494172E-17 -2.66536745E-02  1.67716281E-01  3.99685289E-01  2.64554594E-02
 -3.81373043E-17  4.34098371E-01  1.74784262E+00  5.29698219E-02  5.32601897E-01
  3.47542352E-01 -6.22146390E-01  1.19491480E-15 -6.42545799E-04  1.67233206E-02
  2.55737384E-02 -2.03521846E-02  4.02376743E-17  1.20127088E-03  1.50552396E-02
 -3.76606084E-18 -2.01001255E-02  4.11760350E-17  9.69228676E-03  6.66448194E-02
  4.42840727E-02 -3.69326577E-02  8.38231411E-17  4.34607042E-02  5.08799536E-02
 -1.39911272E-01  8.07651988E-03 -1.16428406E-17  7.18554879E-02  8.38743577E-01
  1.74784262E+00  1.50908274E-01  7.86467854E-01 -8.45891186E-02 -5.92433699E-01
  2.03202863E-15  3.64401864E-03  1.16115596E-01  9.44590472E-02 -1.48371984E-01
  3.58857434E-16 -1.32978029E-03  2.04167344E-03  2.01001255E-02 -1.54551319E-17
  4.05205631E-32 -3.20369909E-03 -8.75869313E-03  1.89919193E-04 -4.57788726E-03
 -1.39278702E-17  8.34187262E-03 -4.46996925E-02 -1.05228255E-01  8.83002104E-02
  1.42849419E-17  0.00000000E+00  0.00000000E+00  0.00000000E+00  1.74784262E+00
 -2.89839390E-16 -1.51051600E-15  1.62464640E-16  2.03202863E-15  4.65565818E-01
 -7.20447647E-18 -2.29568552E-16 -1.86752059E-16  3.58857434E-16  3.31378296E-02
  2.72411633E-18 -4.18246230E-18 -4.11760350E-17  4.05205631E-32  4.62377327E-18
  7.27118321E-18  1.98789152E-17 -4.31044618E-19 -1.39278702E-17 -1.07145371E-02
 -1.20253642E-17  6.44375796E-17  1.51693528E-16  1.42849419E-17  9.82095291E-02
  0.00000000E+00  0.00000000E+00  0.00000000E+00  0.00000000E+00  1.74784262E+00
  1.34612954E-02  1.97612727E-01  5.56946589E-04  2.47114221E-01 -4.90430563E-16
  5.33542400E-02  5.72445131E-01  5.21623737E-01  5.15250144E-01 -9.89594301E-16
 -8.64246305E-03 -2.04664052E-02  4.58651770E-02 -1.76985075E-02  3.22036838E-17
 -2.24169571E-04 -5.27903621E-03 -1.16062562E-03 -7.08245796E-03  1.32450970E-17
 -9.13385376E-06  3.03064580E-04  1.45548463E-03  4.61022675E-04 -8.85458748E-19
  1.59920449E-04  1.05607023E-02  3.92274423E-03  1.75193184E-02 -3.43344020E-17
  1.49330241E+00  2.18453045E-04  7.20096988E-04  3.07513889E-03  8.07863056E-04
 -1.74102449E-18  3.67468347E-03 -9.93845514E-02  1.90211925E-01 -3.15238752E-02
  7.43801258E-17 -1.11724777E-01 -1.19845986E+00  1.10369859E+00 -8.51291550E-01
  1.74394218E-15 -1.37715980E-02 -2.71534488E-01  1.15380865E-01 -3.47563790E-01
  6.84597751E-16 -8.43003263E-05 -1.17747889E-02  1.14716351E-02 -1.80451378E-02
  3.60094077E-17  1.90981704E-05 -6.32988556E-04  1.97330730E-03 -7.59844535E-04
  1.55658472E-18 -4.08226103E-02 -3.12599029E+00  2.24169571E-04  5.27903621E-03
 -1.16062562E-03 -7.08245796E-03  1.32450970E-17  9.13385376E-06 -3.03064580E-04
  1.45548463E-03  4.61022675E-04 -8.85458748E-19 -1.59920449E-04 -1.05607023E-02
  3.92274423E-03  1.75193184E-02 -3.43344020E-17 -1.34612954E-02 -1.97612727E-01
  5.56946589E-04  2.47114221E-01 -4.90430563E-16 -5.33542400E-02 -5.72445131E-01
  5.21623737E-01  5.15250144E-01 -9.89594301E-16  8.64246305E-03  2.04664052E-02
  4.58651770E-02 -1.76985075E-02  3.22036838E-17  2.50251936E-20 -1.75911297E-03
 -1.49330241E+00  1.37715980E-02  2.71534488E-01  1.15380865E-01 -3.47563790E-01
  6.84597751E-16  8.43003263E-05  1.17747889E-02  1.14716351E-02 -1.80451378E-02
  3.60094077E-17 -1.90981704E-05  6.32988556E-04  1.97330730E-03 -7.59844535E-04
  1.55658472E-18 -2.18453045E-04 -7.20096988E-04  3.07513889E-03  8.07863056E-04
 -1.74102449E-18 -3.67468347E-03  9.93845514E-02  1.90211925E-01 -3.15238752E-02
  7.43801258E-17  1.11724777E-01  1.19845986E+00  1.10369859E+00 -8.51291550E-01
  1.74394218E-15  1.75911297E-03 -3.38813179E-21  4.08226103E-02  3.12599029E+00
  0.00000000E+00 -5.37393433E-07  2.16845810E-06  4.41097438E-07 -6.35886652E-22
  0.00000000E+00 -1.20423679E-05  3.80614021E-05  2.18329798E-05 -3.87205410E-20
  0.00000000E+00 -6.02479246E-03  1.12543790E-02  9.35630558E-03 -1.71240923E-17
 -2.54106862E-07 -1.40781812E-01  2.31715442E-01  4.69589659E-02 -6.77078539E-17
  0.00000000E+00 -5.97195831E-03  1.39049300E-02 -4.18674872E-03  9.63949671E-18
  0.00000000E+00 -1.19207539E-05  4.31500265E-05 -5.17763945E-06  1.46367328E-20
 -1.06172068E-06 -5.44597488E-03 -5.38624638E-03 -1.04785515E-06 -5.43458912E+00
  2.32988997E-07 -4.18096563E-04  1.06581953E-03  1.81614055E-04 -2.61815063E-19
  1.24078639E-06 -3.51502941E-03  6.90421525E-03  3.44196088E-03 -6.10427843E-18
 -2.19672518E-03 -1.67183604E-01  2.20387244E-01  1.58864938E-01 -2.90757697E-16
 -7.23903487E-02 -1.19658586E+00  1.49702117E+00  2.61528188E-01 -3.77084802E-16
 -1.19905720E-03 -1.45866174E-01  2.35052151E-01 -6.19154222E-02  1.42552980E-16
  3.27586861E-06 -2.81504229E-03  6.37765524E-03 -6.56388227E-04  1.85555198E-18
 -3.89218618E-04 -1.34106401E-01 -1.11751180E-01 -2.78267160E-04 -1.34974754E+00
 -5.43458912E+00  9.44382576E-07 -7.37027090E-04  1.83462029E-03  3.24524043E-04
 -4.67834291E-19  4.05890769E-06 -5.21945657E-03  9.57616844E-03  5.26845325E-03
 -9.34354184E-18 -4.01358518E-03 -1.68878987E-01  1.79965022E-01  1.78126058E-01
 -3.26009773E-16 -1.18538110E-01 -1.14527881E+00  1.18249716E+00  3.27980633E-01
 -4.72899357E-16 -2.71094879E-03 -1.88697364E-01  2.77454086E-01 -8.86994659E-02
  2.04220092E-16  1.19724103E-05 -4.74591473E-03  1.03587263E-02 -1.13995189E-03
  3.22254406E-18 -5.28211435E-04 -6.59167846E-02 -1.03659837E-01 -4.58591855E-04
  7.18554879E-02  8.38743577E-01 -5.43458912E+00  1.91373107E-07 -1.86185689E-04
  4.78975572E-04 -5.26783937E-05 -1.18155378E-19  2.25825432E-06 -3.53745493E-03
  7.10432335E-03  2.39144472E-03 -6.31612158E-18 -3.40831820E-03 -1.66577075E-01
  2.36486855E-01  1.05318981E-01 -3.17207084E-16 -2.45312443E-02 -2.77791341E-01
  4.23615949E-01 -5.81955493E-01 -1.10595982E-16  8.39073036E-04  6.62565244E-02
 -1.15032168E-01 -2.85132266E-02 -7.09397578E-17 -1.42476080E-06  6.82566231E-04
 -1.57939205E-03 -7.73292542E-04 -4.62666548E-19 -5.13013612E-04 -1.76780991E-01
  1.07267826E-01  1.60348077E-04  0.00000000E+00  0.00000000E+00  0.00000000E+00
 -5.43458912E+00 -2.75883725E-22  2.68405536E-19 -6.90491820E-19 -1.18155378E-19
 -1.34639596E-04 -4.00498831E-21  6.27363604E-18 -1.25994366E-17 -6.31612158E-18
 -1.16996612E-03  6.23797022E-18  3.04872600E-16 -4.32822839E-16 -3.17207084E-16
 -6.79974404E-02  3.53704106E-17  4.00533853E-16 -6.10791278E-16 -1.10595982E-16
 -6.58659637E-01 -1.93186702E-18 -1.52547858E-16  2.64848043E-16 -7.09397578E-17
 -5.93246838E-02  4.02767390E-21 -1.92955490E-18  4.46480287E-18 -4.62666548E-19
 -9.36957521E-04  9.36482144E-19  3.36494589E-16 -2.22966329E-16 -3.73074407E-19
  0.00000000E+00  0.00000000E+00  0.00000000E+00  0.00000000E+00 -5.43458912E+00
  0.00000000E+00 -1.76911349E-09  8.66781525E-09 -1.41439285E-10  1.18392226E-24
  0.00000000E+00 -6.36804337E-07  2.56705207E-06  5.79508737E-07 -8.64690833E-22
  0.00000000E+00 -1.42505023E-03  3.90860733E-03  9.22867402E-04 -1.39611353E-18
  0.00000000E+00 -8.80325476E-03  2.04734316E-02 -5.38200458E-03  1.26651871E-17
  0.00000000E+00 -2.40080792E-05  7.67633812E-05 -3.84343597E-05  8.31938045E-20
  0.00000000E+00 -1.08369390E-08  4.85883301E-08 -1.44426622E-08  3.33302789E-23
 -2.56883589E-07 -1.04241352E-02 -3.79823498E-05 -9.46711246E-10 -1.92401648E-05
 -3.17084201E-01  3.68591062E-01 -3.75330158E-01  7.72340230E-16 -7.18244858E+00
  5.50401518E-10 -2.81502765E-05  7.99801291E-05 -1.18853872E-06  9.94870296E-21
  4.07545240E-08 -8.69358484E-04  2.02697282E-03  4.21482411E-04 -6.28898158E-19
 -4.12307624E-04 -7.86371470E-02  1.36136466E-01  2.96041113E-02 -4.47850909E-17
 -3.53240312E-03 -2.40559184E-01  3.75202811E-01 -9.04730739E-02  2.12905506E-16
 -3.99488962E-06 -7.58523421E-03  1.43338770E-02 -6.61930846E-03  1.43279466E-17
  2.07906925E-09 -8.63684480E-05  2.23283672E-04 -6.08678825E-05  1.40468805E-19
 -1.98499221E-04 -2.09883853E-01 -5.37180219E-03 -5.71426149E-06 -2.47203985E-01
 -2.54090222E+00  2.09775069E+00 -1.84803893E+00  3.80282475E-15 -1.78385010E+00
 -7.18244858E+00  2.71039776E-09 -6.56924579E-05  1.80110643E-04 -2.78163814E-06
  2.32837948E-20  1.70450415E-07 -1.71921940E-03  3.80784056E-03  8.44844665E-04
 -1.26060125E-18 -1.11445718E-03 -1.18709151E-01  1.91316440E-01  4.80332171E-02
 -7.26646367E-17 -8.11121856E-03 -3.26374163E-01  4.62325814E-01 -1.35681359E-01
  3.19291774E-16 -1.25074415E-05 -1.22721496E-02  2.15037470E-02 -1.10605929E-02
  2.39414112E-17  9.41649581E-09 -1.86399610E-04  4.60696133E-04 -1.31984118E-04
  3.04588407E-19 -3.62305168E-04 -2.18932687E-01 -6.64967975E-03 -1.21043054E-05
 -2.84534062E-01 -1.54801727E+00  2.17717089E-01 -1.58159196E+00  3.25454023E-15
  7.18554879E-02  8.38743577E-01 -7.18244858E+00 -4.40445579E-11  1.19298683E-06
 -3.39751478E-06 -8.82132401E-06 -4.22794655E-22  3.73022977E-08 -4.26054993E-04
  1.00468737E-03 -7.04903477E-05 -3.12177462E-19 -2.66640477E-04 -3.07456748E-02
  5.65145911E-02 -1.70473283E-02 -1.87268588E-17  2.15790594E-03  9.45852556E-02
 -1.60133873E-01 -5.93943161E-02 -9.18102973E-17  6.38021322E-06  6.73710161E-03
 -1.30804379E-02  3.51871074E-03 -1.31161651E-17 -2.77546113E-09  6.11549257E-05
 -1.58719661E-04  1.59796246E-05 -9.99091235E-20 -1.75187111E-04 -1.73337203E-01
  6.74725628E-03  5.52732293E-06  2.95522759E-01  1.89668621E+00 -2.01833751E+00
  3.14139006E-01 -3.80443453E-15  0.00000000E+00  0.00000000E+00  0.00000000E+00
 -7.18244858E+00  3.68676441E-25 -9.98593600E-21  2.84390107E-20 -4.22794655E-22
 -8.87183389E-06 -5.56591347E-23  6.35720954E-19 -1.49910416E-18 -3.12177462E-19
 -2.79709134E-04  4.03373636E-19  4.65120478E-17 -8.54952568E-17 -1.87268588E-17
 -2.94262696E-02 -5.07808606E-18 -2.22582486E-16  3.76834584E-16 -9.18102973E-17
 -9.84086187E-02 -1.38104086E-20 -1.45829180E-17  2.83135039E-17 -1.31161651E-17
 -2.54077181E-03  6.40511372E-24 -1.41131234E-19  3.66287772E-19 -9.99091235E-20
 -2.73129540E-05  3.00490360E-19  3.13045162E-16 -1.39758824E-17 -1.22271594E-20
 -6.08115578E-16 -3.90292928E-15  4.15325873E-15 -3.80443453E-15 -1.53468222E+00
  0.00000000E+00  0.00000000E+00  0.00000000E+00  0.00000000E+00 -7.18244858E+00
  1.67919452E-07 -9.15146774E-05  2.34737918E-04  7.57052257E-05 -1.29632502E-19
  1.66375648E-07 -3.95529053E-04  7.47700619E-04  5.14102075E-04 -9.40894885E-19
 -1.31860893E-04 -1.91671676E-02  2.39597121E-02  2.46848387E-02 -4.61675715E-17
 -1.20014537E-02 -3.49632034E-01  4.20367459E-01  2.81957191E-01 -5.13707052E-16
 -1.16518780E-03 -1.03126731E-01  1.70968271E-01  1.82841930E-02 -2.03416166E-17
  6.89134414E-06 -1.58437508E-03  3.54630781E-03  4.26860021E-04 -5.38829920E-19
 -3.29553694E-05 -1.26232279E-02 -2.05139155E-01 -2.87208395E-04 -3.33788628E-01
 -2.76062520E+00  9.44985035E-01  2.56704973E+00 -4.95788034E-15 -4.12606637E-02
 -6.69923381E-01 -2.00015102E-01  8.15543748E-01 -1.62359028E-15 -5.90319098E+00
  2.49155820E-11 -1.20845950E-06  3.57525914E-06  7.01468498E-08  2.03575242E-22
  1.17682345E-09 -4.13373718E-05  1.03055228E-04  2.10628606E-05 -3.12277824E-20
 -1.15536373E-05 -5.76975997E-03  1.11222653E-02  2.34765974E-03 -3.51046699E-18
 -1.58233011E-04 -2.57637358E-02  4.62255142E-02 -5.16090015E-03  1.45870009E-17
 -2.85886262E-07 -7.86491460E-04  1.65184572E-03 -5.05948259E-04  1.14988107E-18
  1.51389832E-10 -5.52755640E-06  1.50788540E-05 -2.83087884E-06  6.98581951E-21
 -1.07698581E-05 -2.57101871E-02 -1.06505768E-03 -4.62219667E-07 -3.21945363E-02
 -7.36744987E-01  9.57834628E-01 -3.23012653E-01  7.24466568E-16 -4.46610969E-01
 -4.00872575E+00  4.09118532E+00  7.62301203E-01 -1.09845255E-15 -3.65227423E-01
 -9.21608439E+00  6.45249676E-08 -6.95676531E-05  1.80597869E-04 -3.44813675E-05
  8.28448665E-20  4.17547576E-06 -3.29418990E-03  6.86178741E-03 -1.62581111E-04
  9.36578697E-19 -2.55432571E-03 -1.45626153E-01  2.32071874E-01 -3.04309624E-02
  8.10793865E-17 -2.48006482E-03 -1.25306630E-01  1.65047583E-01 -1.13218224E-01
  2.36578071E-16 -3.67117401E-06 -2.90321789E-03  4.65410588E-03 -3.58757696E-03
  7.44077626E-18  2.82664689E-08 -7.43324837E-05  1.70517162E-04 -7.94902000E-05
  1.70523083E-19 -1.42596426E-03 -6.38790737E-01 -1.08848693E-03 -3.75316329E-06
 -3.16803363E-02 -6.15638415E-01  3.23835239E-01 -7.47551688E-01  1.48823120E-15
 -4.36930525E-01 -3.37138126E+00 -3.78045554E-01 -3.14127764E+00  6.06691740E-15
 -8.92302206E-02 -1.21232123E+00 -6.71384672E+00  2.54106862E-07  1.40781812E-01
  2.31715442E-01  4.69589659E-02 -6.77078539E-17  0.00000000E+00  5.97195831E-03
  1.39049300E-02 -4.18674872E-03  9.63949671E-18  0.00000000E+00  1.19207539E-05
  4.31500265E-05 -5.17763945E-06  1.46367328E-20  0.00000000E+00  5.37393433E-07
  2.16845810E-06  4.41097438E-07 -6.35886652E-22  0.00000000E+00  1.20423679E-05
  3.80614021E-05  2.18329798E-05 -3.87205410E-20  0.00000000E+00  6.02479246E-03
  1.12543790E-02  9.35630558E-03 -1.71240923E-17  5.38624638E-03  1.04785515E-06
  1.06172068E-06  5.44597488E-03  0.00000000E+00  0.00000000E+00  0.00000000E+00
  0.00000000E+00  0.00000000E+00  0.00000000E+00  0.00000000E+00  0.00000000E+00
  0.00000000E+00  0.00000000E+00  1.81240717E-11  0.00000000E+00  1.00028461E-11
  5.43458912E+00  7.23903487E-02  1.19658586E+00  1.49702117E+00  2.61528188E-01
 -3.77084802E-16  1.19905720E-03  1.45866174E-01  2.35052151E-01 -6.19154222E-02
  1.42552980E-16 -3.27586861E-06  2.81504229E-03  6.37765524E-03 -6.56388227E-04
  1.85555198E-18 -2.32988997E-07  4.18096563E-04  1.06581953E-03  1.81614055E-04
 -2.61815063E-19 -1.24078639E-06  3.51502941E-03  6.90421525E-03  3.44196088E-03
 -6.10427843E-18  2.19672518E-03  1.67183604E-01  2.20387244E-01  1.58864938E-01
 -2.90757697E-16  1.11751180E-01  2.78267160E-04  3.89218618E-04  1.34106401E-01
  0.00000000E+00  1.03397577E-25  3.32997556E-07 -3.25613395E-10  4.69426079E-25
  0.00000000E+00 -8.69314189E-09 -2.30451654E-08 -9.69256383E-10 -1.14065223E-24
  1.30774237E-07 -2.89692099E-10  3.28434001E-08  1.34974754E+00  5.43458912E+00
 -1.18538110E-01 -1.14527881E+00 -1.18249716E+00 -3.27980633E-01  4.72899357E-16
 -2.71094879E-03 -1.88697364E-01 -2.77454086E-01  8.86994659E-02 -2.04220092E-16
  1.19724103E-05 -4.74591473E-03 -1.03587263E-02  1.13995189E-03 -3.22254406E-18
  9.44382576E-07 -7.37027090E-04 -1.83462029E-03 -3.24524043E-04  4.67834291E-19
  4.05890769E-06 -5.21945657E-03 -9.57616844E-03 -5.26845325E-03  9.34354184E-18
 -4.01358518E-03 -1.68878987E-01 -1.79965022E-01 -1.78126058E-01  3.26009773E-16
 -1.03659837E-01 -4.58591855E-04 -5.28211435E-04 -6.59167846E-02  0.00000000E+00
  3.32997556E-07 -3.30872245E-24  1.96018151E-07 -2.82592895E-22  0.00000000E+00
  3.48567884E-08  9.36914482E-08  3.88641588E-09  4.57365978E-24 -1.78290579E-07
  1.18687646E-09  2.20086756E-08  7.18554879E-02  8.38743577E-01  5.43458912E+00
 -2.45312443E-02 -2.77791341E-01 -4.23615949E-01  5.81955493E-01  1.10595982E-16
  8.39073036E-04  6.62565244E-02  1.15032168E-01  2.85132266E-02  7.09397578E-17
 -1.42476080E-06  6.82566231E-04  1.57939205E-03  7.73292542E-04  4.62666548E-19
  1.91373107E-07 -1.86185689E-04 -4.78975572E-04  5.26783937E-05  1.18155378E-19
  2.25825432E-06 -3.53745493E-03 -7.10432335E-03 -2.39144472E-03  6.31612158E-18
 -3.40831820E-03 -1.66577075E-01 -2.36486855E-01 -1.05318981E-01  3.17207084E-16
  1.07267826E-01  1.60348077E-04 -5.13013612E-04 -1.76780991E-01  0.00000000E+00
 -3.25613395E-10 -1.96018151E-07  1.55096365E-25  3.67341985E-40  0.00000000E+00
  9.69256383E-10  2.56945923E-09 -2.61660889E-09  1.27178926E-25 -1.27478588E-07
  5.52439891E-11  1.22187840E-08  0.00000000E+00  0.00000000E+00  0.00000000E+00
  5.43458912E+00  3.53704106E-17  4.00533853E-16  6.10791278E-16  1.10595982E-16
  6.58659637E-01 -1.93186702E-18 -1.52547858E-16 -2.64848043E-16  7.09397578E-17
  5.93246838E-02  4.02767390E-21 -1.92955490E-18 -4.46480287E-18  4.62666548E-19
  9.36957521E-04 -2.75883725E-22  2.68405536E-19  6.90491820E-19  1.18155378E-19
  1.34639596E-04 -4.00498831E-21  6.27363604E-18  1.25994366E-17  6.31612158E-18
  1.16996612E-03  6.23797022E-18  3.04872600E-16  4.32822839E-16  3.17207084E-16
  6.79974404E-02 -2.22966329E-16 -3.73074407E-19  9.36482144E-19  3.36494589E-16
  0.00000000E+00  4.69426079E-25  2.82592895E-22 -3.67341985E-40  1.03397577E-25
  0.00000000E+00  1.14065223E-24  3.02382264E-24  1.27178926E-25 -2.72467775E-09
  2.13551775E-22 -6.60165271E-27 -3.36289306E-23  0.00000000E+00  0.00000000E+00
  0.00000000E+00  0.00000000E+00  5.43458912E+00  0.00000000E+00  8.80325476E-03
  2.04734316E-02 -5.38200458E-03  1.26651871E-17  0.00000000E+00  2.40080792E-05
  7.67633812E-05 -3.84343597E-05  8.31938045E-20  0.00000000E+00  1.08369390E-08
  4.85883301E-08 -1.44426622E-08  3.33302789E-23  0.00000000E+00  1.76911349E-09
  8.66781525E-09 -1.41439285E-10  1.18392226E-24  0.00000000E+00  6.36804337E-07
  2.56705207E-06  5.79508737E-07 -8.64690833E-22  0.00000000E+00  1.42505023E-03
  3.90860733E-03  9.22867402E-04 -1.39611353E-18  3.79823498E-05  9.46711246E-10
  2.56883589E-07  1.04241352E-02  0.00000000E+00  0.00000000E+00  0.00000000E+00
  0.00000000E+00  0.00000000E+00  0.00000000E+00  0.00000000E+00  0.00000000E+00
  0.00000000E+00  0.00000000E+00  0.00000000E+00  0.00000000E+00  0.00000000E+00
  1.92401648E-05  3.17084201E-01  3.68591062E-01 -3.75330158E-01  7.72340230E-16
  7.18244858E+00  3.53240312E-03  2.40559184E-01  3.75202811E-01 -9.04730739E-02
  2.12905506E-16  3.99488962E-06  7.58523421E-03  1.43338770E-02 -6.61930846E-03
  1.43279466E-17 -2.07906925E-09  8.63684480E-05  2.23283672E-04 -6.08678825E-05
  1.40468805E-19 -5.50401518E-10  2.81502765E-05  7.99801291E-05 -1.18853872E-06
  9.94870296E-21 -4.07545240E-08  8.69358484E-04  2.02697282E-03  4.21482411E-04
 -6.28898158E-19  4.12307624E-04  7.86371470E-02  1.36136466E-01  2.96041113E-02
 -4.47850909E-17  5.37180219E-03  5.71426149E-06  1.98499221E-04  2.09883853E-01
  0.00000000E+00  8.69314189E-09  3.48567884E-08  9.69256383E-10  1.14065223E-24
  0.00000000E+00  0.00000000E+00  0.00000000E+00  0.00000000E+00  0.00000000E+00
  1.94068816E-08  0.00000000E+00  1.07670325E-09  2.47203985E-01  2.54090222E+00
  2.09775069E+00 -1.84803893E+00  3.80282475E-15  1.78385010E+00  7.18244858E+00
 -8.11121856E-03 -3.26374163E-01 -4.62325814E-01  1.35681359E-01 -3.19291774E-16
 -1.25074415E-05 -1.22721496E-02 -2.15037470E-02  1.10605929E-02 -2.39414112E-17
  9.41649581E-09 -1.86399610E-04 -4.60696133E-04  1.31984118E-04 -3.04588407E-19
  2.71039776E-09 -6.56924579E-05 -1.80110643E-04  2.78163814E-06 -2.32837948E-20
  1.70450415E-07 -1.71921940E-03 -3.80784056E-03 -8.44844665E-04  1.26060125E-18
 -1.11445718E-03 -1.18709151E-01 -1.91316440E-01 -4.80332171E-02  7.26646367E-17
 -6.64967975E-03 -1.21043054E-05 -3.62305168E-04 -2.18932687E-01  0.00000000E+00
 -2.30451654E-08 -9.36914482E-08 -2.56945923E-09 -3.02382264E-24  0.00000000E+00
  0.00000000E+00  0.00000000E+00  0.00000000E+00  0.00000000E+00 -4.94145426E-08
  0.00000000E+00 -2.79588098E-09 -2.84534062E-01 -1.54801727E+00 -2.17717089E-01
  1.58159196E+00 -3.25454023E-15  7.18554879E-02  8.38743577E-01  7.18244858E+00
  2.15790594E-03  9.45852556E-02  1.60133873E-01  5.93943161E-02  9.18102973E-17
  6.38021322E-06  6.73710161E-03  1.30804379E-02 -3.51871074E-03  1.31161651E-17
 -2.77546113E-09  6.11549257E-05  1.58719661E-04 -1.59796246E-05  9.99091235E-20
 -4.40445579E-11  1.19298683E-06  3.39751478E-06  8.82132401E-06  4.22794655E-22
  3.73022977E-08 -4.26054993E-04 -1.00468737E-03  7.04903477E-05  3.12177462E-19
 -2.66640477E-04 -3.07456748E-02 -5.65145911E-02  1.70473283E-02  1.87268588E-17
  6.74725628E-03  5.52732293E-06 -1.75187111E-04 -1.73337203E-01  0.00000000E+00
 -9.69256383E-10 -3.88641588E-09  2.61660889E-09 -1.27178926E-25  0.00000000E+00
  0.00000000E+00  0.00000000E+00  0.00000000E+00  0.00000000E+00 -1.08247583E-08
  0.00000000E+00  8.32981337E-10  2.95522759E-01  1.89668621E+00  2.01833751E+00
 -3.14139006E-01  3.80443453E-15  0.00000000E+00  0.00000000E+00  0.00000000E+00
  7.18244858E+00 -5.07808606E-18 -2.22582486E-16 -3.76834584E-16  9.18102973E-17
  9.84086187E-02 -1.38104086E-20 -1.45829180E-17 -2.83135039E-17  1.31161651E-17
  2.54077181E-03  6.40511372E-24 -1.41131234E-19 -3.66287772E-19  9.99091235E-20
  2.73129540E-05  3.68676441E-25 -9.98593600E-21 -2.84390107E-20  4.22794655E-22
  8.87183389E-06 -5.56591347E-23  6.35720954E-19  1.49910416E-18  3.12177462E-19
  2.79709134E-04  4.03373636E-19  4.65120478E-17  8.54952568E-17  1.87268588E-17
  2.94262696E-02 -1.39758824E-17 -1.22271594E-20  3.00490360E-19  3.13045162E-16
  0.00000000E+00 -1.14065223E-24 -4.57365978E-24 -1.27178926E-25  2.72467775E-09
  0.00000000E+00  0.00000000E+00  0.00000000E+00  0.00000000E+00  0.00000000E+00
  1.50918888E-23  0.00000000E+00 -1.98662754E-24 -6.08115578E-16 -3.90292928E-15
 -4.15325873E-15  3.80443453E-15  1.53468222E+00  0.00000000E+00  0.00000000E+00
  0.00000000E+00  0.00000000E+00  7.18244858E+00  1.20014537E-02  3.49632034E-01
  4.20367459E-01  2.81957191E-01 -5.13707052E-16  1.16518780E-03  1.03126731E-01
  1.70968271E-01  1.82841930E-02 -2.03416166E-17 -6.89134414E-06  1.58437508E-03
  3.54630781E-03  4.26860021E-04 -5.38829920E-19 -1.67919452E-07  9.15146774E-05
  2.34737918E-04  7.57052257E-05 -1.29632502E-19 -1.66375648E-07  3.95529053E-04
  7.47700619E-04  5.14102075E-04 -9.40894885E-19  1.31860893E-04  1.91671676E-02
  2.39597121E-02  2.46848387E-02 -4.61675715E-17  2.05139155E-01  2.87208395E-04
  3.29553694E-05  1.26232279E-02 -1.81240717E-11 -1.30774237E-07 -1.78290579E-07
 -1.27478588E-07  2.13551775E-22  0.00000000E+00 -1.94068816E-08 -4.94145426E-08
 -1.08247583E-08  1.50918888E-23  1.03397577E-25 -6.82144569E-10 -1.14997583E-07
  3.33788628E-01  2.76062520E+00  9.44985035E-01  2.56704973E+00 -4.95788034E-15
  4.12606637E-02  6.69923381E-01 -2.00015102E-01  8.15543748E-01 -1.62359028E-15
  5.90319098E+00  1.58233011E-04  2.57637358E-02  4.62255142E-02 -5.16090015E-03
  1.45870009E-17  2.85886262E-07  7.86491460E-04  1.65184572E-03 -5.05948259E-04
  1.14988107E-18 -1.51389832E-10  5.52755640E-06  1.50788540E-05 -2.83087884E-06
  6.98581951E-21 -2.49155820E-11  1.20845950E-06  3.57525914E-06  7.01468498E-08
  2.03575242E-22 -1.17682345E-09  4.13373718E-05  1.03055228E-04  2.10628606E-05
 -3.12277824E-20  1.15536373E-05  5.76975997E-03  1.11222653E-02  2.34765974E-03
 -3.51046699E-18  1.06505768E-03  4.62219667E-07  1.07698581E-05  2.57101871E-02
  0.00000000E+00  2.89692099E-10  1.18687646E-09  5.52439891E-11 -6.60165271E-27
  0.00000000E+00  0.00000000E+00  0.00000000E+00  0.00000000E+00  0.00000000E+00
  6.82144569E-10  0.00000000E+00  5.79470070E-11  3.21945363E-02  7.36744987E-01
  9.57834628E-01 -3.23012653E-01  7.24466568E-16  4.46610969E-01  4.00872575E+00
  4.09118532E+00  7.62301203E-01 -1.09845255E-15  3.65227423E-01  9.21608439E+00
  2.48006482E-03  1.25306630E-01  1.65047583E-01 -1.13218224E-01  2.36578071E-16
  3.67117401E-06  2.90321789E-03  4.65410588E-03 -3.58757696E-03  7.44077626E-18
 -2.82664689E-08  7.43324837E-05  1.70517162E-04 -7.94902000E-05  1.70523083E-19
 -6.45249676E-08  6.95676531E-05  1.80597869E-04 -3.44813675E-05  8.28448665E-20
 -4.17547576E-06  3.29418990E-03  6.86178741E-03 -1.62581111E-04  9.36578697E-19
  2.55432571E-03  1.45626153E-01  2.32071874E-01 -3.04309624E-02  8.10793865E-17
  1.08848693E-03  3.75316329E-06  1.42596426E-03  6.38790737E-01 -1.00028461E-11
 -3.28434001E-08  2.20086756E-08  1.22187840E-08 -3.36289306E-23  0.00000000E+00
 -1.07670325E-09 -2.79588098E-09  8.32981337E-10 -1.98662754E-24  1.14997583E-07
 -5.79470070E-11  0.00000000E+00  3.16803363E-02  6.15638415E-01  3.23835239E-01
 -7.47551688E-01  1.48823120E-15  4.36930525E-01  3.37138126E+00 -3.78045554E-01
 -3.14127764E+00  6.06691740E-15  8.92302206E-02  1.21232123E+00  6.71384672E+00
Multipole Matrix (0,1,0)                   R   N=        1830
  5.26797819E-01  1.30836766E-01  5.26797819E-01  0.00000000E+00  0.00000000E+00
  5.26797819E-01  7.18554879E-02  8.38743577E-01  0.00000000E+00  5.26797819E-01
  0.00000000E+00  0.00000000E+00  0.00000000E+00  0.00000000E+00  5.26797819E-01
  1.40529174E-06  9.10235096E-02 -9.88293163E-02  1.14119690E-01 -2.28527690E-16
  2.50022004E+00  2.38467000E-02  5.55565792E-01 -3.67951860E-01  6.85149550E-01
 -8.50832442E-16  6.20960626E-01  2.50022004E+00  2.74578579E-02  4.14175877E-01
 -3.61271396E-02  5.95775892E-01 -8.35647615E-16  0.00000000E+00  0.00000000E+00
  2.50022004E+00 -2.84283990E-02 -1.97686056E-01  2.20059024E-01 -1.35183610E-01
  5.08852860E-16  7.18554879E-02  8.38743577E-01  0.00000000E+00  2.50022004E+00
  6.34920999E-17  9.57718416E-16 -8.35647615E-16  1.37764070E-15  3.25257875E-01
  0.00000000E+00  0.00000000E+00  0.00000000E+00  0.00000000E+00  2.50022004E+00
  0.00000000E+00  3.51280937E-03 -7.67247349E-03  2.66419260E-03 -5.81672566E-18
  2.09332225E-06  7.59986114E-02 -1.23944861E-01 -2.27158292E-02  3.64490689E-17
  1.97341116E+00  1.09401485E-03  7.66012128E-02 -1.03717504E-01  7.50689085E-02
 -7.86312609E-17  9.39504825E-02  8.21574410E-01 -8.63450436E-01  9.38585178E-02
  2.53919075E-16  4.90121113E-01  1.97341116E+00  2.38741533E-03  1.10049178E-01
 -1.32588576E-01  1.10571909E-01 -1.24839911E-16  1.52125246E-01  8.45206203E-01
 -6.85368885E-01  3.97586368E-02  3.43025912E-16  0.00000000E+00  0.00000000E+00
  1.97341116E+00 -6.96145649E-04  3.66371020E-03 -5.62438119E-04  1.37064077E-02
 -4.26400722E-19  3.36015731E-02  4.42418905E-01 -5.15665798E-01  4.32547112E-01
  1.51644353E-16  7.18554879E-02  8.38743577E-01  0.00000000E+00  1.97341116E+00
  1.80996911E-18  8.34314877E-17 -1.24839911E-16  8.38277849E-17  3.20798230E-02
 -4.47362121E-17 -2.48553905E-16  3.43025912E-16 -1.16920160E-17  4.81088867E-01
  0.00000000E+00  0.00000000E+00  0.00000000E+00  0.00000000E+00  1.97341116E+00
  0.00000000E+00 -2.01683197E-04  5.24759722E-04  1.30525330E-04 -1.54276559E-19
  0.00000000E+00 -7.13454218E-04  1.23203733E-03  1.19272313E-03 -2.00493734E-18
  6.74687299E-07 -1.51152072E-02  7.18654800E-03  2.40839003E-02 -4.13259872E-17
 -5.26797819E-01  2.01683197E-04  0.00000000E+00 -8.05640677E-04  1.67025836E-02
  2.36854061E-19  4.35420187E-03  6.05055965E-02 -7.18584434E-02 -2.31934514E-02
  1.16937753E-16  7.00461429E-02  2.65600168E-01 -1.03297951E-01 -3.93542081E-02
  5.94011173E-16 -1.30836766E-01 -5.26797819E-01  5.24759722E-04 -8.05640677E-04
 -8.67361738E-19  2.63135807E-02  0.00000000E+00  7.50581796E-03  6.13923745E-02
 -5.56655822E-02 -2.78660876E-02  1.31825178E-16  3.60367254E-02  7.53104054E-02
  1.16090732E-01 -2.82655839E-02  2.26704993E-16  0.00000000E+00  0.00000000E+00
 -5.26797819E-01  1.30525330E-04  1.67025836E-02 -2.63135807E-02  0.00000000E+00
  7.73605234E-18  6.74966763E-03  9.48322566E-02 -1.15635978E-01 -3.82116205E-02
  1.88178463E-16  1.10462675E-01  4.95407531E-01 -2.07807638E-01 -1.97892606E-01
  1.19499039E-15  7.18554879E-02  8.38743577E-01  0.00000000E+00 -5.26797819E-01
 -1.54276559E-19  2.36854061E-19  5.77778983E-34 -7.73605234E-18  5.42101086E-20
 -1.22144795E-17 -9.99059535E-17  1.31825178E-16  4.53474567E-17  2.53412086E-02
 -2.07227901E-16 -4.33069792E-16  2.26704993E-16  1.62540229E-16  1.55514504E-01
  0.00000000E+00  0.00000000E+00  0.00000000E+00  0.00000000E+00 -5.26797819E-01
  0.00000000E+00 -4.35420187E-03  7.50581796E-03  6.74966763E-03 -1.22144795E-17
  0.00000000E+00 -9.58221166E-04  8.05609511E-04  2.43690943E-03 -4.63527798E-18
  0.00000000E+00 -4.22596840E-03 -1.94703279E-03  9.63907279E-03 -1.88567473E-17
 -1.40529174E-06 -9.10235096E-02 -9.88293163E-02  1.14119690E-01 -2.28527690E-16
 -2.50022004E+00  7.13454218E-04 -6.05055965E-02  6.13923745E-02  9.48322566E-02
 -9.99059535E-17  9.58221166E-04 -4.33680869E-19 -1.23659119E-03  1.31728577E-02
  7.11504002E-18  3.25514958E-03 -1.61416187E-02 -2.68475025E-03  5.35786785E-02
 -2.60014404E-17 -2.38467000E-02 -5.55565792E-01 -3.67951860E-01  6.85149550E-01
 -8.50832442E-16 -6.20960626E-01 -2.50022004E+00  1.23203733E-03 -7.18584434E-02
  5.56655822E-02  1.15635978E-01 -1.31825178E-16  8.05609511E-04 -1.23659119E-03
  0.00000000E+00  8.50804914E-03  6.16297582E-33 -1.49998315E-03  6.81429539E-03
 -5.21695930E-03 -1.92775674E-02  1.49442285E-17  2.74578579E-02  4.14175877E-01
  3.61271396E-02 -5.95775892E-01  8.35647615E-16  0.00000000E+00  0.00000000E+00
 -2.50022004E+00  1.19272313E-03 -2.31934514E-02  2.78660876E-02  3.82116205E-02
 -4.53474567E-17  2.43690943E-03  1.31728577E-02 -8.50804914E-03  0.00000000E+00
  4.89532115E-17  7.44915691E-03  7.04668562E-03  4.16000888E-03  3.02674012E-02
  4.02891193E-17 -2.84283990E-02 -1.97686056E-01 -2.20059024E-01  1.35183610E-01
 -5.08852860E-16  7.18554879E-02  8.38743577E-01  0.00000000E+00 -2.50022004E+00
 -2.00493734E-18  1.16937753E-16 -1.31825178E-16 -1.88178463E-16 -2.53412086E-02
 -4.63527798E-18  7.11504002E-18 -3.08148791E-33 -4.89532115E-17  0.00000000E+00
 -1.45271324E-17  6.59955225E-17  1.49442285E-17 -1.86700614E-16 -6.76000925E-03
  6.34920999E-17  9.57718416E-16  8.35647615E-16 -1.37764070E-15 -3.25257875E-01
  0.00000000E+00  0.00000000E+00  0.00000000E+00  0.00000000E+00 -2.50022004E+00
 -6.74687299E-07 -7.00461429E-02  3.60367254E-02  1.10462675E-01 -2.07227901E-16
  0.00000000E+00 -3.25514958E-03 -1.49998315E-03  7.44915691E-03 -1.45271324E-17
  0.00000000E+00 -7.55257309E-04 -1.32978029E-03  1.52488526E-03 -3.07567827E-18
  0.00000000E+00 -3.51280937E-03 -7.67247349E-03  2.66419260E-03 -5.81672566E-18
 -2.09332225E-06 -7.59986114E-02 -1.23944861E-01 -2.27158292E-02  3.64490689E-17
 -1.97341116E+00  1.51152072E-02 -2.65600168E-01  7.53104054E-02  4.95407531E-01
 -4.33069792E-16  4.22596840E-03  1.61416187E-02  6.81429539E-03  7.04668562E-03
  6.59955225E-17  7.55257309E-04  4.33680869E-19  2.04167344E-03  1.45583795E-02
  4.72223167E-18 -1.09401485E-03 -7.66012128E-02 -1.03717504E-01  7.50689085E-02
 -7.86312609E-17 -9.39504825E-02 -8.21574410E-01 -8.63450436E-01  9.38585178E-02
  2.53919075E-16 -4.90121113E-01 -1.97341116E+00  7.18654800E-03 -1.03297951E-01
 -1.16090732E-01  2.07807638E-01 -2.26704993E-16 -1.94703279E-03 -2.68475025E-03
  5.21695930E-03 -4.16000888E-03 -1.49442285E-17 -1.32978029E-03  2.04167344E-03
 -3.46944695E-18 -1.78026033E-02 -3.08148791E-33  2.38741533E-03  1.10049178E-01
  1.32588576E-01 -1.10571909E-01  1.24839911E-16  1.52125246E-01  8.45206203E-01
  6.85368885E-01 -3.97586368E-02 -3.43025912E-16  0.00000000E+00  0.00000000E+00
 -1.97341116E+00  2.40839003E-02 -3.93542081E-02  2.82655839E-02  1.97892606E-01
 -1.62540229E-16  9.63907279E-03  5.35786785E-02  1.92775674E-02 -3.02674012E-02
  1.86700614E-16  1.52488526E-03  1.45583795E-02  1.78026033E-02  2.60208521E-18
  4.11760350E-17 -6.96145649E-04  3.66371020E-03  5.62438119E-04 -1.37064077E-02
  4.26400722E-19  3.36015731E-02  4.42418905E-01  5.15665798E-01 -4.32547112E-01
 -1.51644353E-16  7.18554879E-02  8.38743577E-01  0.00000000E+00 -1.97341116E+00
 -4.13259872E-17  5.94011173E-16 -2.26704993E-16 -1.19499039E-15 -1.55514504E-01
 -1.88567473E-17 -2.60014404E-17 -1.49442285E-17 -4.02891193E-17  6.76000925E-03
 -3.07567827E-18  4.72223167E-18  0.00000000E+00 -4.11760350E-17  2.16840434E-19
  1.80996911E-18  8.34314877E-17  1.24839911E-16 -8.38277849E-17 -3.20798230E-02
 -4.47362121E-17 -2.48553905E-16 -3.43025912E-16  1.16920160E-17 -4.81088867E-01
  0.00000000E+00  0.00000000E+00  0.00000000E+00  0.00000000E+00 -1.97341116E+00
  3.52527437E-03  2.28776380E-01 -7.79471258E-02  3.50986593E-01 -5.59993899E-16
  1.59825459E-01  1.71427366E+00  5.15701792E-01  1.89242193E+00 -2.96350940E-15
  1.09103736E-02  3.01668462E-01  3.07416394E-01  3.05733135E-01 -4.31058806E-16
 -3.19419119E-05  1.05562831E-02  1.07612236E-02  1.78102212E-02 -2.46754164E-17
 -2.73636183E-05  9.05978026E-04  4.60107643E-04  2.67941609E-03 -2.64640870E-18
 -1.60204302E-04  5.26335091E-03 -3.20235423E-04  1.27225119E-02 -1.58896934E-17
  4.47110415E+00  5.83130500E-05  1.17685902E-02 -1.70179814E-02  1.35602570E-02
 -1.92855473E-17  1.34215924E-02  2.85544122E-01 -3.56581298E-01  1.61430357E-01
 -2.18498181E-16  1.26141028E-01  1.35296685E+00 -8.51538219E-01  1.31044975E+00
 -1.96877771E-15 -2.02879132E-03  1.33131860E-01 -2.24267233E-02  2.36312895E-01
 -3.29875545E-16 -2.09936156E-04  7.06025105E-04 -2.12483008E-04  5.17243916E-03
 -1.11564383E-18 -2.15631726E-05  7.14178636E-04 -7.59345275E-04  2.15748301E-03
 -1.75611388E-18  2.00023730E-01  3.52878408E+00  3.19419119E-05 -1.05562831E-02
  1.07612236E-02  1.78102212E-02 -2.46754164E-17  2.73636183E-05 -9.05978026E-04
  4.60107643E-04  2.67941609E-03 -2.64640870E-18  1.60204302E-04 -5.26335091E-03
 -3.20235423E-04  1.27225119E-02 -1.58896934E-17 -3.52527437E-03 -2.28776380E-01
 -7.79471258E-02  3.50986593E-01 -5.59993899E-16 -1.59825459E-01 -1.71427366E+00
  5.15701792E-01  1.89242193E+00 -2.96350940E-15 -1.09103736E-02 -3.01668462E-01
  3.07416394E-01  3.05733135E-01 -4.31058806E-16  9.92537416E-20 -3.58853088E-04
 -4.47110415E+00  2.02879132E-03 -1.33131860E-01 -2.24267233E-02  2.36312895E-01
 -3.29875545E-16  2.09936156E-04 -7.06025105E-04 -2.12483008E-04  5.17243916E-03
 -1.11564383E-18  2.15631726E-05 -7.14178636E-04 -7.59345275E-04  2.15748301E-03
 -1.75611388E-18 -5.83130500E-05 -1.17685902E-02 -1.70179814E-02  1.35602570E-02
 -1.92855473E-17 -1.34215924E-02 -2.85544122E-01 -3.56581298E-01  1.61430357E-01
 -2.18498181E-16 -1.26141028E-01 -1.35296685E+00 -8.51538219E-01  1.31044975E+00
 -1.96877771E-15  3.58853088E-04  4.65868121E-21 -2.00023730E-01 -3.52878408E+00
  0.00000000E+00 -1.09649051E-07  4.41158226E-07  9.63285932E-08 -1.29745468E-22
  0.00000000E+00 -2.18987355E-06  6.90323250E-06  4.11026922E-06 -7.04799856E-21
  0.00000000E+00 -1.10539220E-03  2.05508417E-03  1.78128890E-03 -3.14455839E-18
 -5.18404827E-08 -2.87243724E-02  4.69415721E-02  1.12295906E-02 -1.38147229E-17
  0.00000000E+00 -1.34229085E-03  3.10891812E-03 -8.77245465E-04  2.16506287E-18
  0.00000000E+00 -2.69911773E-06  9.73166188E-06 -1.03541826E-06  3.31147109E-21
 -1.84705194E-07 -9.61289066E-04 -1.24884658E-03 -2.45685955E-07 -1.10885517E+00
  4.75170984E-08 -8.53376387E-05  1.81703585E-04  2.12670073E-04 -5.34393680E-20
  5.45703888E-06  1.06319452E-03 -1.88127670E-03 -1.57703903E-04  1.92072850E-18
  2.09502392E-03  2.01240458E-02 -2.72842375E-02  7.55572701E-03  4.17485956E-17
 -1.47649991E-02 -2.44116148E-01  2.61396970E-01  2.69064095E-01 -7.69281164E-17
 -2.78595510E-03 -8.39729662E-02  1.24143667E-01 -7.19640502E-03  8.64541409E-17
 -4.52834930E-06 -2.35348704E-03  4.66296190E-03  3.63324086E-04  1.58670366E-18
  2.03170355E-04  2.96530155E-02 -7.98071366E-02 -3.39157031E-04 -2.75397922E-01
 -1.10885517E+00  1.91312319E-07 -1.86275219E-04  3.74464125E-04  4.60539182E-04
 -1.18212901E-19  1.71880016E-05  1.78578265E-03 -2.89651340E-03 -2.76693874E-04
  3.31855749E-18  3.89290321E-03  1.95721007E-02 -2.16625571E-02  9.94945587E-03
  4.56706935E-17 -2.45138505E-02 -2.77660123E-01  2.41241905E-01  3.10940919E-01
 -1.10542165E-16 -6.45659380E-03 -1.19802565E-01  1.59726151E-01 -1.51133228E-02
  1.35017741E-16 -1.63340621E-05 -4.63678389E-03  8.66030618E-03  6.88618625E-04
  3.21346351E-18  3.23068357E-04  1.86366768E-02 -8.81151570E-02 -6.75119935E-04
  0.00000000E+00  0.00000000E+00 -1.10885517E+00  4.53573903E-08  1.37598512E-04
 -2.96536973E-04 -1.07521805E-05  8.72120845E-20  1.00310563E-05  1.95336709E-03
 -3.46571244E-03 -7.23342716E-04  3.53839108E-18  3.31777853E-03  4.67294846E-02
 -5.98567976E-02 -1.26773437E-02  9.15890444E-17 -3.35516703E-03  1.59037217E-01
 -1.57607281E-01 -1.18725065E-01  4.63832126E-17  2.01604465E-03  6.65902599E-02
 -1.02171920E-01 -1.64146364E-02 -7.11529288E-17  2.10213717E-06  1.48274313E-03
 -2.96209804E-03 -6.46503244E-04 -1.00793699E-18  3.68939406E-04  5.95224800E-02
  9.72510126E-02  2.99489650E-04  7.18554879E-02  8.38743577E-01  0.00000000E+00
 -1.10885517E+00 -5.62653148E-23  5.47838941E-20 -1.18212901E-19 -1.35445444E-19
 -2.74812716E-05 -1.75484471E-20 -1.82323187E-18  3.31855749E-18  2.82496356E-19
  3.53880843E-04 -5.95667158E-18 -2.99479770E-17  4.56706935E-17 -1.52240212E-17
  8.18491511E-03  7.21433130E-18  8.17142993E-17 -1.10542165E-16 -9.15087086E-17
 -1.34373520E-01 -4.49639746E-18 -8.34309802E-17  1.35017741E-16 -1.05249778E-17
 -3.41523296E-02 -5.55812308E-21 -1.57779586E-18  3.21346351E-18  2.34321814E-19
 -7.83333659E-04 -4.75001509E-19 -7.12622427E-17 -1.56247207E-16 -4.44029761E-19
  0.00000000E+00  0.00000000E+00  0.00000000E+00  0.00000000E+00 -1.10885517E+00
  0.00000000E+00  1.79693030E-10 -8.78450241E-10  3.06520573E-11 -1.20211968E-25
  0.00000000E+00  7.29652158E-08 -2.93149818E-07 -6.07512521E-08  9.89599147E-23
  0.00000000E+00  1.53712092E-04 -4.19938098E-04 -8.79305957E-05  1.50440676E-19
  0.00000000E+00  7.95993567E-04 -1.84570713E-03  5.56496979E-04 -1.14568083E-18
  0.00000000E+00  1.85568843E-06 -5.92877113E-06  3.17825510E-06 -6.44237121E-21
  0.00000000E+00  8.86523072E-10 -3.97093632E-09  1.28080397E-09 -2.72946412E-24
  3.10727293E-08  1.16501035E-03  2.71007111E-06  7.29641785E-11 -6.44145881E-07
  2.64425215E-02 -2.89706365E-02  3.29362737E-02 -6.12328052E-17  6.86446481E-01
  1.41772483E-10  7.42533371E-06 -1.92101551E-05  7.59393285E-06 -2.62882340E-21
  2.26255929E-07  4.36423996E-04 -9.42593544E-04 -4.92697577E-05  3.18195581E-19
  3.93538857E-04  2.34218137E-02 -3.85232430E-02  2.00130179E-03  1.38007548E-17
 -5.94324297E-04  3.93277728E-03 -3.67876810E-03  3.31795626E-02 -2.28351184E-18
 -8.19107170E-06 -1.71608111E-03  3.06856631E-03 -3.92255669E-04  3.33439137E-18
 -2.96046719E-09 -2.04528429E-05  4.86519065E-05  4.43308582E-06  3.34413908E-20
  1.32876737E-04  7.75489747E-02 -1.72536083E-03 -2.35855093E-06 -4.53344549E-02
 -8.50674470E-02  8.53523880E-02  2.10878466E-01  1.80402186E-16  1.70487489E-01
  6.86446481E-01  6.92966398E-10  1.92146032E-05 -4.75086497E-05  1.96508503E-05
 -6.82158648E-21  9.09960853E-07  9.38020962E-04 -1.91156240E-03 -1.10979335E-04
  6.92695638E-19  1.07616502E-03  3.73816795E-02 -5.69829678E-02  2.33800179E-03
  2.35537001E-17 -1.37839151E-03  7.79094982E-03 -7.55832485E-03  4.87691826E-02
 -5.69030432E-18 -2.61253753E-05 -2.95077316E-03  4.86500127E-03 -7.19059886E-04
  5.91106816E-18 -1.32471870E-08 -4.83648632E-05  1.09097082E-04  1.04607188E-05
  7.94348251E-20  2.65682452E-04  8.98802502E-02 -2.31512716E-03 -5.54524981E-06
 -5.08367621E-02 -3.67051120E-02  7.28900026E-03  1.52340679E-01  1.24003699E-16
  0.00000000E+00  0.00000000E+00  6.86446481E-01  4.96178197E-12  6.96574642E-06
 -1.80209454E-05  2.32684302E-06 -2.46608540E-21  2.11440145E-07  3.76199904E-04
 -8.17498588E-04  3.53866440E-05  2.75966709E-19  2.66360385E-04  1.99762856E-02
 -3.34772200E-02  5.07749024E-03  1.19930428E-17  4.33230894E-04  3.01541400E-02
 -4.39330528E-02  9.71006857E-04 -2.72704459E-17  1.33170906E-05  2.62949454E-03
 -4.74259969E-03  7.96072062E-04 -5.15344361E-18  4.04370449E-09  3.33292092E-05
 -7.93020476E-05  3.78412209E-06 -5.45090821E-20  1.55184311E-04  9.14250769E-02
  2.89182611E-03  3.68039597E-06  5.53959121E-02  3.36248976E-01 -2.72863541E-01
  1.05171317E-02 -5.76728787E-16  7.18554879E-02  8.38743577E-01  0.00000000E+00
  6.86446481E-01  9.48293377E-26  2.62943211E-21 -6.82158648E-21  2.68913056E-21
  2.34016626E-06 -3.07179616E-22 -3.16651994E-19  6.92695638E-19  3.74637980E-20
  1.40415928E-04 -3.85530615E-19 -1.33917955E-17  2.35537001E-17 -8.37577182E-19
  8.76451689E-03 -8.55605263E-19  4.83605537E-18 -5.69030432E-18  3.02723638E-17
  1.60883145E-03 -2.83885753E-20 -3.20639398E-18  5.91106816E-18 -7.81350909E-19
 -5.74823453E-04 -9.10559090E-24 -3.32440887E-20  7.94348251E-20  7.19028321E-21
 -6.46795873E-06 -1.98797440E-19 -1.13738666E-16 -4.34733683E-18 -5.01603186E-21
 -1.07449401E-16 -7.75805174E-17  1.24003699E-16  3.21989718E-16 -5.13799774E-02
  0.00000000E+00  0.00000000E+00  0.00000000E+00  0.00000000E+00  6.86446481E-01
  2.88787661E-08 -9.00115941E-05  1.75372413E-04  1.34671119E-04 -1.29426409E-19
  6.53148996E-07  1.63431695E-05 -3.30601718E-05  1.04910378E-04  5.05658445E-20
  1.24364996E-04 -1.25217778E-03  1.06925834E-03  5.17664320E-03 -2.45640604E-18
 -2.74986349E-03 -1.47719365E-01  1.51227197E-01  1.79432414E-01 -2.16076425E-16
 -2.89951500E-03 -9.21309994E-02  1.32792837E-01  4.04889857E-02 -1.83760621E-17
 -9.46657662E-06 -2.55587358E-03  4.69765080E-03  1.43475754E-03 -8.96933343E-19
  1.00170910E-05  5.56572050E-04 -2.10832753E-01 -6.88698258E-04 -7.55598187E-02
 -1.05390586E+00  2.24553390E-01  1.31886931E+00 -1.87120065E-15  3.18621290E-03
 -1.14767259E-01 -4.57723315E-02  2.09881552E-01 -2.71900794E-16 -3.13067751E+00
  6.07606960E-12  2.01029222E-07 -5.41827638E-07  3.14324736E-07 -3.39472594E-23
  6.31645618E-09  1.82422810E-05 -4.22182196E-05 -1.31408824E-06  1.38762513E-20
  1.09245217E-05  1.45077838E-03 -2.64382811E-03  2.14623251E-04  9.00606897E-19
 -2.79217786E-05 -8.62046518E-04  1.50451942E-03  3.19233942E-03  5.12145006E-19
 -5.97226773E-07 -2.32738245E-04  4.60240680E-04 -3.00215411E-05  3.45979001E-19
 -2.16067287E-10 -1.86594088E-06  4.68750142E-06  2.96614188E-07  2.36908871E-21
  6.61462976E-06  7.91769177E-03 -4.17597253E-04 -2.47174502E-07 -6.12773720E-03
 -4.61607839E-02  5.66654596E-02  5.26125654E-02  4.64114049E-17  4.03279828E-02
  2.28071239E-01 -2.16075217E-01  3.05985767E-01  6.34422499E-17 -6.90536276E-02
  2.72072857E-01  1.76137931E-08  7.21196678E-05 -1.54463534E-04  6.98937107E-05
 -8.70814013E-20  1.87397734E-05  3.55233682E-03 -6.50517333E-03  1.14230197E-03
 -1.03285881E-18  2.65553869E-03  8.41071677E-02 -1.19630534E-01  4.41288718E-02
 -4.71664263E-17 -3.74701266E-04  2.60473481E-02 -2.94177846E-02  4.35141300E-02
 -4.81395519E-17 -8.06952047E-06 -2.32510097E-04  3.69538127E-04  2.77133849E-04
  6.78994048E-19 -3.55663950E-08  1.54201192E-06 -2.12053922E-06  2.80194702E-05
 -2.51686861E-21  1.96100803E-03  4.04902198E-01 -2.33798992E-04 -8.58319652E-07
 -5.62822122E-03  7.17276409E-02 -2.82342255E-02  1.57550321E-01 -1.67719409E-16
  4.97567342E-02  8.48611001E-01  1.80259344E-01  1.12775891E+00 -1.50209892E-15
 -2.98735885E-03  2.26814007E-01  2.70826884E+00  5.18404827E-08  2.87243724E-02
  4.69415721E-02  1.12295906E-02 -1.38147229E-17  0.00000000E+00  1.34229085E-03
  3.10891812E-03 -8.77245465E-04  2.16506287E-18  0.00000000E+00  2.69911773E-06
  9.73166188E-06 -1.03541826E-06  3.31147109E-21  0.00000000E+00  1.09649051E-07
  4.41158226E-07  9.63285932E-08 -1.29745468E-22  0.00000000E+00  2.18987355E-06
  6.90323250E-06  4.11026922E-06 -7.04799856E-21  0.00000000E+00  1.10539220E-03
  2.05508417E-03  1.78128890E-03 -3.14455839E-18  1.24884658E-03  2.45685955E-07
  1.84705194E-07  9.61289066E-04  0.00000000E+00  0.00000000E+00  0.00000000E+00
  0.00000000E+00  0.00000000E+00  0.00000000E+00  0.00000000E+00  0.00000000E+00
  0.00000000E+00  0.00000000E+00  3.42133405E-12  0.00000000E+00  2.36721577E-12
  1.10885517E+00  1.47649991E-02  2.44116148E-01  2.61396970E-01  2.69064095E-01
 -7.69281164E-17  2.78595510E-03  8.39729662E-02  1.24143667E-01 -7.19640502E-03
  8.64541409E-17  4.52834930E-06  2.35348704E-03  4.66296190E-03  3.63324086E-04
  1.58670366E-18 -4.75170984E-08  8.53376387E-05  1.81703585E-04  2.12670073E-04
 -5.34393680E-20 -5.45703888E-06 -1.06319452E-03 -1.88127670E-03 -1.57703903E-04
  1.92072850E-18 -2.09502392E-03 -2.01240458E-02 -2.72842375E-02  7.55572701E-03
  4.17485956E-17  7.98071366E-02  3.39157031E-04 -2.03170355E-04 -2.96530155E-02
  0.00000000E+00  0.00000000E+00 -3.25613395E-10  3.34526976E-07  9.57801088E-26
  0.00000000E+00  8.92910009E-09  2.97367941E-08  6.90137646E-09  1.17161298E-24
 -1.73267416E-07  2.43339655E-10  3.05670054E-07  2.75397922E-01  1.10885517E+00
 -2.45138505E-02 -2.77660123E-01 -2.41241905E-01 -3.10940919E-01  1.10542165E-16
 -6.45659380E-03 -1.19802565E-01 -1.59726151E-01  1.51133228E-02 -1.35017741E-16
 -1.63340621E-05 -4.63678389E-03 -8.66030618E-03 -6.88618625E-04 -3.21346351E-18
  1.91312319E-07 -1.86275219E-04 -3.74464125E-04 -4.60539182E-04  1.18212901E-19
  1.71880016E-05  1.78578265E-03  2.89651340E-03  2.76693874E-04 -3.31855749E-18
  3.89290321E-03  1.95721007E-02  2.16625571E-02 -9.94945587E-03 -4.56706935E-17
 -8.81151570E-02 -6.75119935E-04  3.23068357E-04  1.86366768E-02  0.00000000E+00
 -3.25613395E-10 -1.65436123E-24 -9.60700852E-07  3.67341985E-40  0.00000000E+00
 -2.97367941E-08 -9.62345178E-08 -2.29838179E-08 -3.90185055E-24  4.47436382E-07
 -8.12468190E-10 -8.47151686E-07  0.00000000E+00  0.00000000E+00  1.10885517E+00
 -3.35516703E-03  1.59037217E-01  1.57607281E-01  1.18725065E-01 -4.63832126E-17
  2.01604465E-03  6.65902599E-02  1.02171920E-01  1.64146364E-02  7.11529288E-17
  2.10213717E-06  1.48274313E-03  2.96209804E-03  6.46503244E-04  1.00793699E-18
  4.53573903E-08  1.37598512E-04  2.96536973E-04  1.07521805E-05 -8.72120845E-20
  1.00310563E-05  1.95336709E-03  3.46571244E-03  7.23342716E-04 -3.53839108E-18
  3.31777853E-03  4.67294846E-02  5.98567976E-02  1.26773437E-02 -9.15890444E-17
  9.72510126E-02  2.99489650E-04  3.68939406E-04  5.95224800E-02  0.00000000E+00
  3.34526976E-07  9.60700852E-07  1.80945759E-25 -2.82592895E-22  0.00000000E+00
  4.91024659E-09  1.63527108E-08  2.68763158E-09  6.44287622E-25  3.29935096E-07
  1.73241010E-10  2.26349678E-07  7.18554879E-02  8.38743577E-01  0.00000000E+00
  1.10885517E+00  7.21433130E-18  8.17142993E-17  1.10542165E-16  9.15087086E-17
  1.34373520E-01 -4.49639746E-18 -8.34309802E-17 -1.35017741E-16  1.05249778E-17
  3.41523296E-02 -5.55812308E-21 -1.57779586E-18 -3.21346351E-18 -2.34321814E-19
  7.83333659E-04 -5.62653148E-23  5.47838941E-20  1.18212901E-19  1.35445444E-19
  2.74812716E-05 -1.75484471E-20 -1.82323187E-18 -3.31855749E-18 -2.82496356E-19
 -3.53880843E-04 -5.95667158E-18 -2.99479770E-17 -4.56706935E-17  1.52240212E-17
 -8.18491511E-03 -1.56247207E-16 -4.44029761E-19 -4.75001509E-19 -7.12622427E-17
  0.00000000E+00  9.57801088E-26  0.00000000E+00  2.82592895E-22  1.29246971E-26
  0.00000000E+00 -1.17161298E-24 -3.90185055E-24 -9.05549517E-25  2.79863376E-09
 -2.80276828E-22  5.54534937E-27 -3.06963465E-22  0.00000000E+00  0.00000000E+00
  0.00000000E+00  0.00000000E+00  1.10885517E+00  0.00000000E+00 -7.95993567E-04
 -1.84570713E-03  5.56496979E-04 -1.14568083E-18  0.00000000E+00 -1.85568843E-06
 -5.92877113E-06  3.17825510E-06 -6.44237121E-21  0.00000000E+00 -8.86523072E-10
 -3.97093632E-09  1.28080397E-09 -2.72946412E-24  0.00000000E+00 -1.79693030E-10
 -8.78450241E-10  3.06520573E-11 -1.20211968E-25  0.00000000E+00 -7.29652158E-08
 -2.93149818E-07 -6.07512521E-08  9.89599147E-23  0.00000000E+00 -1.53712092E-04
 -4.19938098E-04 -8.79305957E-05  1.50440676E-19 -2.71007111E-06 -7.29641785E-11
 -3.10727293E-08 -1.16501035E-03  0.00000000E+00  0.00000000E+00  0.00000000E+00
  0.00000000E+00  0.00000000E+00  0.00000000E+00  0.00000000E+00  0.00000000E+00
  0.00000000E+00  0.00000000E+00  0.00000000E+00  0.00000000E+00  0.00000000E+00
  6.44145881E-07 -2.64425215E-02 -2.89706365E-02  3.29362737E-02 -6.12328052E-17
 -6.86446481E-01  5.94324297E-04 -3.93277728E-03 -3.67876810E-03  3.31795626E-02
 -2.28351184E-18  8.19107170E-06  1.71608111E-03  3.06856631E-03 -3.92255669E-04
  3.33439137E-18  2.96046719E-09  2.04528429E-05  4.86519065E-05  4.43308582E-06
  3.34413908E-20 -1.41772483E-10 -7.42533371E-06 -1.92101551E-05  7.59393285E-06
 -2.62882340E-21 -2.26255929E-07 -4.36423996E-04 -9.42593544E-04 -4.92697577E-05
  3.18195581E-19 -3.93538857E-04 -2.34218137E-02 -3.85232430E-02  2.00130179E-03
  1.38007548E-17  1.72536083E-03  2.35855093E-06 -1.32876737E-04 -7.75489747E-02
  0.00000000E+00 -8.92910009E-09 -2.97367941E-08  4.91024659E-09 -1.17161298E-24
  0.00000000E+00  0.00000000E+00  0.00000000E+00  0.00000000E+00  0.00000000E+00
 -2.20219345E-08  0.00000000E+00  7.08742032E-10  4.53344549E-02  8.50674470E-02
  8.53523880E-02  2.10878466E-01  1.80402186E-16 -1.70487489E-01 -6.86446481E-01
 -1.37839151E-03  7.79094982E-03  7.55832485E-03 -4.87691826E-02  5.69030432E-18
 -2.61253753E-05 -2.95077316E-03 -4.86500127E-03  7.19059886E-04 -5.91106816E-18
 -1.32471870E-08 -4.83648632E-05 -1.09097082E-04 -1.04607188E-05 -7.94348251E-20
  6.92966398E-10  1.92146032E-05  4.75086497E-05 -1.96508503E-05  6.82158648E-21
  9.09960853E-07  9.38020962E-04  1.91156240E-03  1.10979335E-04 -6.92695638E-19
  1.07616502E-03  3.73816795E-02  5.69829678E-02 -2.33800179E-03 -2.35537001E-17
 -2.31512716E-03 -5.54524981E-06  2.65682452E-04  8.98802502E-02  0.00000000E+00
  2.97367941E-08  9.62345178E-08 -1.63527108E-08  3.90185055E-24  0.00000000E+00
  0.00000000E+00  0.00000000E+00  0.00000000E+00  0.00000000E+00  6.56927895E-08
  0.00000000E+00 -2.24451809E-09 -5.08367621E-02 -3.67051120E-02 -7.28900026E-03
 -1.52340679E-01 -1.24003699E-16  0.00000000E+00  0.00000000E+00 -6.86446481E-01
  4.33230894E-04  3.01541400E-02  4.39330528E-02 -9.71006857E-04  2.72704459E-17
  1.33170906E-05  2.62949454E-03  4.74259969E-03 -7.96072062E-04  5.15344361E-18
  4.04370449E-09  3.33292092E-05  7.93020476E-05 -3.78412209E-06  5.45090821E-20
  4.96178197E-12  6.96574642E-06  1.80209454E-05 -2.32684302E-06  2.46608540E-21
  2.11440145E-07  3.76199904E-04  8.17498588E-04 -3.53866440E-05 -2.75966709E-19
  2.66360385E-04  1.99762856E-02  3.34772200E-02 -5.07749024E-03 -1.19930428E-17
  2.89182611E-03  3.68039597E-06  1.55184311E-04  9.14250769E-02  0.00000000E+00
  6.90137646E-09  2.29838179E-08 -2.68763158E-09  9.05549517E-25  0.00000000E+00
  0.00000000E+00  0.00000000E+00  0.00000000E+00  0.00000000E+00  2.08083656E-08
  0.00000000E+00  1.16224663E-09  5.53959121E-02  3.36248976E-01  2.72863541E-01
 -1.05171317E-02  5.76728787E-16  7.18554879E-02  8.38743577E-01  0.00000000E+00
 -6.86446481E-01 -8.55605263E-19  4.83605537E-18  5.69030432E-18 -3.02723638E-17
 -1.60883145E-03 -2.83885753E-20 -3.20639398E-18 -5.91106816E-18  7.81350909E-19
  5.74823453E-04 -9.10559090E-24 -3.32440887E-20 -7.94348251E-20 -7.19028321E-21
  6.46795873E-06  9.48293377E-26  2.62943211E-21  6.82158648E-21 -2.68913056E-21
 -2.34016626E-06 -3.07179616E-22 -3.16651994E-19 -6.92695638E-19 -3.74637980E-20
 -1.40415928E-04 -3.85530615E-19 -1.33917955E-17 -2.35537001E-17  8.37577182E-19
 -8.76451689E-03 -4.34733683E-18 -5.01603186E-21 -1.98797440E-19 -1.13738666E-16
  0.00000000E+00  1.17161298E-24  3.90185055E-24 -6.44287622E-25 -2.79863376E-09
  0.00000000E+00  0.00000000E+00  0.00000000E+00  0.00000000E+00  0.00000000E+00
 -1.71076515E-23  0.00000000E+00 -1.30770149E-24 -1.07449401E-16 -7.75805174E-17
 -1.24003699E-16 -3.21989718E-16  5.13799774E-02  0.00000000E+00  0.00000000E+00
  0.00000000E+00  0.00000000E+00 -6.86446481E-01  2.74986349E-03  1.47719365E-01
  1.51227197E-01  1.79432414E-01 -2.16076425E-16  2.89951500E-03  9.21309994E-02
  1.32792837E-01  4.04889857E-02 -1.83760621E-17  9.46657662E-06  2.55587358E-03
  4.69765080E-03  1.43475754E-03 -8.96933343E-19 -2.88787661E-08  9.00115941E-05
  1.75372413E-04  1.34671119E-04 -1.29426409E-19 -6.53148996E-07 -1.63431695E-05
 -3.30601718E-05  1.04910378E-04  5.05658445E-20 -1.24364996E-04  1.25217778E-03
  1.06925834E-03  5.17664320E-03 -2.45640604E-18  2.10832753E-01  6.88698258E-04
 -1.00170910E-05 -5.56572050E-04 -3.42133405E-12  1.73267416E-07  4.47436382E-07
  3.29935096E-07 -2.80276828E-22  0.00000000E+00  2.20219345E-08  6.56927895E-08
  2.08083656E-08 -1.71076515E-23  5.49299626E-26  7.00646654E-10  8.28298229E-07
  7.55598187E-02  1.05390586E+00  2.24553390E-01  1.31886931E+00 -1.87120065E-15
 -3.18621290E-03  1.14767259E-01 -4.57723315E-02  2.09881552E-01 -2.71900794E-16
  3.13067751E+00  2.79217786E-05  8.62046518E-04  1.50451942E-03  3.19233942E-03
  5.12145006E-19  5.97226773E-07  2.32738245E-04  4.60240680E-04 -3.00215411E-05
  3.45979001E-19  2.16067287E-10  1.86594088E-06  4.68750142E-06  2.96614188E-07
  2.36908871E-21 -6.07606960E-12 -2.01029222E-07 -5.41827638E-07  3.14324736E-07
 -3.39472594E-23 -6.31645618E-09 -1.82422810E-05 -4.22182196E-05 -1.31408824E-06
  1.38762513E-20 -1.09245217E-05 -1.45077838E-03 -2.64382811E-03  2.14623251E-04
  9.00606897E-19  4.17597253E-04  2.47174502E-07 -6.61462976E-06 -7.91769177E-03
  0.00000000E+00 -2.43339655E-10 -8.12468190E-10  1.73241010E-10  5.54534937E-27
  0.00000000E+00  0.00000000E+00  0.00000000E+00  0.00000000E+00  0.00000000E+00
 -7.00646654E-10  0.00000000E+00  5.64176087E-11  6.12773720E-03  4.61607839E-02
  5.66654596E-02  5.26125654E-02  4.64114049E-17 -4.03279828E-02 -2.28071239E-01
 -2.16075217E-01  3.05985767E-01  6.34422499E-17  6.90536276E-02 -2.72072857E-01
  3.74701266E-04 -2.60473481E-02 -2.94177846E-02  4.35141300E-02 -4.81395519E-17
  8.06952047E-06  2.32510097E-04  3.69538127E-04  2.77133849E-04  6.78994048E-19
  3.55663950E-08 -1.54201192E-06 -2.12053922E-06  2.80194702E-05 -2.51686861E-21
 -1.76137931E-08 -7.21196678E-05 -1.54463534E-04  6.98937107E-05 -8.70814013E-20
 -1.87397734E-05 -3.55233682E-03 -6.50517333E-03  1.14230197E-03 -1.03285881E-18
 -2.65553869E-03 -8.41071677E-02 -1.19630534E-01  4.41288718E-02 -4.71664263E-17
  2.33798992E-04  8.58319652E-07 -1.96100803E-03 -4.04902198E-01 -2.36721577E-12
 -3.05670054E-07 -8.47151686E-07  2.26349678E-07 -3.06963465E-22  0.00000000E+00
 -7.08742032E-10 -2.24451809E-09  1.16224663E-09 -1.30770149E-24 -8.28298229E-07
 -5.64176087E-11  0.00000000E+00  5.62822122E-03 -7.17276409E-02 -2.82342255E-02
  1.57550321E-01 -1.67719409E-16 -4.97567342E-02 -8.48611001E-01  1.80259344E-01
  1.12775891E+00 -1.50209892E-15  2.98735885E-03 -2.26814007E-01 -2.70826884E+00
Multipole Matrix (0,0,1)                   R   N=        1830
 -7.59359635E-16 -1.88596374E-16 -7.59359635E-16  0.00000000E+00  0.00000000E+00
 -7.59359635E-16  0.00000000E+00  0.00000000E+00  0.00000000E+00 -7.59359635E-16
  7.18554879E-02  8.38743577E-01  0.00000000E+00  0.00000000E+00 -7.59359635E-16
 -2.58188384E-21 -1.74331331E-16  1.89115804E-16 -2.13466621E-16  2.56497136E-03
 -4.80205391E-15 -3.67149097E-17 -1.02071784E-15  6.71138745E-16 -7.57555515E-16
  2.69819690E-01 -1.19264959E-15 -4.80205391E-15 -4.29063493E-17 -7.65831895E-16
  6.63748853E-17 -7.49449716E-16  1.87858434E-01  0.00000000E+00  0.00000000E+00
 -4.80205391E-15  4.84310313E-17  8.64441489E-16 -7.49449716E-16  2.48367202E-16
 -2.12047351E-01  0.00000000E+00  0.00000000E+00  0.00000000E+00 -4.80205391E-15
  2.56497136E-03  2.69819690E-01 -1.87858434E-01  2.12047351E-01 -5.97582715E-16
  7.18554879E-02  8.38743577E-01  0.00000000E+00  0.00000000E+00 -4.80205391E-15
  0.00000000E+00 -7.16888258E-18  1.56582164E-17 -5.23036630E-18  1.01330663E-04
 -4.13864263E-21 -1.55061139E-16  2.52592882E-16  5.15281249E-17  2.56851859E-03
 -4.04262387E-15 -1.67913538E-18 -1.47122806E-16  1.98098405E-16 -6.61714716E-17
  4.04238045E-02 -1.80939955E-16 -1.62430934E-15  1.70221622E-15  3.47246561E-16
  2.69999593E-01 -1.00403573E-15 -4.04262387E-15 -3.66313659E-18 -2.12468907E-16
  2.54653976E-16 -1.05643902E-16  5.55671733E-02 -2.93216782E-16 -1.67591594E-15
  1.35502161E-15  4.70450659E-16  2.77712217E-01  0.00000000E+00  0.00000000E+00
 -4.04262387E-15  1.22360974E-18  7.09716983E-17 -1.05643902E-16 -2.63249769E-17
 -1.85612884E-02 -5.98152680E-17 -3.41881391E-16  4.70450659E-16 -8.55175508E-16
  5.66523874E-02  0.00000000E+00  0.00000000E+00  0.00000000E+00 -4.04262387E-15
  1.01330663E-04  4.04238045E-02 -5.55671733E-02  1.85612884E-02 -6.16135621E-17
  2.56851859E-03  2.69999593E-01 -2.77712217E-01 -5.66523874E-02 -9.51145910E-16
  7.18554879E-02  8.38743577E-01  0.00000000E+00  0.00000000E+00 -4.04262387E-15
  0.00000000E+00  2.90718893E-19 -7.56421793E-19 -1.54276559E-19  2.34975779E-05
  0.00000000E+00  9.26132617E-19 -1.60070784E-18 -1.41781250E-18  1.01457197E-04
 -1.53128457E-21  1.94456367E-17 -8.76853305E-18 -2.62533964E-17  2.56704084E-03
  7.59359635E-16 -2.90718893E-19  1.92592994E-34  1.16130133E-18  2.36854061E-19
  1.68668986E-02 -8.38446036E-18 -1.23949972E-16  1.46101274E-16  1.29407883E-16
  4.04545156E-02 -1.44118050E-16 -6.02811759E-16  2.29563552E-16  6.87323968E-16
  2.69924669E-01  1.88596374E-16  7.59359635E-16 -7.56421793E-19  1.16130133E-18
  0.00000000E+00  3.85185989E-34  2.63135807E-02 -1.44529889E-17 -1.26872403E-16
  1.14034862E-16  1.46987040E-16  4.38849454E-02 -7.42475060E-17 -1.75809752E-16
 -2.63481981E-16  2.67898389E-16  8.97710268E-02  0.00000000E+00  0.00000000E+00
  7.59359635E-16 -1.54276559E-19  2.36854061E-19 -1.92592994E-34  4.81482486E-35
  5.36680554E-03 -1.28016043E-17 -1.12376084E-16  1.46987040E-16  7.82791933E-17
  3.88706938E-02 -2.22300491E-16 -5.26382587E-16  2.67898389E-16  4.49141245E-16
  2.68778636E-01  0.00000000E+00  0.00000000E+00  0.00000000E+00  7.59359635E-16
  2.34975779E-05  1.68668986E-02 -2.63135807E-02 -5.36680554E-03  1.15555797E-33
  1.01457197E-04  4.04545156E-02 -4.38849454E-02 -3.88706938E-02 -5.19132489E-17
  2.56704084E-03  2.69924669E-01 -8.97710268E-02 -2.68778636E-01 -3.52959009E-16
  7.18554879E-02  8.38743577E-01  0.00000000E+00  0.00000000E+00  7.59359635E-16
  0.00000000E+00  8.38446036E-18 -1.44529889E-17 -1.28016043E-17  1.01457197E-04
  0.00000000E+00  1.84040989E-18 -1.54729593E-18 -4.63527798E-18  2.35223426E-05
  0.00000000E+00  8.09509336E-18  3.72972016E-18 -1.82703946E-17  1.01344527E-04
  2.58188384E-21  1.74331331E-16  1.89115804E-16 -2.13466621E-16  2.56497136E-03
  4.80205391E-15 -9.26132617E-19  1.23949972E-16 -1.26872403E-16 -1.12376084E-16
  4.04545156E-02 -1.84040989E-18  2.31111593E-33  2.37506198E-18  7.11504002E-18
  1.68773487E-02 -6.69559345E-18  2.32692170E-17  2.76455508E-18 -1.35424402E-17
  4.04271700E-02  3.67149097E-17  1.02071784E-15  6.71138745E-16 -7.57555515E-16
  2.69819690E-01  1.19264959E-15  4.80205391E-15 -1.60070784E-18  1.46101274E-16
 -1.14034862E-16 -1.46987040E-16  4.38849454E-02 -1.54729593E-18  2.37506198E-18
  9.62964972E-35  0.00000000E+00  8.50804914E-03  3.08526837E-18 -1.09289510E-17
  7.52059381E-18  1.08964830E-17 -1.17187881E-02 -4.29063493E-17 -7.65831895E-16
 -6.63748853E-17  7.49449716E-16 -1.87858434E-01  0.00000000E+00  0.00000000E+00
  4.80205391E-15 -1.41781250E-18  1.29407883E-16 -1.46987040E-16 -7.82791933E-17
  3.88706938E-02 -4.63527798E-18  7.11504002E-18 -3.08148791E-33 -6.16297582E-33
  2.54878022E-02 -1.51134852E-17  5.35365223E-17  1.08964830E-17 -4.36324719E-17
  5.74056159E-02  4.84310313E-17  8.64441489E-16  7.49449716E-16 -2.48367202E-16
  2.12047351E-01  0.00000000E+00  0.00000000E+00  0.00000000E+00  4.80205391E-15
  1.01457197E-04  4.04545156E-02 -4.38849454E-02 -3.88706938E-02  5.19132489E-17
  2.35223426E-05  1.68773487E-02 -8.50804914E-03 -2.54878022E-02  1.54074396E-33
  1.01344527E-04  4.04271700E-02  1.17187881E-02 -5.74056159E-02  9.74500293E-18
  2.56497136E-03  2.69819690E-01  1.87858434E-01 -2.12047351E-01  5.97582715E-16
  7.18554879E-02  8.38743577E-01  0.00000000E+00  0.00000000E+00  4.80205391E-15
  1.53128457E-21  1.44118050E-16 -7.42475060E-17 -2.22300491E-16  2.56704084E-03
  0.00000000E+00  6.69559345E-18  3.08526837E-18 -1.51134852E-17  1.01344527E-04
  0.00000000E+00  1.54717947E-18  2.72411633E-18 -3.07567827E-18  2.34896254E-05
  0.00000000E+00  7.16888258E-18  1.56582164E-17 -5.23036630E-18  1.01330663E-04
  4.13864263E-21  1.55061139E-16  2.52592882E-16  5.15281249E-17  2.56851859E-03
  4.04262387E-15 -1.94456367E-17  6.02811759E-16 -1.75809752E-16 -5.26382587E-16
  2.69924669E-01 -8.09509336E-18 -2.32692170E-17 -1.09289510E-17  5.35365223E-17
  4.04271700E-02 -1.54717947E-18 -7.70371978E-34 -4.18246230E-18  4.72223167E-18
  1.68635419E-02  1.67913538E-18  1.47122806E-16  1.98098405E-16 -6.61714716E-17
  4.04238045E-02  1.80939955E-16  1.62430934E-15  1.70221622E-15  3.47246561E-16
  2.69999593E-01  1.00403573E-15  4.04262387E-15 -8.76853305E-18  2.29563552E-16
  2.63481981E-16 -2.67898389E-16  8.97710268E-02  3.72972016E-18  2.76455508E-18
 -7.52059381E-18 -1.08964830E-17 -1.17187881E-02  2.72411633E-18 -4.18246230E-18
  6.16297582E-33 -6.16297582E-33 -1.78026033E-02 -3.66313659E-18 -2.12468907E-16
 -2.54653976E-16  1.05643902E-16 -5.55671733E-02 -2.93216782E-16 -1.67591594E-15
 -1.35502161E-15 -4.70450659E-16 -2.77712217E-01  0.00000000E+00  0.00000000E+00
  4.04262387E-15 -2.62533964E-17  6.87323968E-16 -2.67898389E-16 -4.49141245E-16
  2.68778636E-01 -1.82703946E-17 -1.35424402E-17 -1.08964830E-17  4.36324719E-17
  5.74056159E-02 -3.07567827E-18  4.72223167E-18  0.00000000E+00 -1.54074396E-33
  2.01001255E-02  1.22360974E-18  7.09716983E-17  1.05643902E-16  2.63249769E-17
  1.85612884E-02 -5.98152680E-17 -3.41881391E-16 -4.70450659E-16  8.55175508E-16
 -5.66523874E-02  0.00000000E+00  0.00000000E+00  0.00000000E+00  4.04262387E-15
  2.56704084E-03  2.69924669E-01 -8.97710268E-02 -2.68778636E-01  3.52959009E-16
  1.01344527E-04  4.04271700E-02  1.17187881E-02 -5.74056159E-02 -9.74500293E-18
  2.34896254E-05  1.68635419E-02  1.78026033E-02 -2.01001255E-02 -1.54074396E-33
  1.01330663E-04  4.04238045E-02  5.55671733E-02 -1.85612884E-02  6.16135621E-17
  2.56851859E-03  2.69999593E-01  2.77712217E-01  5.66523874E-02  9.51145910E-16
  7.18554879E-02  8.38743577E-01  0.00000000E+00  0.00000000E+00  4.04262387E-15
 -5.48250643E-18 -4.26684531E-16  1.45278967E-16 -5.25903600E-16  6.88213560E-02
 -3.06968844E-16 -3.29250244E-15 -9.90477572E-16 -2.96355676E-15  3.49417246E-01
 -2.22433479E-17 -5.92107380E-16 -6.03610582E-16 -4.65154722E-16  6.88317426E-02
  3.89580926E-20 -2.11981332E-17 -2.16510805E-17 -2.65467446E-17  4.61570854E-03
  5.25560400E-20 -1.74000172E-18 -8.83669257E-19 -2.64631274E-18  1.30153776E-03
  3.30076581E-19 -9.18578867E-18  5.53703051E-19 -1.40187982E-17  4.61470797E-03
 -8.58735257E-15 -9.11305889E-20 -2.29398441E-17  3.31202696E-17 -1.74160898E-17
  4.61145632E-03 -2.58626971E-17 -5.68850067E-16  7.10081982E-16 -1.84408293E-16
  6.88261926E-02 -2.58405947E-16 -2.77162999E-15  1.74442458E-15 -1.96875184E-15
  3.49406516E-01  2.52335163E-18 -2.88837430E-16  4.87401379E-17 -3.63973785E-16
  6.88382076E-02  4.01722915E-19 -2.61560771E-18  1.13479494E-18 -2.98581555E-18
  4.61336453E-03  4.41731286E-20 -1.46307440E-18  1.55560834E-18 -1.75616623E-18
  1.30023861E-03 -3.95459651E-16 -7.22893583E-15 -3.89580926E-20  2.11981332E-17
 -2.16510805E-17 -2.65467446E-17  4.61570854E-03 -5.25560400E-20  1.74000172E-18
 -8.83669257E-19 -2.64631274E-18  1.30153776E-03 -3.30076581E-19  9.18578867E-18
  5.53703051E-19 -1.40187982E-17  4.61470797E-03  5.48250643E-18  4.26684531E-16
  1.45278967E-16 -5.25903600E-16  6.88213560E-02  3.06968844E-16  3.29250244E-15
 -9.90477572E-16 -2.96355676E-15  3.49417246E-01  2.22433479E-17  5.92107380E-16
 -6.03610582E-16 -4.65154722E-16  6.88317426E-02  0.00000000E+00  5.17310477E-19
  8.58735257E-15 -2.52335163E-18  2.88837430E-16  4.87401379E-17 -3.63973785E-16
  6.88382076E-02 -4.01722915E-19  2.61560771E-18  1.13479494E-18 -2.98581555E-18
  4.61336453E-03 -4.41731286E-20  1.46307440E-18  1.55560834E-18 -1.75616623E-18
  1.30023861E-03  9.11305889E-20  2.29398441E-17  3.31202696E-17 -1.74160898E-17
  4.61145632E-03  2.58626971E-17  5.68850067E-16  7.10081982E-16 -1.84408293E-16
  6.88261926E-02  2.58405947E-16  2.77162999E-15  1.74442458E-15 -1.96875184E-15
  3.49406516E-01 -5.17310477E-19 -8.27548023E-36  3.95459651E-16  7.22893583E-15
  0.00000000E+00  1.58077988E-22 -6.36005532E-22 -1.29751844E-22  6.32765727E-09
  0.00000000E+00  3.01972404E-21 -9.52302886E-21 -5.48226471E-21  1.36181928E-07
  0.00000000E+00  1.52993083E-18 -2.84538439E-18 -2.37885424E-18  6.31570064E-05
  7.47333086E-23  4.14108392E-17 -6.76738376E-17 -1.38128988E-17  1.64835203E-03
  0.00000000E+00  1.99876498E-18 -4.62834839E-18  1.39994124E-18  6.31121590E-05
  0.00000000E+00  4.02838667E-21 -1.45207940E-20  1.74788147E-21  1.35990924E-07
  2.49874299E-22  1.30881666E-18  1.87744537E-18  3.70586071E-22  1.59859989E-15
 -6.84929411E-23  1.23044200E-19 -2.61990153E-19 -5.34487573E-20  1.75600623E-04
 -1.05419881E-20 -2.44788038E-18  4.30616531E-18  2.47899470E-18  9.25318841E-04
 -4.32753296E-18 -5.68889136E-17  7.32868316E-17  6.12706987E-17  3.03664320E-02
  2.12834963E-17  3.51918163E-16 -3.76828185E-16 -7.69143551E-17  2.15710392E-01
  5.32263219E-18  1.48925099E-16 -2.21315371E-16  6.69414854E-17  3.03534562E-02
  9.19946398E-21  4.30739772E-18 -8.54728922E-18  1.02884515E-18  9.24609145E-04
 -4.38150865E-19 -7.20554202E-17  1.44355909E-16  6.34093067E-19  3.97032089E-16
  1.59859989E-15 -2.75764844E-22  2.68580627E-19 -5.39921648E-19 -1.18233413E-19
  3.78538078E-04 -3.32025004E-20 -4.13680770E-18  6.66888157E-18  4.30822528E-18
  1.59450928E-03 -8.04073773E-18 -5.91719289E-17  6.12381499E-17  7.05418401E-17
  3.49031267E-02  3.53363943E-17  4.00277236E-16 -3.47774651E-16 -1.10522988E-16
  2.34274100E-01  1.23359781E-17  2.11320494E-16 -2.83272510E-16  1.04002021E-16
  4.35292983E-02  3.31852008E-20  8.47328630E-18 -1.58502607E-17  2.08048311E-18
  1.82535833E-03 -6.98610069E-19 -4.56759623E-17  1.59136391E-16  1.26081711E-18
  0.00000000E+00  0.00000000E+00  1.59859989E-15 -5.62589397E-23  5.47932835E-20
 -1.18233413E-19  1.55030473E-20  7.72257644E-05 -1.91141809E-20 -2.38149807E-18
  4.30822528E-18  1.66541156E-18  9.17935050E-04 -6.72237573E-18 -4.94700800E-17
  7.05418401E-17  3.58377393E-17  2.91803986E-02  7.21250716E-18  8.17005381E-17
 -1.10522988E-16  1.71154211E-16  4.78176581E-02 -3.73127583E-18 -6.39183247E-17
  1.04002021E-16  2.91111707E-17 -1.31663511E-02 -3.99453347E-21 -1.01993735E-18
  2.08048311E-18  1.18324280E-18 -2.19720079E-04 -5.62684295E-19 -9.17563644E-17
 -1.35756723E-16 -3.56411363E-19  0.00000000E+00  0.00000000E+00  0.00000000E+00
  1.59859989E-15  6.32765727E-09  1.75600623E-04 -3.78538078E-04 -7.72257644E-05
  3.96239119E-20  1.36181928E-07  9.25318841E-04 -1.59450928E-03 -9.17935050E-04
 -8.14769035E-19  6.31570064E-05  3.03664320E-02 -3.49031267E-02 -2.91803986E-02
 -2.31380375E-17  1.64835203E-03  2.15710392E-01 -2.34274100E-01 -4.78176581E-02
  1.93713044E-16  6.31121590E-05  3.03534562E-02 -4.35292983E-02  1.31663511E-02
  6.05687677E-17  1.35990924E-07  9.24609145E-04 -1.82535833E-03  2.19720079E-04
  1.43367249E-18  1.08729170E-04  2.20841071E-02  2.20813743E-02  1.08644829E-04
  7.18554879E-02  8.38743577E-01  0.00000000E+00  0.00000000E+00  1.59859989E-15
  0.00000000E+00 -5.36951507E-25  2.62526523E-24 -4.29190991E-26  1.62907301E-11
  0.00000000E+00 -2.09479024E-22  8.41932751E-22  1.90478613E-22  5.57087484E-09
  0.00000000E+00 -4.50058527E-19  1.22995771E-18  2.91265298E-19  1.15146085E-05
  0.00000000E+00 -2.47992047E-18  5.74939097E-18 -1.51654448E-18  6.96459408E-05
  0.00000000E+00 -6.14690565E-21  1.96239195E-20 -9.85134387E-21  2.01970823E-07
  0.00000000E+00 -2.87024487E-24  1.28511417E-23 -3.82766996E-24  9.80737454E-11
 -8.77079632E-23 -3.37157920E-18 -9.28331757E-21 -2.41977997E-25 -7.58051686E-22
 -8.49662950E-17  9.49787076E-17 -9.75567173E-17  3.17928639E-03 -2.09570409E-15
 -2.19536302E-25 -1.74736456E-20  4.51928604E-20 -7.38834626E-22  7.27987600E-06
 -4.38205644E-22 -9.44669637E-19  2.03877087E-18  4.61250910E-19  1.63982323E-04
 -8.12868387E-19 -5.40520558E-17  8.84488629E-17  2.09455043E-17  1.11239601E-02
  7.91841116E-19 -3.29194434E-17  4.31653381E-17 -1.13859287E-17  3.22091962E-02
  1.55999949E-20  2.56058194E-18 -4.61824425E-18  2.31839068E-18  1.14818593E-03
  6.00770692E-24  3.09410547E-20 -7.37146845E-20  2.19556745E-20  1.89238949E-05
 -2.80679038E-19 -1.73670682E-16  2.81086012E-18  4.01324991E-21  6.27336574E-17
 -1.00110120E-16  2.17683408E-17 -2.23591995E-17  2.98547576E-01 -5.20494076E-16
 -2.09570409E-15 -1.07266654E-24 -4.52300935E-20  1.11799596E-19 -1.91778450E-21
  1.88358978E-05 -1.76228272E-21 -2.03194807E-18  4.13770777E-18  1.00487704E-18
  3.53259626E-04 -2.22269761E-18 -8.67219059E-17  1.31503333E-16  3.59310083E-17
  1.79076109E-02  1.83771004E-18 -5.28423182E-17  6.32672102E-17 -2.02404926E-17
  4.63511177E-02  4.97594764E-20  4.36327289E-18 -7.25911748E-18  4.07469867E-18
  2.01176990E-03  2.68842509E-23  7.30522561E-20 -1.65042033E-19  5.20715709E-20
  4.48813832E-05 -5.61700688E-19 -2.01718730E-16  3.74705998E-18  9.42703015E-21
  6.92459445E-17 -1.21872869E-16  8.57793103E-18 -7.09175996E-17  2.12602110E-01
  0.00000000E+00  0.00000000E+00 -2.09570409E-15  1.75364686E-26  7.39443330E-22
 -1.91778450E-21 -5.47563677E-21 -3.07938321E-07 -3.98698314E-22 -4.59707322E-19
  1.00487704E-18 -7.65968152E-20  7.99213520E-05 -5.26355238E-19 -2.05365450E-17
  3.59310083E-17 -1.17176573E-17  4.24068698E-03 -4.84741609E-19  1.39384722E-17
 -2.02404926E-17 -8.12784528E-18 -1.22262570E-02 -2.49796027E-20 -2.19039329E-18
  4.07469867E-18 -1.18782716E-18 -1.00992246E-03 -8.00738506E-24 -2.17583724E-20
  5.20715709E-20 -5.72461879E-21 -1.33677713E-05 -2.45032945E-19 -1.41343184E-16
 -3.39693357E-18 -3.85481314E-21 -7.11254891E-17  1.25180868E-16 -7.09175996E-17
  1.23769004E-17 -2.18372775E-01  0.00000000E+00  0.00000000E+00  0.00000000E+00
 -2.09570409E-15  1.62907301E-11  7.27987600E-06 -1.88358978E-05  3.07938321E-07
 -5.50698963E-21  5.57087484E-09  1.63982323E-04 -3.53259626E-04 -7.99213520E-05
 -3.03939895E-19  1.15146085E-05  1.11239601E-02 -1.79076109E-02 -4.24068698E-03
 -2.02264506E-17  6.96459408E-05  3.22091962E-02 -4.63511177E-02  1.22262570E-02
 -1.34667773E-17  2.01970823E-07  1.14818593E-03 -2.01176990E-03  1.00992246E-03
  8.57699874E-19  9.80737454E-11  1.89238949E-05 -4.48813832E-05  1.33677713E-05
  9.78472606E-21  3.92845890E-05  2.84464891E-02  7.93025129E-04  1.41288420E-06
  3.17928639E-03  2.98547576E-01 -2.12602110E-01  2.18372775E-01 -6.04656176E-17
  7.18554879E-02  8.38743577E-01  0.00000000E+00  0.00000000E+00 -2.09570409E-15
 -3.88667633E-23  1.66434632E-19 -3.24547652E-19 -1.39878849E-19  5.90862505E-05
 -1.25988909E-21 -7.34421754E-20  1.29168530E-19  1.07948628E-19  1.32539400E-04
 -2.57044374E-19  4.38707548E-19  1.64785890E-20  2.02409454E-20  3.86325406E-03
  4.11916488E-18  2.52221768E-16 -2.58043609E-16 -2.02366322E-16  6.08350507E-02
  5.54826877E-18  1.69361672E-16 -2.44281612E-16 -3.03849767E-17  2.39715440E-02
  1.92361258E-20  4.83226131E-18 -8.89104536E-18 -1.34482583E-18  7.24208683E-04
 -2.30461686E-20 -2.41230704E-18  3.90803571E-16  1.31673923E-18  1.12763769E-16
  1.77156547E-15 -3.76753543E-16 -1.62553502E-15  3.50014722E-01 -1.05582971E-17
  1.54188594E-16  6.08512782E-17 -1.81571619E-16  7.33033803E-02  5.50345343E-15
 -9.26974472E-27 -5.19880140E-22  1.40038938E-21  3.02326060E-23  3.26022098E-07
 -1.22294243E-23 -4.00108946E-20  9.25285061E-20  2.05127554E-20  8.04531946E-06
 -2.25763217E-20 -3.44232403E-18  6.25118703E-18  1.42408136E-18  8.16913077E-04
  3.80110715E-20 -1.01606138E-18  1.55170524E-18 -1.86880427E-19  3.37353700E-03
  1.13799074E-21  3.72674857E-19 -7.39656156E-19  2.44651450E-19  1.22209396E-04
  4.38430960E-25  3.06945246E-21 -7.71757736E-21  1.58061036E-21  1.25664516E-06
 -1.40654400E-20 -1.81806301E-17  7.04982063E-19  4.34914768E-22  8.60742007E-18
  1.30098307E-17 -1.80547955E-17  6.59325781E-18  7.33056817E-02 -1.25705456E-16
 -8.66438671E-16  8.14919256E-16  1.66047944E-16  3.50013253E-01  9.67427758E-17
 -1.49860446E-15 -2.76796389E-23 -1.48337361E-19  3.17489212E-19 -7.44984595E-20
  3.36490292E-05 -3.62107320E-20 -7.29263666E-18  1.33405337E-17 -3.67689393E-19
  9.63007553E-04 -5.46121217E-18 -1.79757353E-16  2.55523437E-16 -3.78117609E-17
  2.64262250E-02  4.72695431E-19 -6.40810977E-17  7.26928895E-17 -5.69279917E-17
  2.04761766E-02  1.53962312E-20  1.50240311E-19 -2.97996127E-19  2.63997804E-19
  6.04511439E-04  7.25201839E-23 -1.08111541E-20  1.92143191E-20 -1.06308906E-20
  2.68462191E-05 -3.98461107E-18 -8.58843281E-16  3.43078017E-19  1.28497444E-21
  7.68446248E-18 -2.04839005E-16  8.14906867E-17 -2.43156700E-16  7.33033790E-02
 -1.43129668E-16 -2.01316307E-15 -4.28880201E-16 -1.85043991E-15  3.50014718E-01
 -3.51562084E-18 -5.70711411E-16 -6.00055767E-15 -7.47333086E-23 -4.14108392E-17
 -6.76738376E-17 -1.38128988E-17  1.64835203E-03  0.00000000E+00 -1.99876498E-18
 -4.62834839E-18  1.39994124E-18  6.31121590E-05  0.00000000E+00 -4.02838667E-21
 -1.45207940E-20  1.74788147E-21  1.35990924E-07  0.00000000E+00 -1.58077988E-22
 -6.36005532E-22 -1.29751844E-22  6.32765727E-09  0.00000000E+00 -3.01972404E-21
 -9.52302886E-21 -5.48226471E-21  1.36181928E-07  0.00000000E+00 -1.52993083E-18
 -2.84538439E-18 -2.37885424E-18  6.31570064E-05 -1.87744537E-18 -3.70586071E-22
 -2.49874299E-22 -1.30881666E-18  0.00000000E+00  0.00000000E+00  0.00000000E+00
  0.00000000E+00  0.00000000E+00  0.00000000E+00  0.00000000E+00  0.00000000E+00
  0.00000000E+00  0.00000000E+00 -4.79023313E-27  0.00000000E+00 -3.58043679E-27
 -1.59859989E-15 -2.12834963E-17 -3.51918163E-16 -3.76828185E-16 -7.69143551E-17
  2.15710392E-01 -5.32263219E-18 -1.48925099E-16 -2.21315371E-16  6.69414854E-17
  3.03534562E-02 -9.19946398E-21 -4.30739772E-18 -8.54728922E-18  1.02884515E-18
  9.24609145E-04  6.84929411E-23 -1.23044200E-19 -2.61990153E-19 -5.34487573E-20
  1.75600623E-04  1.05419881E-20  2.44788038E-18  4.30616531E-18  2.47899470E-18
  9.25318841E-04  4.32753296E-18  5.68889136E-17  7.32868316E-17  6.12706987E-17
  3.03664320E-02 -1.44355909E-16 -6.34093067E-19  4.38150865E-19  7.20554202E-17
  0.00000000E+00 -2.29588740E-41  4.69426079E-25  9.57801088E-26  3.34593413E-07
  0.00000000E+00 -1.83739651E-23 -6.11912523E-23 -2.04863594E-24  5.90581152E-09
  3.52566928E-22 -5.06270678E-25 -5.94342353E-22 -3.97032089E-16 -1.59859989E-15
  3.53363943E-17  4.00277236E-16  3.47774651E-16  1.10522988E-16 -2.34274100E-01
  1.23359781E-17  2.11320494E-16  2.83272510E-16 -1.04002021E-16 -4.35292983E-02
  3.31852008E-20  8.47328630E-18  1.58502607E-17 -2.08048311E-18 -1.82535833E-03
 -2.75764844E-22  2.68580627E-19  5.39921648E-19  1.18233413E-19 -3.78538078E-04
 -3.32025004E-20 -4.13680770E-18 -6.66888157E-18 -4.30822528E-18 -1.59450928E-03
 -8.04073773E-18 -5.91719289E-17 -6.12381499E-17 -7.05418401E-17 -3.49031267E-02
  1.59136391E-16  1.26081711E-18 -6.98610069E-19 -4.56759623E-17  0.00000000E+00
  4.69426079E-25  1.46936794E-39  0.00000000E+00 -9.60700852E-07  0.00000000E+00
  6.11912523E-23  1.98027758E-22  6.82262093E-24 -1.96682644E-08 -9.10786538E-22
  1.69034850E-24  1.64700767E-21  0.00000000E+00  0.00000000E+00 -1.59859989E-15
  7.21250716E-18  8.17005381E-17  1.10522988E-16 -1.71154211E-16 -4.78176581E-02
 -3.73127583E-18 -6.39183247E-17 -1.04002021E-16 -2.91111707E-17  1.31663511E-02
 -3.99453347E-21 -1.01993735E-18 -2.08048311E-18 -1.18324280E-18  2.19720079E-04
 -5.62589397E-23  5.47932835E-20  1.18233413E-19 -1.55030473E-20 -7.72257644E-05
 -1.91141809E-20 -2.38149807E-18 -4.30822528E-18 -1.66541156E-18 -9.17935050E-04
 -6.72237573E-18 -4.94700800E-17 -7.05418401E-17 -3.58377393E-17 -2.91803986E-02
 -1.35756723E-16 -3.56411363E-19 -5.62684295E-19 -9.17563644E-17  0.00000000E+00
  9.57801088E-26  1.83670992E-40 -4.59177481E-41 -1.96018151E-07  0.00000000E+00
  2.04863594E-24  6.82262093E-24 -5.53050681E-24 -6.58478325E-10 -3.40570135E-22
  9.65453045E-26 -2.16838333E-22  0.00000000E+00  0.00000000E+00  0.00000000E+00
 -1.59859989E-15  1.64835203E-03  2.15710392E-01  2.34274100E-01  4.78176581E-02
 -1.93713044E-16  6.31121590E-05  3.03534562E-02  4.35292983E-02 -1.31663511E-02
 -6.05687677E-17  1.35990924E-07  9.24609145E-04  1.82535833E-03 -2.19720079E-04
 -1.43367249E-18  6.32765727E-09  1.75600623E-04  3.78538078E-04  7.72257644E-05
 -3.96239119E-20  1.36181928E-07  9.25318841E-04  1.59450928E-03  9.17935050E-04
  8.14769035E-19  6.31570064E-05  3.03664320E-02  3.49031267E-02  2.91803986E-02
  2.31380375E-17  2.20813743E-02  1.08644829E-04  1.08729170E-04  2.20841071E-02
  0.00000000E+00  3.34593413E-07  9.60700852E-07  1.96018151E-07 -9.18354962E-41
  0.00000000E+00  5.90581152E-09  1.96682644E-08  6.58478325E-10 -5.75892289E-24
  1.62625345E-07  2.19645635E-10  1.14817132E-07  7.18554879E-02  8.38743577E-01
  0.00000000E+00  0.00000000E+00 -1.59859989E-15  0.00000000E+00  2.47992047E-18
  5.74939097E-18 -1.51654448E-18  6.96459408E-05  0.00000000E+00  6.14690565E-21
  1.96239195E-20 -9.85134387E-21  2.01970823E-07  0.00000000E+00  2.87024487E-24
  1.28511417E-23 -3.82766996E-24  9.80737454E-11  0.00000000E+00  5.36951507E-25
  2.62526523E-24 -4.29190991E-26  1.62907301E-11  0.00000000E+00  2.09479024E-22
  8.41932751E-22  1.90478613E-22  5.57087484E-09  0.00000000E+00  4.50058527E-19
  1.22995771E-18  2.91265298E-19  1.15146085E-05  9.28331757E-21  2.41977997E-25
  8.77079632E-23  3.37157920E-18  0.00000000E+00  0.00000000E+00  0.00000000E+00
  0.00000000E+00  0.00000000E+00  0.00000000E+00  0.00000000E+00  0.00000000E+00
  0.00000000E+00  0.00000000E+00  0.00000000E+00  0.00000000E+00  0.00000000E+00
  7.58051686E-22  8.49662950E-17  9.49787076E-17 -9.75567173E-17  3.17928639E-03
  2.09570409E-15 -7.91841116E-19  3.29194434E-17  4.31653381E-17 -1.13859287E-17
  3.22091962E-02 -1.55999949E-20 -2.56058194E-18 -4.61824425E-18  2.31839068E-18
  1.14818593E-03 -6.00770692E-24 -3.09410547E-20 -7.37146845E-20  2.19556745E-20
  1.89238949E-05  2.19536302E-25  1.74736456E-20  4.51928604E-20 -7.38834626E-22
  7.27987600E-06  4.38205644E-22  9.44669637E-19  2.03877087E-18  4.61250910E-19
  1.63982323E-04  8.12868387E-19  5.40520558E-17  8.84488629E-17  2.09455043E-17
  1.11239601E-02 -2.81086012E-18 -4.01324991E-21  2.80679038E-19  1.73670682E-16
  0.00000000E+00  1.83739651E-23  6.11912523E-23  2.04863594E-24  5.90581152E-09
  0.00000000E+00  0.00000000E+00  0.00000000E+00  0.00000000E+00  0.00000000E+00
  4.51026866E-23  0.00000000E+00 -1.27314100E-24 -6.27336574E-17  1.00110120E-16
  2.17683408E-17 -2.23591995E-17  2.98547576E-01  5.20494076E-16  2.09570409E-15
  1.83771004E-18 -5.28423182E-17 -6.32672102E-17  2.02404926E-17 -4.63511177E-02
  4.97594764E-20  4.36327289E-18  7.25911748E-18 -4.07469867E-18 -2.01176990E-03
  2.68842509E-23  7.30522561E-20  1.65042033E-19 -5.20715709E-20 -4.48813832E-05
 -1.07266654E-24 -4.52300935E-20 -1.11799596E-19  1.91778450E-21 -1.88358978E-05
 -1.76228272E-21 -2.03194807E-18 -4.13770777E-18 -1.00487704E-18 -3.53259626E-04
 -2.22269761E-18 -8.67219059E-17 -1.31503333E-16 -3.59310083E-17 -1.79076109E-02
  3.74705998E-18  9.42703015E-21 -5.61700688E-19 -2.01718730E-16  0.00000000E+00
 -6.11912523E-23 -1.98027758E-22 -6.82262093E-24 -1.96682644E-08  0.00000000E+00
  0.00000000E+00  0.00000000E+00  0.00000000E+00  0.00000000E+00 -1.34550432E-22
  0.00000000E+00  4.03191554E-24  6.92459445E-17 -1.21872869E-16 -8.57793103E-18
  7.09175996E-17 -2.12602110E-01  0.00000000E+00  0.00000000E+00  2.09570409E-15
 -4.84741609E-19  1.39384722E-17  2.02404926E-17  8.12784528E-18  1.22262570E-02
 -2.49796027E-20 -2.19039329E-18 -4.07469867E-18  1.18782716E-18  1.00992246E-03
 -8.00738506E-24 -2.17583724E-20 -5.20715709E-20  5.72461879E-21  1.33677713E-05
  1.75364686E-26  7.39443330E-22  1.91778450E-21  5.47563677E-21  3.07938321E-07
 -3.98698314E-22 -4.59707322E-19 -1.00487704E-18  7.65968152E-20 -7.99213520E-05
 -5.26355238E-19 -2.05365450E-17 -3.59310083E-17  1.17176573E-17 -4.24068698E-03
 -3.39693357E-18 -3.85481314E-21 -2.45032945E-19 -1.41343184E-16  0.00000000E+00
 -2.04863594E-24 -6.82262093E-24  5.53050681E-24 -6.58478325E-10  0.00000000E+00
  0.00000000E+00  0.00000000E+00  0.00000000E+00  0.00000000E+00 -2.51323094E-23
  0.00000000E+00 -9.84953555E-25 -7.11254891E-17  1.25180868E-16  7.09175996E-17
 -1.23769004E-17  2.18372775E-01  0.00000000E+00  0.00000000E+00  0.00000000E+00
  2.09570409E-15  6.96459408E-05  3.22091962E-02  4.63511177E-02 -1.22262570E-02
  1.34667773E-17  2.01970823E-07  1.14818593E-03  2.01176990E-03 -1.00992246E-03
 -8.57699874E-19  9.80737454E-11  1.89238949E-05  4.48813832E-05 -1.33677713E-05
 -9.78472606E-21  1.62907301E-11  7.27987600E-06  1.88358978E-05 -3.07938321E-07
  5.50698963E-21  5.57087484E-09  1.63982323E-04  3.53259626E-04  7.99213520E-05
  3.03939895E-19  1.15146085E-05  1.11239601E-02  1.79076109E-02  4.24068698E-03
  2.02264506E-17  7.93025129E-04  1.41288420E-06  3.92845890E-05  2.84464891E-02
  0.00000000E+00  5.90581152E-09  1.96682644E-08  6.58478325E-10  5.75892289E-24
  0.00000000E+00  0.00000000E+00  0.00000000E+00  0.00000000E+00  0.00000000E+00
  8.53778804E-09  0.00000000E+00  6.13935030E-10  3.17928639E-03  2.98547576E-01
  2.12602110E-01 -2.18372775E-01  6.04656176E-17  7.18554879E-02  8.38743577E-01
  0.00000000E+00  0.00000000E+00  2.09570409E-15 -4.11916488E-18 -2.52221768E-16
 -2.58043609E-16 -2.02366322E-16  6.08350507E-02 -5.54826877E-18 -1.69361672E-16
 -2.44281612E-16 -3.03849767E-17  2.39715440E-02 -1.92361258E-20 -4.83226131E-18
 -8.89104536E-18 -1.34482583E-18  7.24208683E-04  3.88667633E-23 -1.66434632E-19
 -3.24547652E-19 -1.39878849E-19  5.90862505E-05  1.25988909E-21  7.34421754E-20
  1.29168530E-19  1.07948628E-19  1.32539400E-04  2.57044374E-19 -4.38707548E-19
  1.64785890E-20  2.02409454E-20  3.86325406E-03 -3.90803571E-16 -1.31673923E-18
  2.30461686E-20  2.41230704E-18  4.79023313E-27 -3.52566928E-22 -9.10786538E-22
 -3.40570135E-22  1.62625345E-07  0.00000000E+00 -4.51026866E-23 -1.34550432E-22
 -2.51323094E-23  8.53778804E-09 -9.75752147E-41 -1.44176560E-24 -1.63193005E-21
 -1.12763769E-16 -1.77156547E-15 -3.76753543E-16 -1.62553502E-15  3.50014722E-01
  1.05582971E-17 -1.54188594E-16  6.08512782E-17 -1.81571619E-16  7.33033803E-02
 -5.50345343E-15 -3.80110715E-20  1.01606138E-18  1.55170524E-18 -1.86880427E-19
  3.37353700E-03 -1.13799074E-21 -3.72674857E-19 -7.39656156E-19  2.44651450E-19
  1.22209396E-04 -4.38430960E-25 -3.06945246E-21 -7.71757736E-21  1.58061036E-21
  1.25664516E-06  9.26974472E-27  5.19880140E-22  1.40038938E-21  3.02326060E-23
  3.26022098E-07  1.22294243E-23  4.00108946E-20  9.25285061E-20  2.05127554E-20
  8.04531946E-06  2.25763217E-20  3.44232403E-18  6.25118703E-18  1.42408136E-18
  8.16913077E-04 -7.04982063E-19 -4.34914768E-22  1.40654400E-20  1.81806301E-17
  0.00000000E+00  5.06270678E-25  1.69034850E-24  9.65453045E-26  2.19645635E-10
  0.00000000E+00  0.00000000E+00  0.00000000E+00  0.00000000E+00  0.00000000E+00
  1.44176560E-24  0.00000000E+00 -1.04256569E-25 -8.60742007E-18 -1.30098307E-17
 -1.80547955E-17  6.59325781E-18  7.33056817E-02  1.25705456E-16  8.66438671E-16
  8.14919256E-16  1.66047944E-16  3.50013253E-01 -9.67427758E-17  1.49860446E-15
 -4.72695431E-19  6.40810977E-17  7.26928895E-17 -5.69279917E-17  2.04761766E-02
 -1.53962312E-20 -1.50240311E-19 -2.97996127E-19  2.63997804E-19  6.04511439E-04
 -7.25201839E-23  1.08111541E-20  1.92143191E-20 -1.06308906E-20  2.68462191E-05
  2.76796389E-23  1.48337361E-19  3.17489212E-19 -7.44984595E-20  3.36490292E-05
  3.62107320E-20  7.29263666E-18  1.33405337E-17 -3.67689393E-19  9.63007553E-04
  5.46121217E-18  1.79757353E-16  2.55523437E-16 -3.78117609E-17  2.64262250E-02
 -3.43078017E-19 -1.28497444E-21  3.98461107E-18  8.58843281E-16  3.58043679E-27
  5.94342353E-22  1.64700767E-21 -2.16838333E-22  1.14817132E-07  0.00000000E+00
  1.27314100E-24  4.03191554E-24 -9.84953555E-25  6.13935030E-10  1.63193005E-21
  1.04256569E-25  0.00000000E+00 -7.68446248E-18  2.04839005E-16  8.14906867E-17
 -2.43156700E-16  7.33033790E-02  1.43129668E-16  2.01316307E-15 -4.28880201E-16
 -1.85043991E-15  3.50014718E-01  3.51562084E-18  5.70711411E-16  6.00055767E-15
Multipole Matrix (2,0,0)                   R   N=        1830
  6.70245180E+00  1.68327484E+00  7.51273710E+00  3.71191477E-01  4.33278622E+00
  8.19655734E+00  0.00000000E+00  0.00000000E+00  0.00000000E+00  7.17977692E+00
  0.00000000E+00  0.00000000E+00  0.00000000E+00  0.00000000E+00  7.17977692E+00
  2.77710771E-06  3.63970559E-02 -3.71557177E-02  4.75886870E-02 -9.74887738E-17
  7.27614078E-01  2.39785126E-01  1.42691677E+00 -4.59306809E-02  1.17975669E+00
 -2.41681460E-15  1.99349858E-01  1.53789938E+00  2.70775297E-01  1.75019683E+00
  3.32300677E-01  1.64620791E+00 -3.37237274E-15  1.19940477E-01  1.40002257E+00
  2.22171962E+00 -2.91500494E-01 -1.02178622E+00  1.96865169E-01 -2.99920747E-01
  2.25577321E-15  0.00000000E+00  0.00000000E+00  0.00000000E+00  1.20493920E+00
  5.97159274E-16  2.09320096E-15 -4.03292152E-16  2.25577321E-15  8.01224349E-01
  0.00000000E+00  0.00000000E+00  0.00000000E+00  0.00000000E+00  1.20493920E+00
  0.00000000E+00  4.61772224E-03 -1.04022153E-02  3.37252139E-03 -7.65434589E-18
  2.62145594E-07  1.03178605E-01 -1.68258611E-01 -3.27108044E-02  4.71548000E-17
  3.08601892E+00  1.06645405E-02  8.64789026E-02 -8.58380958E-02  4.58115626E-02
 -1.03974892E-16  2.28121166E-02  4.56002078E-01 -5.38675988E-01 -8.28495338E-02
  1.19433113E-16  7.85088922E-01  3.89630422E+00  2.37837281E-02  1.37521966E-01
 -7.62453911E-02  7.83158784E-02 -1.77747374E-16  3.74099799E-02  1.27198399E-01
  2.13096957E-01 -3.76586000E-02  5.42873765E-17 -2.51184169E-01 -2.93198355E+00
  4.58012446E+00 -7.78586284E-03 -4.05242337E-02  4.73162939E-02  1.63414986E-02
  5.42672013E-17  6.97513744E-03  9.95110344E-02 -1.41133904E-01  2.24419885E-01
  3.25557776E-17  0.00000000E+00  0.00000000E+00  0.00000000E+00  3.56334404E+00
  1.76709590E-17  9.19746580E-17 -1.07390062E-16  5.42672013E-17  4.02517451E-02
 -1.00551245E-17 -1.43451774E-16  2.03453910E-16  3.25557776E-17  2.47003496E-01
  0.00000000E+00  0.00000000E+00  0.00000000E+00  0.00000000E+00  3.56334404E+00
  0.00000000E+00  2.36372579E-03 -6.26258087E-03 -1.25526279E-03  1.80941503E-18
  0.00000000E+00  1.10474783E-02 -1.95352293E-02 -1.68727774E-02  3.09996496E-17
  4.43973970E-06  2.48820842E-01 -1.42303098E-01 -3.87393489E-01  7.44040662E-16
  6.70245180E+00  2.36372579E-03  3.38965356E-02 -5.28300838E-02 -1.20850339E-02
  1.74201308E-17  1.04475480E-03  1.17400733E-01 -1.77820920E-01 -1.07138238E-01
  1.96840613E-16  1.25639016E-01  2.06128282E+00 -1.78761725E+00 -1.96260885E+00
  3.76945103E-15  1.68327484E+00  7.51273710E+00  6.26258087E-03  5.28300838E-02
 -5.67791270E-02 -2.09438738E-02  3.01898219E-17  1.93337663E-03  5.70253476E-02
 -3.36577185E-02 -6.12221547E-02  1.12480909E-16  5.75482967E-02 -5.09850132E-01
  1.19609684E+00  3.31478005E-01 -6.36647548E-16 -3.71191477E-01 -4.33278622E+00
  8.19655734E+00  1.25526279E-03  1.20850339E-02 -2.09438738E-02  1.05565945E-02
  6.84186725E-18  1.59631805E-03  1.25436147E-01 -1.97138019E-01 -7.67725717E-02
  2.33793803E-16  2.00204497E-01  2.08381578E+00 -1.99654567E+00 -1.42705632E+00
  4.97544801E-15  0.00000000E+00  0.00000000E+00  0.00000000E+00  7.17977692E+00
 -1.80941503E-18 -1.74201308E-17  3.01898219E-17  6.84186725E-18  1.53030685E-02
 -2.93284850E-18 -2.30458596E-16  3.62193452E-16  2.33793803E-16  5.04788927E-02
 -3.84519334E-16 -4.00224505E-15  3.83463121E-15  4.97544801E-15  1.16346898E+00
  0.00000000E+00  0.00000000E+00  0.00000000E+00  0.00000000E+00  7.17977692E+00
  0.00000000E+00  1.04475480E-03 -1.93337663E-03 -1.59631805E-03  2.93284850E-18
  0.00000000E+00  2.86955389E-04 -2.76014482E-04 -7.22214981E-04  1.38712402E-18
  0.00000000E+00  1.60916757E-03  5.60493324E-04 -3.62426252E-03  7.16541725E-18
  2.77710771E-06  3.63970559E-02  3.71557177E-02 -4.75886870E-02  9.74887738E-17
  7.27614078E-01  1.10474783E-02  1.17400733E-01 -5.70253476E-02 -1.25436147E-01
  2.30458596E-16  2.86955389E-04  2.81012620E-02 -1.16080407E-02 -4.09973516E-02
  7.87416665E-17  5.55305656E-03  1.64535481E-01 -6.00085676E-02 -2.35592286E-01
  4.65782217E-16  2.39785126E-01  1.42691677E+00  4.59306809E-02 -1.17975669E+00
  2.41681460E-15  1.99349858E-01  1.53789938E+00  1.95352293E-02  1.77820920E-01
 -3.36577185E-02 -1.97138019E-01  3.62193452E-16  2.76014482E-04  1.16080407E-02
  2.47160402E-02 -1.76063093E-02  3.38156023E-17 -2.90111992E-03 -1.46615720E-01
  9.89875338E-02  2.14544084E-01 -4.24168467E-16 -2.70775297E-01 -1.75019683E+00
  3.32300677E-01  1.64620791E+00 -3.37237274E-15 -1.19940477E-01 -1.40002257E+00
  2.22171962E+00  1.68727774E-02  1.07138238E-01 -6.12221547E-02 -7.67725717E-02
  2.33793803E-16  7.22214981E-04  4.09973516E-02 -1.76063093E-02 -5.32512298E-02
  1.21863397E-16  1.25259665E-02  2.24927993E-01 -8.19487729E-02 -2.86733748E-01
  6.97443510E-16  2.91500494E-01  1.02178622E+00  1.96865169E-01 -2.99920747E-01
  2.25577321E-15  0.00000000E+00  0.00000000E+00  0.00000000E+00  1.20493920E+00
 -3.09996496E-17 -1.96840613E-16  1.12480909E-16  2.33793803E-16  5.04788927E-02
 -1.38712402E-18 -7.87416665E-17  3.38156023E-17  1.21863397E-16  1.01977262E-02
 -2.47647007E-17 -4.44698173E-16  1.62018383E-16  6.97443510E-16  6.60326416E-02
 -5.97159274E-16 -2.09320096E-15 -4.03292152E-16  2.25577321E-15  8.01224349E-01
  0.00000000E+00  0.00000000E+00  0.00000000E+00  0.00000000E+00  1.20493920E+00
  4.43973970E-06  1.25639016E-01 -5.75482967E-02 -2.00204497E-01  3.84519334E-16
  0.00000000E+00  5.55305656E-03  2.90111992E-03 -1.25259665E-02  2.47647007E-17
  0.00000000E+00  1.10614142E-03  2.02159606E-03 -2.20000966E-03  4.50682137E-18
  0.00000000E+00  4.61772224E-03  1.04022153E-02 -3.37252139E-03  7.65434589E-18
  2.62145594E-07  1.03178605E-01  1.68258611E-01  3.27108044E-02 -4.71548000E-17
  3.08601892E+00  2.48820842E-01  2.06128282E+00  5.09850132E-01 -2.08381578E+00
  4.00224505E-15  1.60916757E-03  1.64535481E-01  1.46615720E-01 -2.24927993E-01
  4.44698173E-16  1.10614142E-03  3.03729144E-02  2.88115947E-02 -3.74360039E-02
  7.66893824E-17  1.06645405E-02  8.64789026E-02  8.58380958E-02 -4.58115626E-02
  1.03974892E-16  2.28121166E-02  4.56002078E-01  5.38675988E-01  8.28495338E-02
 -1.19433113E-16  7.85088922E-01  3.89630422E+00  1.42303098E-01  1.78761725E+00
  1.19609684E+00 -1.99654567E+00  3.83463121E-15 -5.60493324E-04  6.00085676E-02
  9.89875338E-02 -8.19487729E-02  1.62018383E-16 -2.02159606E-03 -2.88115947E-02
  2.47348227E-03  3.85526666E-02 -7.89769176E-17 -2.37837281E-02 -1.37521966E-01
 -7.62453911E-02  7.83158784E-02 -1.77747374E-16 -3.74099799E-02 -1.27198399E-01
  2.13096957E-01 -3.76586000E-02  5.42873765E-17  2.51184169E-01  2.93198355E+00
  4.58012446E+00  3.87393489E-01  1.96260885E+00  3.31478005E-01 -1.42705632E+00
  4.97544801E-15  3.62426252E-03  2.35592286E-01  2.14544084E-01 -2.86733748E-01
  6.97443510E-16  2.20000966E-03  3.74360039E-02  3.85526666E-02 -3.79833254E-02
  1.02816127E-16  7.78586284E-03  4.05242337E-02  4.73162939E-02  1.63414986E-02
  5.42672013E-17 -6.97513744E-03 -9.95110344E-02 -1.41133904E-01  2.24419885E-01
  3.25557776E-17  0.00000000E+00  0.00000000E+00  0.00000000E+00  3.56334404E+00
 -7.44040662E-16 -3.76945103E-15 -6.36647548E-16  4.97544801E-15  1.16346898E+00
 -7.16541725E-18 -4.65782217E-16 -4.24168467E-16  6.97443510E-16  6.60326416E-02
 -4.50682137E-18 -7.66893824E-17 -7.89769176E-17  1.02816127E-16  1.22064766E-02
 -1.76709590E-17 -9.19746580E-17 -1.07390062E-16  5.42672013E-17  4.02517451E-02
  1.00551245E-17  1.43451774E-16  2.03453910E-16  3.25557776E-17  2.47003496E-01
  0.00000000E+00  0.00000000E+00  0.00000000E+00  0.00000000E+00  3.56334404E+00
  3.47995535E-02  5.10012953E-01  1.24517400E-01  6.24259281E-01 -1.23892437E-15
  5.28659130E-02  1.09420594E+00  1.06707072E+00  8.90315812E-01 -1.70994897E-15
  1.46787295E-02  1.29707787E-01  6.77011451E-02  1.03357274E-01 -1.88065856E-16
  5.56315570E-04  1.29524404E-02  5.64224883E-03  1.75278374E-02 -3.27792848E-17
  8.17743927E-06  2.37086376E-03  1.64585469E-03  3.95744672E-03 -7.60083184E-18
  2.87843181E-04  2.50084045E-02  1.35737908E-02  4.07469362E-02 -7.98559426E-17
  2.87947634E+00  5.29896781E-04  9.58784361E-03 -1.31489751E-02  8.26360221E-03
 -1.78088770E-17  3.12406279E-03  2.41883103E-01 -4.03504051E-01  7.93503750E-02
 -1.87226058E-16  2.11372441E-01  3.40416727E+00 -3.68063089E+00  2.33565556E+00
 -4.78478643E-15  3.63832305E-02  8.70363944E-01 -5.31603549E-01  1.09631031E+00
 -2.15940669E-15  8.71970375E-05  2.95045340E-02 -3.32028263E-02  4.46432999E-02
 -8.90865344E-17  3.13673036E-05  2.69123735E-03 -3.95736116E-03  3.70299332E-03
 -7.58579229E-18  1.26972338E-01  1.04213395E+01  5.56315570E-04  1.29524404E-02
 -5.64224883E-03 -1.75278374E-02  3.27792848E-17  8.17743927E-06  2.37086376E-03
 -1.64585469E-03 -3.95744672E-03  7.60083184E-18  2.87843181E-04  2.50084045E-02
 -1.35737908E-02 -4.07469362E-02  7.98559426E-17  3.47995535E-02  5.10012953E-01
 -1.24517400E-01 -6.24259281E-01  1.23892437E-15  5.28659130E-02  1.09420594E+00
 -1.06707072E+00 -8.90315812E-01  1.70994897E-15  1.46787295E-02  1.29707787E-01
 -6.77011451E-02 -1.03357274E-01  1.88065856E-16  1.64834345E-04  5.15832497E-03
  2.87947634E+00  3.63832305E-02  8.70363944E-01  5.31603549E-01 -1.09631031E+00
  2.15940669E-15  8.71970375E-05  2.95045340E-02  3.32028263E-02 -4.46432999E-02
  8.90865344E-17  3.13673036E-05  2.69123735E-03  3.95736116E-03 -3.70299332E-03
  7.58579229E-18  5.29896781E-04  9.58784361E-03  1.31489751E-02 -8.26360221E-03
  1.78088770E-17  3.12406279E-03  2.41883103E-01  4.03504051E-01 -7.93503750E-02
  1.87226058E-16  2.11372441E-01  3.40416727E+00  3.68063089E+00 -2.33565556E+00
  4.78478643E-15  5.15832497E-03  1.71275753E-04  1.26972338E-01  1.04213395E+01
  0.00000000E+00  2.71960134E-06 -1.10107149E-05 -2.23343668E-06  3.21972528E-21
  0.00000000E+00  6.20479164E-05 -1.96875533E-04 -1.12541130E-04  1.99590412E-19
  0.00000000E+00  3.18362844E-02 -5.98104349E-02 -4.94514218E-02  9.05069534E-17
  1.02315176E-06  7.48296512E-01 -1.23387426E+00 -2.48326235E-01  3.58049547E-16
  0.00000000E+00  3.13082224E-02 -7.32408069E-02  2.19554031E-02 -5.05497345E-17
  0.00000000E+00  6.09020238E-05 -2.21231972E-04  2.64651246E-05 -7.48145872E-20
  5.52003002E-06  2.92598874E-02  2.86317168E-02  5.38541893E-06  2.95658240E+01
  5.22712281E-07  9.46656148E-04 -2.53807564E-03 -4.18371955E-04  6.03125565E-19
  9.45486377E-07  9.93286969E-03 -2.10887196E-02 -9.76097175E-03  1.73109723E-17
  4.34145239E-03  6.54898398E-01 -9.39711187E-01 -6.11815872E-01  1.11975730E-15
  1.99968509E-01  5.11624249E+00 -6.94857514E+00 -1.08497075E+00  1.56436666E-15
  1.38602603E-03  5.15661325E-01 -8.89464117E-01  2.15325233E-01 -4.95761034E-16
  4.87592914E-06  7.08848088E-03 -1.72042894E-02  1.67753934E-03 -4.74225667E-18
  1.16826479E-03  6.26796300E-01  4.52046220E-01  7.05391643E-04  7.36167661E+00
  3.03761093E+01  2.13386967E-06  1.60046274E-03 -4.10916151E-03 -7.31945801E-04
  1.05517404E-18  3.12236007E-06  1.33388398E-02 -2.63530527E-02 -1.36628407E-02
  2.42308924E-17  7.80392742E-03  5.69756643E-01 -6.50498652E-01 -5.97568772E-01
  1.09368198E-15  3.26475915E-01  4.12848361E+00 -4.56676197E+00 -1.19031547E+00
  1.71625811E-15  3.06367633E-03  5.98857421E-01 -9.30853853E-01  2.79925593E-01
 -6.44495767E-16  1.80095211E-05  1.11884759E-02 -2.59961828E-02  2.78532648E-03
 -7.87387380E-18  1.39493965E-03  2.11967582E-01  3.43135602E-01  1.08348472E-03
 -7.81010105E-01 -9.11645344E+00  3.10599295E+01  4.29829060E-07  4.31408821E-04
 -1.17239312E-03  1.18234843E-04  2.82236545E-19  1.72159731E-06  1.02002438E-02
 -2.21078322E-02 -7.01818460E-03  1.84154688E-17  6.73040842E-03  6.67207768E-01
 -1.01674121E+00 -4.16092393E-01  1.25163588E-15  6.85121589E-02  1.21536044E+00
 -1.95707084E+00  2.48278592E+00  4.68941959E-16 -9.68207534E-04 -2.42540402E-01
  4.45010154E-01  1.01658940E-01  2.56671450E-16 -2.12374856E-06 -1.77405100E-03
  4.40543095E-03  2.00464370E-03  1.23759614E-18  1.56176226E-03  8.27396019E-01
 -4.39032102E-01 -4.17516920E-04  0.00000000E+00  0.00000000E+00  0.00000000E+00
  3.00431491E+01 -6.19642142E-22 -6.21919527E-19  1.69012347E-18  2.82236545E-19
  3.14014731E-04 -3.05323322E-21 -1.80900163E-17  3.92079886E-17  1.84154688E-17
  3.36556900E-03 -1.23181243E-17 -1.22113663E-15  1.86085953E-15  1.25163588E-15
  2.67779637E-01 -9.87843569E-17 -1.75236924E-15  2.82180547E-15  4.68941959E-16
  2.80802189E+00  2.22918402E-18  5.58420761E-16 -1.02458356E-15  2.56671450E-16
  2.13139747E-01  6.00365103E-21  5.01508668E-18 -1.24537671E-17  1.23759614E-18
  2.44243447E-03 -2.85092331E-18 -1.57491075E-15  9.12569772E-16  9.71417184E-19
  0.00000000E+00  0.00000000E+00  0.00000000E+00  0.00000000E+00  3.00431491E+01
  0.00000000E+00  1.18496991E-08 -5.81887123E-08  9.47767607E-10 -7.93332036E-24
  0.00000000E+00  4.33120551E-06 -1.75036062E-05 -3.94304414E-06  5.88345593E-21
  0.00000000E+00  9.89447819E-03 -2.72250108E-02 -6.40960079E-03  9.69644219E-18
  0.00000000E+00  6.14921335E-02 -1.43518809E-01  3.76020561E-02 -8.84869323E-17
  0.00000000E+00  1.65447284E-04 -5.30539291E-04  2.64949843E-04 -5.73502087E-19
  0.00000000E+00  7.30979549E-08 -3.28517657E-07  9.74579109E-08 -2.24910014E-22
  1.76574913E-06  7.35396168E-02  2.65524459E-04  6.43935982E-09  1.21594898E-04
  2.25271792E+00 -2.62967194E+00  2.65511568E+00 -5.46359681E-15  5.16186327E+01
  1.18098356E-09  7.87851267E-05 -2.37243359E-04  3.33340397E-06 -2.79023691E-20
  3.01611425E-08  3.08606739E-03 -7.65147143E-03 -1.49830661E-03  2.23563842E-18
  8.50391785E-04  3.73767975E-01 -6.83776440E-01 -1.39299329E-01  2.10731984E-16
  1.00204154E-02  1.23654318E+00 -2.03627526E+00  4.57783430E-01 -1.07727756E-15
  5.00066891E-06  3.27163462E-02 -6.57677945E-02  2.84807967E-02 -6.16486355E-17
  2.90453934E-09  2.71396206E-04 -7.45492883E-04  1.91568741E-04 -4.42095749E-19
  7.62264329E-04  1.17746960E+00  2.70222160E-02  1.83547798E-05  1.37103661E+00
  1.64165580E+01 -1.51245261E+01  1.17551957E+01 -2.41893980E-14  1.28387649E+01
  5.24289180E+01  5.85410033E-09  1.71526561E-04 -4.99185998E-04  7.30109013E-06
 -6.11140184E-20  1.26341541E-07  5.69789782E-03 -1.34702363E-02 -2.81799864E-03
  4.20476420E-18  2.27243639E-03  5.28145438E-01 -8.98124037E-01 -2.12971980E-01
  3.22183949E-16  2.27974560E-02  1.55944636E+00 -2.32296727E+00  6.43073083E-01
 -1.51330992E-15  1.53966148E-05  4.92388361E-02 -9.19773882E-02  4.44820615E-02
 -9.62844696E-17  1.32842847E-08  5.45042541E-04 -1.43537091E-03  3.87719106E-04
 -8.94764815E-19  1.28371079E-03  1.08103213E+00  3.01826525E-02  3.58463948E-05
  1.56912159E+00  8.18851889E+00 -9.28867337E-01  8.73895163E+00 -1.79826848E-14
 -1.03219669E+00 -1.20484652E+01  5.31127382E+01 -9.46261725E-11 -3.35386325E-06
  1.01338430E-05  2.48068020E-05  1.19396989E-21  2.76180659E-08  1.52733270E-03
 -3.83265671E-03  2.47172048E-04  1.12507594E-18  5.49303261E-04  1.49493824E-01
 -2.88713119E-01  8.15075559E-02  9.04647241E-17 -6.11760012E-03 -4.97940330E-01
  8.81860475E-01  3.06902760E-01  4.76859363E-16 -7.97035131E-06 -2.94251495E-02
  6.06752465E-02 -1.54454344E-02  5.73360283E-17 -3.88419545E-09 -1.93128707E-04
  5.33016245E-04 -5.10228820E-05  3.16768559E-19  6.79509718E-04  9.80353682E-01
 -3.42957913E-02 -1.78335675E-05 -1.64818272E+00 -1.23689802E+01  1.42493867E+01
 -1.98836970E+00  2.44117908E-14  0.00000000E+00  0.00000000E+00  0.00000000E+00
  5.20959578E+01  7.92071532E-25  2.80736242E-20 -8.48256704E-20  1.19396989E-21
  2.49494417E-05 -4.12091947E-23 -2.27894852E-18  5.71874574E-18  1.12507594E-18
  1.00118876E-03 -8.30985811E-19 -2.26154212E-16  4.36765122E-16  9.04647241E-17
  1.41307094E-01  1.43962252E-17  1.17177667E-15 -2.07523567E-15  4.76859363E-16
  5.09541637E-01  1.72523715E-20  6.36927521E-17 -1.31335728E-16  5.73360283E-17
  1.10429988E-02  8.96381264E-24  4.45695787E-19 -1.23007655E-18  3.16768559E-19
  8.62391343E-05 -1.16553163E-18 -1.77050842E-15  7.10383491E-17  3.94501779E-20
  3.39156818E-15  2.54524206E-14 -2.93218500E-14  2.44117908E-14  9.87490107E+00
  0.00000000E+00  0.00000000E+00  0.00000000E+00  0.00000000E+00  5.20959578E+01
  3.89535432E-07  2.12639961E-04 -5.41437817E-04 -1.81217580E-04  3.10304712E-19
  1.31296197E-07  1.06879586E-03 -2.20003929E-03 -1.39262782E-03  2.54874754E-18
  2.57892623E-04  7.51444061E-02 -1.04907607E-01 -9.63026130E-02  1.80112895E-16
  3.28783983E-02  1.56042277E+00 -2.07072886E+00 -1.25379772E+00  2.28433518E-15
  1.30855721E-03  3.73650069E-01 -6.72547242E-01 -6.67948226E-02  7.43108912E-17
  1.06836262E-05  3.91890544E-03 -9.29974506E-03 -1.09330386E-03  1.38008903E-18
  9.52134663E-05  6.10556837E-02  8.59414904E-01  7.46128594E-04  1.83001065E+00
  1.60966042E+01 -7.38030300E+00 -1.48559143E+01  2.86920213E-14  2.95082148E-01
  4.51358590E+00  8.58868672E-01 -5.48622805E+00  1.09220217E-14  3.54971880E+01
  5.44515568E-11  3.65115432E-06 -1.14526985E-05 -2.12048833E-07 -6.15393175E-22
  8.77229006E-10  1.59908449E-04 -4.23175316E-04 -8.14249790E-05  1.20720617E-19
  2.40430491E-05  3.02345501E-02 -6.17423494E-02 -1.22621415E-02  1.83356396E-17
  4.53110699E-04  1.47511110E-01 -2.80288396E-01  2.94702146E-02 -8.32959432E-17
  3.59240406E-07  3.72619674E-03 -8.29883206E-03  2.39090590E-03 -5.43387075E-18
  2.15761296E-10  1.88712801E-05 -5.46542235E-05  9.66524839E-06 -2.38511376E-20
  4.57865359E-05  1.66311616E-01  6.02433857E-03  1.63319851E-06  1.79902769E-01
  5.47110574E+00 -7.56801449E+00  2.39367367E+00 -5.36863350E-15  3.27204369E+00
  3.35479587E+01 -3.67303641E+01 -6.34231005E+00  9.13907337E-15  2.83411229E+00
  8.55857357E+01  1.47743955E-07  1.64085758E-04 -4.45083969E-04  8.26423241E-05
 -1.98556287E-19  3.23736948E-06  9.91658624E-03 -2.23624042E-02  4.94836387E-04
 -2.85059695E-18  5.05915371E-03  6.38676133E-01 -1.09993432E+00  1.33844942E-01
 -3.56612639E-16  6.86725541E-03  5.95311420E-01 -8.57650328E-01  5.36623312E-01
 -1.12131514E-15  4.26317812E-06  1.09081147E-02 -1.91353555E-02  1.34366279E-02
 -2.78680967E-17  4.28571116E-08  1.92401198E-04 -4.73581020E-04  2.06674799E-04
 -4.43360616E-19  4.67869421E-03  3.34834937E+00  4.87385411E-03  9.86759509E-06
  1.74206802E-01  3.82867051E+00 -2.42111204E+00  4.62836974E+00 -9.21419131E-15
  3.13135590E+00  2.38025365E+01  2.27206269E-01  2.21009696E+01 -4.26847839E-14
  5.80905049E-01  9.85085318E+00  4.57252620E+01  1.02315176E-06  7.48296512E-01
  1.23387426E+00  2.48326235E-01 -3.58049547E-16  0.00000000E+00  3.13082224E-02
  7.32408069E-02 -2.19554031E-02  5.05497345E-17  0.00000000E+00  6.09020238E-05
  2.21231972E-04 -2.64651246E-05  7.48145872E-20  0.00000000E+00  2.71960134E-06
  1.10107149E-05  2.23343668E-06 -3.21972528E-21  0.00000000E+00  6.20479164E-05
  1.96875533E-04  1.12541130E-04 -1.99590412E-19  0.00000000E+00  3.18362844E-02
  5.98104349E-02  4.94514218E-02 -9.05069534E-17  2.86317168E-02  5.38541893E-06
  5.52003002E-06  2.92598874E-02  0.00000000E+00  0.00000000E+00  0.00000000E+00
  0.00000000E+00  0.00000000E+00  0.00000000E+00  0.00000000E+00  0.00000000E+00
  0.00000000E+00  0.00000000E+00  9.08812682E-11  0.00000000E+00  4.98336489E-11
  2.95658240E+01  1.99968509E-01  5.11624249E+00  6.94857514E+00  1.08497075E+00
 -1.56436666E-15  1.38602603E-03  5.15661325E-01  8.89464117E-01 -2.15325233E-01
  4.95761034E-16  4.87592914E-06  7.08848088E-03  1.72042894E-02 -1.67753934E-03
  4.74225667E-18  5.22712281E-07  9.46656148E-04  2.53807564E-03  4.18371955E-04
 -6.03125565E-19  9.45486377E-07  9.93286969E-03  2.10887196E-02  9.76097175E-03
 -1.73109723E-17  4.34145239E-03  6.54898398E-01  9.39711187E-01  6.11815872E-01
 -1.11975730E-15  4.52046220E-01  7.05391643E-04  1.16826479E-03  6.26796300E-01
  0.00000000E+00  6.37017736E-07  1.83666064E-06  3.75046300E-07 -5.40691865E-22
  0.00000000E+00  1.87843728E-08  5.22355142E-08  2.09439503E-09  2.46475175E-24
  3.80578072E-07  6.73902121E-10  2.24923844E-07  7.36167661E+00  3.03761093E+01
 -3.26475915E-01 -4.12848361E+00 -4.56676197E+00 -1.19031547E+00  1.71625811E-15
 -3.06367633E-03 -5.98857421E-01 -9.30853853E-01  2.79925593E-01 -6.44495767E-16
 -1.80095211E-05 -1.11884759E-02 -2.59961828E-02  2.78532648E-03 -7.87387380E-18
 -2.13386967E-06 -1.60046274E-03 -4.10916151E-03 -7.31945801E-04  1.05517404E-18
 -3.12236007E-06 -1.33388398E-02 -2.63530527E-02 -1.36628407E-02  2.42308924E-17
 -7.80392742E-03 -5.69756643E-01 -6.50498652E-01 -5.97568772E-01  1.09368198E-15
 -3.43135602E-01 -1.08348472E-03 -1.39493965E-03 -2.11967582E-01  0.00000000E+00
 -1.83666064E-06 -4.71670304E-06 -1.08561564E-06  1.56509622E-21  0.00000000E+00
 -7.28805712E-08 -1.95438220E-07 -8.12594108E-09 -9.56287003E-24 -8.15489187E-07
 -2.64102306E-09 -5.83553992E-07  7.81010105E-01  9.11645344E+00  3.10599295E+01
 -6.85121589E-02 -1.21536044E+00 -1.95707084E+00  2.48278592E+00  4.68941959E-16
  9.68207534E-04  2.42540402E-01  4.45010154E-01  1.01658940E-01  2.56671450E-16
  2.12374856E-06  1.77405100E-03  4.40543095E-03  2.00464370E-03  1.23759614E-18
 -4.29829060E-07 -4.31408821E-04 -1.17239312E-03  1.18234843E-04  2.82236545E-19
 -1.72159731E-06 -1.02002438E-02 -2.21078322E-02 -7.01818460E-03  1.84154688E-17
 -6.73040842E-03 -6.67207768E-01 -1.01674121E+00 -4.16092393E-01  1.25163588E-15
  4.39032102E-01  4.17516920E-04 -1.56176226E-03 -8.27396019E-01  0.00000000E+00
 -3.75046300E-07 -1.08561564E-06 -2.04028101E-08  3.19663551E-22  0.00000000E+00
 -2.09439503E-09 -5.82408595E-09  5.65403825E-09 -2.74811615E-25 -3.71523363E-07
 -1.28512450E-10  8.27848666E-08  0.00000000E+00  0.00000000E+00  0.00000000E+00
  3.00431491E+01  9.87843569E-17  1.75236924E-15  2.82180547E-15  4.68941959E-16
  2.80802189E+00 -2.22918402E-18 -5.58420761E-16 -1.02458356E-15  2.56671450E-16
  2.13139747E-01 -6.00365103E-21 -5.01508668E-18 -1.24537671E-17  1.23759614E-18
  2.44243447E-03  6.19642142E-22  6.21919527E-19  1.69012347E-18  2.82236545E-19
  3.14014731E-04  3.05323322E-21  1.80900163E-17  3.92079886E-17  1.84154688E-17
  3.36556900E-03  1.23181243E-17  1.22113663E-15  1.86085953E-15  1.25163588E-15
  2.67779637E-01 -9.12569772E-16 -9.71417184E-19  2.85092331E-18  1.57491075E-15
  0.00000000E+00  5.40691865E-22  1.56509622E-21  3.19663551E-22  2.01329085E-07
  0.00000000E+00 -2.46475175E-24 -6.85397253E-24 -2.74811615E-25  5.88755632E-09
  6.22374901E-22  1.53572285E-26 -2.27843175E-22  0.00000000E+00  0.00000000E+00
  0.00000000E+00  0.00000000E+00  3.00431491E+01  0.00000000E+00  6.14921335E-02
  1.43518809E-01 -3.76020561E-02  8.84869323E-17  0.00000000E+00  1.65447284E-04
  5.30539291E-04 -2.64949843E-04  5.73502087E-19  0.00000000E+00  7.30979549E-08
  3.28517657E-07 -9.74579109E-08  2.24910014E-22  0.00000000E+00  1.18496991E-08
  5.81887123E-08 -9.47767607E-10  7.93332036E-24  0.00000000E+00  4.33120551E-06
  1.75036062E-05  3.94304414E-06 -5.88345593E-21  0.00000000E+00  9.89447819E-03
  2.72250108E-02  6.40960079E-03 -9.69644219E-18  2.65524459E-04  6.43935982E-09
  1.76574913E-06  7.35396168E-02  0.00000000E+00  0.00000000E+00  0.00000000E+00
  0.00000000E+00  0.00000000E+00  0.00000000E+00  0.00000000E+00  0.00000000E+00
  0.00000000E+00  0.00000000E+00  0.00000000E+00  0.00000000E+00  0.00000000E+00
  1.21594898E-04  2.25271792E+00  2.62967194E+00 -2.65511568E+00  5.46359681E-15
  5.16186327E+01  1.00204154E-02  1.23654318E+00  2.03627526E+00 -4.57783430E-01
  1.07727756E-15  5.00066891E-06  3.27163462E-02  6.57677945E-02 -2.84807967E-02
  6.16486355E-17  2.90453934E-09  2.71396206E-04  7.45492883E-04 -1.91568741E-04
  4.42095749E-19  1.18098356E-09  7.87851267E-05  2.37243359E-04 -3.33340397E-06
  2.79023691E-20  3.01611425E-08  3.08606739E-03  7.65147143E-03  1.49830661E-03
 -2.23563842E-18  8.50391785E-04  3.73767975E-01  6.83776440E-01  1.39299329E-01
 -2.10731984E-16  2.70222160E-02  1.83547798E-05  7.62264329E-04  1.17746960E+00
  0.00000000E+00  1.87843728E-08  7.28805712E-08  2.09439503E-09  2.46475175E-24
  0.00000000E+00  0.00000000E+00  0.00000000E+00  0.00000000E+00  0.00000000E+00
  4.59889683E-08  0.00000000E+00  2.43722361E-09  1.37103661E+00  1.64165580E+01
  1.51245261E+01 -1.17551957E+01  2.41893980E-14  1.28387649E+01  5.24289180E+01
 -2.27974560E-02 -1.55944636E+00 -2.32296727E+00  6.43073083E-01 -1.51330992E-15
 -1.53966148E-05 -4.92388361E-02 -9.19773882E-02  4.44820615E-02 -9.62844696E-17
 -1.32842847E-08 -5.45042541E-04 -1.43537091E-03  3.87719106E-04 -8.94764815E-19
 -5.85410033E-09 -1.71526561E-04 -4.99185998E-04  7.30109013E-06 -6.11140184E-20
 -1.26341541E-07 -5.69789782E-03 -1.34702363E-02 -2.81799864E-03  4.20476420E-18
 -2.27243639E-03 -5.28145438E-01 -8.98124037E-01 -2.12971980E-01  3.22183949E-16
 -3.01826525E-02 -3.58463948E-05 -1.28371079E-03 -1.08103213E+00  0.00000000E+00
 -5.22355142E-08 -1.95438220E-07 -5.82408595E-09 -6.85397253E-24  0.00000000E+00
  0.00000000E+00  0.00000000E+00  0.00000000E+00  0.00000000E+00 -1.11286290E-07
  0.00000000E+00 -6.26528183E-09 -1.56912159E+00 -8.18851889E+00 -9.28867337E-01
  8.73895163E+00 -1.79826848E-14  1.03219669E+00  1.20484652E+01  5.31127382E+01
  6.11760012E-03  4.97940330E-01  8.81860475E-01  3.06902760E-01  4.76859363E-16
  7.97035131E-06  2.94251495E-02  6.06752465E-02 -1.54454344E-02  5.73360283E-17
  3.88419545E-09  1.93128707E-04  5.33016245E-04 -5.10228820E-05  3.16768559E-19
  9.46261725E-11  3.35386325E-06  1.01338430E-05  2.48068020E-05  1.19396989E-21
 -2.76180659E-08 -1.52733270E-03 -3.83265671E-03  2.47172048E-04  1.12507594E-18
 -5.49303261E-04 -1.49493824E-01 -2.88713119E-01  8.15075559E-02  9.04647241E-17
  3.42957913E-02  1.78335675E-05 -6.79509718E-04 -9.80353682E-01  0.00000000E+00
 -2.09439503E-09 -8.12594108E-09  5.65403825E-09 -2.74811615E-25  0.00000000E+00
  0.00000000E+00  0.00000000E+00  0.00000000E+00  0.00000000E+00 -2.56858732E-08
  0.00000000E+00  1.88553511E-09  1.64818272E+00  1.23689802E+01  1.42493867E+01
 -1.98836970E+00  2.44117908E-14  0.00000000E+00  0.00000000E+00  0.00000000E+00
  5.20959578E+01 -1.43962252E-17 -1.17177667E-15 -2.07523567E-15  4.76859363E-16
  5.09541637E-01 -1.72523715E-20 -6.36927521E-17 -1.31335728E-16  5.73360283E-17
  1.10429988E-02 -8.96381264E-24 -4.45695787E-19 -1.23007655E-18  3.16768559E-19
  8.62391343E-05 -7.92071532E-25 -2.80736242E-20 -8.48256704E-20  1.19396989E-21
  2.49494417E-05  4.12091947E-23  2.27894852E-18  5.71874574E-18  1.12507594E-18
  1.00118876E-03  8.30985811E-19  2.26154212E-16  4.36765122E-16  9.04647241E-17
  1.41307094E-01 -7.10383491E-17 -3.94501779E-20  1.16553163E-18  1.77050842E-15
  0.00000000E+00 -2.46475175E-24 -9.56287003E-24 -2.74811615E-25  5.88755632E-09
  0.00000000E+00  0.00000000E+00  0.00000000E+00  0.00000000E+00  0.00000000E+00
  3.58112700E-23  0.00000000E+00 -4.49692666E-24 -3.39156818E-15 -2.54524206E-14
 -2.93218500E-14  2.44117908E-14  9.87490107E+00  0.00000000E+00  0.00000000E+00
  0.00000000E+00  0.00000000E+00  5.20959578E+01  3.28783983E-02  1.56042277E+00
  2.07072886E+00  1.25379772E+00 -2.28433518E-15  1.30855721E-03  3.73650069E-01
  6.72547242E-01  6.67948226E-02 -7.43108912E-17  1.06836262E-05  3.91890544E-03
  9.29974506E-03  1.09330386E-03 -1.38008903E-18  3.89535432E-07  2.12639961E-04
  5.41437817E-04  1.81217580E-04 -3.10304712E-19  1.31296197E-07  1.06879586E-03
  2.20003929E-03  1.39262782E-03 -2.54874754E-18  2.57892623E-04  7.51444061E-02
  1.04907607E-01  9.63026130E-02 -1.80112895E-16  8.59414904E-01  7.46128594E-04
  9.52134663E-05  6.10556837E-02  9.08812682E-11  3.80578072E-07  8.15489187E-07
  3.71523363E-07 -6.22374901E-22  0.00000000E+00  4.59889683E-08  1.11286290E-07
  2.56858732E-08 -3.58112700E-23  8.29995348E-08  1.73964710E-09  4.69411743E-07
  1.83001065E+00  1.60966042E+01  7.38030300E+00  1.48559143E+01 -2.86920213E-14
  2.95082148E-01  4.51358590E+00 -8.58868672E-01  5.48622805E+00 -1.09220217E-14
  3.54971880E+01  4.53110699E-04  1.47511110E-01  2.80288396E-01 -2.94702146E-02
  8.32959432E-17  3.59240406E-07  3.72619674E-03  8.29883206E-03 -2.39090590E-03
  5.43387075E-18  2.15761296E-10  1.88712801E-05  5.46542235E-05 -9.66524839E-06
  2.38511376E-20  5.44515568E-11  3.65115432E-06  1.14526985E-05  2.12048833E-07
  6.15393175E-22  8.77229006E-10  1.59908449E-04  4.23175316E-04  8.14249790E-05
 -1.20720617E-19  2.40430491E-05  3.02345501E-02  6.17423494E-02  1.22621415E-02
 -1.83356396E-17  6.02433857E-03  1.63319851E-06  4.57865359E-05  1.66311616E-01
  0.00000000E+00  6.73902121E-10  2.64102306E-09  1.28512450E-10 -1.53572285E-26
  0.00000000E+00  0.00000000E+00  0.00000000E+00  0.00000000E+00  0.00000000E+00
  1.73964710E-09  0.00000000E+00  1.41072279E-10  1.79902769E-01  5.47110574E+00
  7.56801449E+00 -2.39367367E+00  5.36863350E-15  3.27204369E+00  3.35479587E+01
  3.67303641E+01  6.34231005E+00 -9.13907337E-15  2.83411229E+00  8.55857357E+01
  6.86725541E-03  5.95311420E-01  8.57650328E-01 -5.36623312E-01  1.12131514E-15
  4.26317812E-06  1.09081147E-02  1.91353555E-02 -1.34366279E-02  2.78680967E-17
  4.28571116E-08  1.92401198E-04  4.73581020E-04 -2.06674799E-04  4.43360616E-19
  1.47743955E-07  1.64085758E-04  4.45083969E-04 -8.26423241E-05  1.98556287E-19
  3.23736948E-06  9.91658624E-03  2.23624042E-02 -4.94836387E-04  2.85059695E-18
  5.05915371E-03  6.38676133E-01  1.09993432E+00 -1.33844942E-01  3.56612639E-16
  4.87385411E-03  9.86759509E-06  4.67869421E-03  3.34834937E+00  4.98336489E-11
  2.24923844E-07  5.83553992E-07 -8.27848666E-08  2.27843175E-22  0.00000000E+00
  2.43722361E-09  6.26528183E-09 -1.88553511E-09  4.49692666E-24  4.69411743E-07
  1.41072279E-10  6.02008385E-09  1.74206802E-01  3.82867051E+00  2.42111204E+00
 -4.62836974E+00  9.21419131E-15  3.13135590E+00  2.38025365E+01 -2.27206269E-01
 -2.21009696E+01  4.26847839E-14  5.80905049E-01  9.85085318E+00  4.57252620E+01
Multipole Matrix (1,1,0)                   R   N=        1830
  1.36066755E+00  3.37938644E-01  1.36066755E+00  3.78533143E-02  4.41848287E-01
  1.36066755E+00  1.85595739E-01  2.16639311E+00  5.08390209E-01  1.36066755E+00
  0.00000000E+00  0.00000000E+00  0.00000000E+00  0.00000000E+00  1.36066755E+00
  2.40087839E-06  8.40159741E-02 -8.76292496E-02  1.08192885E-01 -2.16514830E-16
  2.08667141E+00  5.93022445E-02  9.26337276E-01 -2.68387393E-01  1.21438481E+00
 -1.46423842E-15  5.18250698E-01  2.08667141E+00  6.91365615E-02  1.10214180E+00
 -1.12501659E-01  1.50906849E+00 -2.07790684E-15  1.79654531E-01  2.09704350E+00
  2.08667141E+00 -6.97893231E-02 -3.11471623E-01  2.25191574E-01 -2.73479090E-01
  8.45916210E-16  5.99702384E-02  7.00011283E-01  5.08390209E-01  2.08667141E+00
  1.55799756E-16  1.50356079E-15 -7.62988687E-16  2.33045650E-15  5.28785334E-01
  0.00000000E+00  0.00000000E+00  0.00000000E+00  0.00000000E+00  2.08667141E+00
  0.00000000E+00 -5.44050185E-03  1.20843233E-02 -4.12539635E-03  9.01600086E-18
 -9.55696037E-07 -1.22669975E-01  2.00298242E-01  3.58494377E-02 -5.73800019E-17
 -3.44921213E+00  2.60180654E-03  2.72863775E-02  4.33104246E-03  4.01083861E-02
 -3.28053201E-17  6.59742786E-02 -3.66080968E-01  8.94372040E-01 -9.39754005E-03
 -8.19885581E-17 -8.56654571E-01 -3.44921213E+00  5.74144221E-03  7.56845794E-02
 -4.04063382E-02  9.72262439E-02 -8.68065955E-17  1.07321257E-01  1.21790075E-01
  3.18890991E-01  5.41467189E-02  3.05640587E-17  1.41800422E-01  1.65518594E+00
 -3.44921213E+00 -1.65975980E-03  6.80104562E-04  4.41721190E-03 -4.28832675E-03
  2.65179818E-18  2.22141985E-02 -2.76288457E-01  5.61208600E-01 -1.66630236E-01
 -8.30424540E-17 -1.25592084E-01 -1.46599177E+00  5.08390209E-01 -3.44921213E+00
  4.30616090E-18  1.68449300E-17  1.85199402E-17  3.78304545E-17  9.01212415E-03
 -2.97040642E-17  1.38367560E-16 -3.34789279E-16 -8.45918748E-18 -2.09021860E-01
  0.00000000E+00  0.00000000E+00  0.00000000E+00  0.00000000E+00 -3.44921213E+00
  0.00000000E+00  4.73018492E-04 -1.24288432E-03 -3.05245311E-04  3.62163527E-19
  0.00000000E+00  1.73767827E-03 -3.03915866E-03 -2.90250386E-03  4.88629358E-18
 -1.46069810E-06  3.84790255E-02 -1.90983372E-02 -6.11393392E-02  1.05023575E-16
  1.36066755E+00  4.73018492E-04  1.32352884E-03 -3.19958850E-03  2.42539949E-03
  1.13323369E-18  2.95311143E-03 -4.51280764E-02  8.75454544E-02  8.31676063E-03
 -6.75151600E-17 -1.25353618E-01 -5.61208725E-01  4.63055716E-01  7.05818076E-02
 -1.22274891E-15  3.37938644E-01  1.36066755E+00  1.24288432E-03  3.19958850E-03
 -7.08193687E-03  1.33838159E-02  2.76653175E-18  5.33507501E-03 -1.02218099E-02
  4.14670580E-02 -2.34386089E-03 -9.48868909E-18 -6.03406943E-02 -1.87368979E-02
 -2.06517484E-01  5.85809548E-02 -1.87498350E-16 -3.78533143E-02 -4.41848287E-01
  1.36066755E+00  3.05245311E-04 -2.42539949E-03  1.33838159E-02  3.05244191E-03
 -1.04395961E-18  4.58137144E-03 -8.12670832E-02  1.51088816E-01  3.24414701E-02
 -1.36115035E-16 -1.98940460E-01 -1.07835080E+00  8.36175176E-01  4.40120768E-01
 -2.54710859E-15 -1.85595739E-01 -2.16639311E+00  5.08390209E-01  1.36066755E+00
 -3.62163527E-19 -1.13323369E-18  2.76653175E-18 -1.04395961E-18  1.16410291E-03
 -8.29669682E-18  7.16000886E-17 -1.50421630E-16 -1.12587637E-17 -1.49088175E-02
  3.73142172E-16  9.13131318E-16 -9.34276435E-16 -3.11469206E-16 -3.20401052E-01
  0.00000000E+00  0.00000000E+00  0.00000000E+00  0.00000000E+00  1.36066755E+00
  0.00000000E+00  2.95311143E-03 -5.33507501E-03 -4.58137144E-03  8.29669682E-18
  0.00000000E+00  7.26176789E-04 -6.63403948E-04 -1.84809378E-03  3.51599902E-18
  0.00000000E+00  3.70252196E-03  1.47690152E-03 -8.44326171E-03  1.65156039E-17
  2.40087839E-06  8.40159741E-02  8.76292496E-02 -1.08192885E-01  2.16514830E-16
  2.08667141E+00  1.73767827E-03 -4.51280764E-02  1.02218099E-02  8.12670832E-02
 -7.16000886E-17  7.26176789E-04  2.03137513E-03  1.19973396E-03 -4.68824255E-03
  1.09993037E-17 -5.55496844E-03  1.77790362E-02  3.61490017E-04 -6.35715886E-02
  1.88224655E-17  5.93022445E-02  9.26337276E-01  2.68387393E-01 -1.21438481E+00
  1.46423842E-15  5.18250698E-01  2.08667141E+00  3.03915866E-03 -8.75454544E-02
  4.14670580E-02  1.51088816E-01 -1.50421630E-16  6.63403948E-04 -1.19973396E-03
  3.66568565E-03  1.04738842E-02 -5.30403440E-19  2.73521039E-03 -2.67689773E-02
 -1.02296600E-03  7.32651865E-02 -6.89783875E-17 -6.91365615E-02 -1.10214180E+00
 -1.12501659E-01  1.50906849E+00 -2.07790684E-15 -1.79654531E-01 -2.09704350E+00
  2.08667141E+00  2.90250386E-03 -8.31676063E-03 -2.34386089E-03  3.24414701E-02
 -1.12587637E-17  1.84809378E-03  4.68824255E-03  1.04738842E-02 -9.84744725E-03
  2.57769794E-17 -1.27134235E-02 -1.57967656E-02  1.27603577E-02 -2.80999407E-02
 -8.50351877E-17  6.97893231E-02  3.11471623E-01  2.25191574E-01 -2.73479090E-01
  8.45916210E-16 -5.99702384E-02 -7.00011283E-01  5.08390209E-01  2.08667141E+00
 -4.88629358E-18  6.75151600E-17 -9.48868909E-18 -1.36115035E-16 -1.49088175E-02
 -3.51599902E-18 -1.09993037E-17 -5.30403440E-19  2.57769794E-17  1.78675087E-03
  2.47951931E-17 -6.83130406E-17 -9.18828390E-18  2.08058237E-16  5.87059624E-03
 -1.55799756E-16 -1.50356079E-15 -7.62988687E-16  2.33045650E-15  5.28785334E-01
  0.00000000E+00  0.00000000E+00  0.00000000E+00  0.00000000E+00  2.08667141E+00
 -1.46069810E-06 -1.25353618E-01  6.03406943E-02  1.98940460E-01 -3.73142172E-16
  0.00000000E+00 -5.55496844E-03 -2.73521039E-03  1.27134235E-02 -2.47951931E-17
  0.00000000E+00 -1.19866402E-03 -2.15365497E-03  2.42155913E-03 -4.88584636E-18
  0.00000000E+00 -5.44050185E-03 -1.20843233E-02  4.12539635E-03 -9.01600086E-18
 -9.55696037E-07 -1.22669975E-01 -2.00298242E-01 -3.58494377E-02  5.73800019E-17
 -3.44921213E+00  3.84790255E-02 -5.61208725E-01  1.87368979E-02  1.07835080E+00
 -9.13131318E-16  3.70252196E-03  1.77790362E-02  2.67689773E-02  1.57967656E-02
  6.83130406E-17 -1.19866402E-03 -3.35418730E-03 -4.15730209E-03  5.29079896E-03
 -1.52892494E-17  2.60180654E-03  2.72863775E-02 -4.33104246E-03 -4.01083861E-02
  3.28053201E-17  6.59742786E-02 -3.66080968E-01 -8.94372040E-01  9.39754005E-03
  8.19885581E-17 -8.56654571E-01 -3.44921213E+00  1.90983372E-02 -4.63055716E-01
 -2.06517484E-01  8.36175176E-01 -9.34276435E-16 -1.47690152E-03 -3.61490017E-04
 -1.02296600E-03  1.27603577E-02 -9.18828390E-18  2.15365497E-03  4.15730209E-03
  3.42081066E-03  1.68248650E-03  2.15588796E-17 -5.74144221E-03 -7.56845794E-02
 -4.04063382E-02  9.72262439E-02 -8.68065955E-17 -1.07321257E-01 -1.21790075E-01
  3.18890991E-01  5.41467189E-02  3.05640587E-17 -1.41800422E-01 -1.65518594E+00
 -3.44921213E+00  6.11393392E-02 -7.05818076E-02  5.85809548E-02  4.40120768E-01
 -3.11469206E-16  8.44326171E-03  6.35715886E-02  7.32651865E-02 -2.80999407E-02
  2.08058237E-16 -2.42155913E-03 -5.29079896E-03  1.68248650E-03  6.79251521E-03
 -2.60017086E-17  1.65975980E-03 -6.80104562E-04  4.41721190E-03 -4.28832675E-03
  2.65179818E-18 -2.22141985E-02  2.76288457E-01  5.61208600E-01 -1.66630236E-01
 -8.30424540E-17  1.25592084E-01  1.46599177E+00  5.08390209E-01 -3.44921213E+00
 -1.05023575E-16  1.22274891E-15 -1.87498350E-16 -2.54710859E-15 -3.20401052E-01
 -1.65156039E-17 -1.88224655E-17 -6.89783875E-17 -8.50351877E-17  5.87059624E-03
  4.88584636E-18  1.52892494E-17  2.15588796E-17 -2.60017086E-17 -2.95012330E-03
 -4.30616090E-18 -1.68449300E-17  1.85199402E-17  3.78304545E-17  9.01212415E-03
  2.97040642E-17 -1.38367560E-16 -3.34789279E-16 -8.45918748E-18 -2.09021860E-01
  0.00000000E+00  0.00000000E+00  0.00000000E+00  0.00000000E+00 -3.44921213E+00
  8.96281275E-03  4.61961432E-01 -1.37193250E-02  7.13016631E-01 -1.12039023E-15
  1.40263737E-01  2.04469506E+00  1.76446469E+00  2.21644481E+00 -3.51796070E-15
 -1.78059978E-02 -4.38825245E-02  1.62933921E-01 -6.40490393E-02  5.61129082E-17
  7.82616024E-05 -7.51148246E-03 -1.54047850E-04 -1.29526532E-02  1.61318519E-17
  2.05620503E-05  2.86253992E-04  7.03182147E-04  8.16901608E-04 -1.25747957E-18
 -2.78581530E-04  8.52876168E-03  2.38473752E-03  2.06126256E-02 -2.55186566E-17
  6.67671062E+00  1.38283186E-04  3.67177808E-04  7.79694695E-03  1.39919552E-03
 -2.50455213E-19  9.31481607E-03 -3.07270679E-01  5.81231715E-01 -1.48057955E-01
  2.33775650E-16 -2.31825391E-01 -3.37858027E+00  3.02578302E+00 -3.19406774E+00
  4.89306979E-15  5.27568380E-03 -3.83713244E-01  1.37804446E-01 -6.78360172E-01
  9.57202169E-16  1.92204591E-04 -2.05407986E-03  9.01304161E-04 -1.12943073E-02
  6.33877371E-18 -3.39347545E-05 -4.72033050E-04  1.13693534E-03 -1.19090377E-03
  1.74593381E-18 -1.55747665E-01 -1.10309448E+01  7.82616024E-05 -7.51148246E-03
  1.54047850E-04  1.29526532E-02 -1.61318519E-17  2.05620503E-05  2.86253992E-04
 -7.03182147E-04 -8.16901608E-04  1.25747957E-18 -2.78581530E-04  8.52876168E-03
 -2.38473752E-03 -2.06126256E-02  2.55186566E-17  8.96281275E-03  4.61961432E-01
  1.37193250E-02 -7.13016631E-01  1.12039023E-15  1.40263737E-01  2.04469506E+00
 -1.76446469E+00 -2.21644481E+00  3.51796070E-15 -1.78059978E-02 -4.38825245E-02
 -1.62933921E-01  6.40490393E-02 -5.61129082E-17  5.88316794E-06  7.72673795E-04
  6.67671062E+00  5.27568380E-03 -3.83713244E-01 -1.37804446E-01  6.78360172E-01
 -9.57202169E-16  1.92204591E-04 -2.05407986E-03 -9.01304161E-04  1.12943073E-02
 -6.33877371E-18 -3.39347545E-05 -4.72033050E-04 -1.13693534E-03  1.19090377E-03
 -1.74593381E-18  1.38283186E-04  3.67177808E-04 -7.79694695E-03 -1.39919552E-03
  2.50455213E-19  9.31481607E-03 -3.07270679E-01 -5.81231715E-01  1.48057955E-01
 -2.33775650E-16 -2.31825391E-01 -3.37858027E+00 -3.02578302E+00  3.19406774E+00
 -4.89306979E-15  7.72673795E-04 -9.70221895E-06 -1.55747665E-01 -1.10309448E+01
  0.00000000E+00  5.52458166E-07 -2.23040948E-06 -4.85245810E-07  6.54075509E-22
  0.00000000E+00  1.12489005E-05 -3.56009475E-05 -2.11161757E-05  3.62214113E-20
  0.00000000E+00  5.82323855E-03 -1.08885550E-02 -9.38408729E-03  1.65702130E-17
  2.07818218E-07  1.52128643E-01 -2.49102982E-01 -5.91073579E-02  7.27923207E-17
  0.00000000E+00  7.00507869E-03 -1.63042216E-02  4.58192088E-03 -1.13022213E-17
  0.00000000E+00  1.37167226E-05 -4.96379203E-05  5.27157926E-06 -1.68371466E-20
  9.57672893E-07  5.14839319E-03  6.60964275E-03  1.25574300E-06  6.02617227E+00
  1.04160504E-07  1.26590299E-04 -3.25991999E-04 -3.00028571E-04  8.12474102E-20
  2.90188182E-06 -2.34864536E-03  4.62844189E-03  2.06876237E-04 -4.03208632E-18
 -4.01535736E-03 -6.63399026E-02  1.00769685E-01 -3.42447320E-02 -1.27583941E-16
  4.02367109E-02  9.87400033E-01 -1.19809635E+00 -1.02702281E+00  3.03575637E-16
  2.91749771E-03  2.59882936E-01 -4.24031173E-01  2.23195137E-02 -2.55813089E-16
 -6.33133972E-06  4.31184583E-03 -9.76093336E-03 -6.31547135E-04 -2.83366759E-18
 -4.91971600E-04 -1.24687550E-01  2.85445819E-01  5.93051192E-04  1.49667455E+00
  6.02617227E+00  4.22679761E-07  2.36822404E-04 -6.03685884E-04 -5.27900747E-04
  1.58871087E-19  9.49354084E-06 -3.23674884E-03  5.88266226E-03  1.36383218E-04
 -5.54942213E-18 -7.34191589E-03 -5.08078505E-02  6.89125274E-02 -4.12430040E-02
 -1.10756661E-16  6.66365227E-02  9.75626977E-01 -9.66110311E-01 -1.04358609E+00
  3.92275137E-16  6.59785925E-03  3.26774633E-01 -4.87798815E-01  4.50561312E-02
 -3.55307492E-16 -2.31424072E-05  7.19794812E-03 -1.56642432E-02 -9.33841990E-04
 -4.85014111E-18 -6.40545957E-04 -6.02438653E-02  2.58868208E-01  9.62420945E-04
 -7.96773295E-02 -9.30045156E-01  6.02617227E+00  9.91567512E-08 -1.98069023E-04
  5.06621299E-04  2.31894816E-05 -1.24887541E-19  5.35101763E-06 -4.40332974E-03
  8.74829896E-03  1.55772811E-03 -7.68101941E-18 -6.35658055E-03 -1.64038968E-01
  2.34674410E-01  4.42112055E-02 -3.06677389E-16  9.19880927E-03 -6.75826156E-01
  7.56491510E-01  5.04359002E-01 -1.98450660E-16 -2.11058515E-03 -2.16328705E-01
  3.65467673E-01  4.43197785E-02  2.25416946E-16  2.93723765E-06 -2.81178758E-03
  6.47302725E-03  1.13454433E-03  1.90201073E-18 -8.97703624E-04 -2.52752176E-01
 -3.52402743E-01 -5.34322543E-04 -3.90505053E-01 -4.55822672E+00  5.08390209E-01
  6.02617227E+00 -1.23501976E-22 -8.50825104E-20  2.23670814E-19  1.92587177E-19
  4.29270859E-05 -9.37306018E-21  3.92566347E-18 -7.81449089E-18 -1.92471300E-19
 -7.37985793E-04  1.14084375E-17  9.13069339E-17 -1.56929599E-16  7.69113874E-17
 -2.39763304E-02 -1.98866095E-17 -3.41939484E-16  5.05046804E-16  3.54323020E-16
  5.48540577E-01  4.70129671E-18  2.64372846E-16 -4.64712909E-16  3.53730493E-17
  1.04004107E-01 -7.78577148E-21  2.93129554E-18 -6.76462736E-18 -3.87935929E-19
  1.42315860E-03  1.14210818E-18  2.90845391E-16  5.54257287E-16  7.85419739E-19
  0.00000000E+00  0.00000000E+00  0.00000000E+00  0.00000000E+00  6.02617227E+00
  0.00000000E+00 -1.19988875E-09  5.87927770E-09 -2.03881397E-10  8.03042706E-25
  0.00000000E+00 -4.94407304E-07  1.99149573E-06  4.12064772E-07 -6.70795192E-22
  0.00000000E+00 -1.06410731E-03  2.91671551E-03  6.09393755E-04 -1.04177347E-18
  0.00000000E+00 -5.55007442E-03  1.29155025E-02 -3.87799033E-03  7.99021737E-18
  0.00000000E+00 -1.27794177E-05  4.09473709E-05 -2.18833424E-05  4.43829906E-20
  0.00000000E+00 -5.97250661E-09  2.68166586E-08 -8.62628682E-09  1.83966151E-23
 -2.12757830E-07 -8.19669471E-03 -1.89361695E-05 -4.95951644E-10  4.06116874E-06
 -1.87648029E-01  2.06636376E-01 -2.32864674E-01  4.33168886E-16 -4.93036655E+00
  2.94389079E-10 -1.70816200E-05  4.85366415E-05 -1.73945712E-05  6.03784714E-21
  9.86362716E-08 -1.38025558E-03  3.21780429E-03  1.54163317E-04 -9.97585187E-19
 -7.88093151E-04 -1.03604722E-01  1.81097220E-01 -8.49537888E-03 -5.94161390E-17
  1.65913899E-03 -2.23417469E-02  2.64442547E-02 -1.57159446E-01  1.59458173E-17
  9.34354268E-06  6.76088425E-03 -1.28814922E-02  1.40534555E-03 -1.28192411E-17
 -3.83029173E-09  5.52547796E-05 -1.42674271E-04 -1.23123189E-05 -8.96442576E-20
 -4.57476634E-04 -4.05599058E-01  8.06660860E-03  6.44324098E-06  2.50399374E-01
  5.13574689E-01 -6.14238279E-01 -1.31963690E+00 -1.07075302E-15 -1.22451762E+00
 -4.93036655E+00  1.44956906E-09 -3.98796533E-05  1.09367685E-04 -4.04613498E-05
  1.41403480E-20  4.12544988E-07 -2.71293749E-03  5.99733741E-03  3.20819398E-04
 -1.98245792E-18 -2.13084347E-03 -1.52822884E-01  2.48528522E-01 -7.96177004E-03
 -9.39203603E-17  3.81353091E-03 -4.26249902E-02  4.90690953E-02 -2.12831852E-01
  3.66133384E-17  2.92695129E-05  1.05395625E-02 -1.85131544E-02  2.23501942E-03
 -2.04356557E-17 -1.73548819E-08  1.18160045E-04 -2.90736317E-04 -2.68500833E-05
 -1.91739943E-19 -8.27465805E-04 -4.14917439E-01  9.60138072E-03  1.35571874E-05
  2.79076899E-01  1.91239934E-01 -9.77675423E-02 -8.17760683E-01 -6.79296930E-16
  4.93249468E-02  5.75752577E-01 -4.93036655E+00  9.45904680E-12 -1.60866864E-05
  4.58016208E-05 -5.36240032E-06  5.70247919E-21  9.24452582E-08 -1.19910130E-03
  2.81794244E-03 -1.05221916E-04 -8.75298451E-19 -5.33373641E-04 -9.11559470E-02
  1.63238034E-01 -2.06251465E-02 -5.41060478E-17 -1.21189140E-03 -1.51750230E-01
  2.37851192E-01 -1.19336491E-02  1.36523794E-16 -1.51691297E-05 -1.04801915E-02
  2.01952373E-02 -3.15116671E-03  2.01677958E-17  5.23754238E-09 -9.04839851E-05
  2.34266399E-04 -1.04321628E-05  1.47354615E-19 -5.37340919E-04 -4.85683110E-01
 -1.35731170E-02 -1.00776351E-05 -3.07524916E-01 -2.14220139E+00  1.95689071E+00
 -1.16392237E-01  3.62686115E-15 -5.16098347E-01 -6.02423261E+00  5.08390209E-01
 -4.93036655E+00  1.97172339E-25 -6.06183341E-21  1.72676162E-20 -6.15334680E-21
 -5.38559155E-06 -1.34754948E-22  1.00355694E-18 -2.36247254E-18 -1.18307685E-19
 -4.41922572E-04  7.71210879E-19  5.98868061E-17 -1.10984172E-16  3.18453880E-18
 -3.82951061E-02  2.38704882E-18 -2.91815179E-17  4.12066547E-17 -1.44439083E-16
 -1.07354157E-02  3.23147349E-20  1.25373909E-17 -2.44006487E-17  2.64216673E-18
  2.21098276E-03 -1.18062083E-23  8.95343890E-20 -2.31442395E-19 -2.03012538E-20
  1.73352974E-05  6.86719139E-19  5.89909309E-16  2.01937127E-17  1.37033563E-20
  5.96281032E-16  4.43243101E-16 -8.69110185E-16 -2.04272148E-15  2.96328686E-01
  0.00000000E+00  0.00000000E+00  0.00000000E+00  0.00000000E+00 -4.93036655E+00
  6.58597346E-08  9.82319459E-05 -2.53097394E-04 -1.43402013E-04  1.41976493E-19
  3.83347350E-07 -2.27287354E-05  4.77211724E-05 -2.40267862E-04 -4.86104532E-20
 -2.35636498E-04  5.33967340E-03 -5.87503652E-03 -2.00260187E-02  1.26678384E-17
  7.43549126E-03  6.30819406E-01 -7.46978374E-01 -7.48160746E-01  9.33147706E-16
  2.94007865E-03  2.89031833E-01 -4.78993223E-01 -1.19159030E-01  5.71678032E-17
 -1.38824519E-05  3.94372483E-03 -8.83771140E-03 -2.10372556E-03  1.34806218E-18
 -2.15554916E-05 -1.94804574E-03  7.68003175E-01  9.54255693E-04  4.13035641E-01
  6.00262403E+00 -1.95290533E+00 -7.48440728E+00  1.06530529E-14 -2.27490179E-02
  7.41021936E-01  2.34073315E-01 -1.36417421E+00  1.74054452E-15  1.84809872E+01
  1.28821393E-11 -5.03698138E-07  1.49020739E-06 -7.86009143E-07  8.48474833E-23
  2.85333888E-09 -6.35959606E-05  1.58656808E-04  4.47416533E-06 -4.80610971E-20
 -2.20643502E-05 -7.12525048E-03  1.37900008E-02 -1.05250171E-03 -4.34469037E-18
  7.87293158E-05  4.50862914E-03 -8.21138873E-03 -1.68890383E-02 -2.56257501E-18
  6.83980652E-07  1.02515191E-03 -2.16133380E-03  1.26023937E-04 -1.50277118E-18
 -2.86049261E-10  5.54953264E-06 -1.51435996E-05 -8.88822243E-07 -7.01387011E-21
 -2.55113207E-05 -4.77704547E-02  2.21624480E-03  7.52334810E-07  3.41138339E-02
  3.19261303E-01 -4.23867265E-01 -3.67084051E-01 -3.12962218E-16 -2.94711071E-01
 -1.86674246E+00  1.94125891E+00 -2.44344110E+00 -5.16664429E-16  5.03346970E-01
 -2.50744641E+00  3.91895276E-08 -1.02644373E-04  2.66842907E-04 -9.75563958E-05
  1.22802369E-19  1.04687129E-05 -8.53850289E-03  1.77865042E-02 -2.62593883E-03
  2.42860082E-18 -5.10818774E-03 -3.38255805E-01  5.38629635E-01 -1.68579792E-01
  1.88796692E-16  1.01963898E-03 -1.21877682E-01  1.57244942E-01 -1.97364861E-01
  2.32264916E-16  8.45293820E-06  6.96716956E-04 -1.19383510E-03 -1.10423047E-03
 -1.82501253E-18 -5.09303084E-08 -4.00314786E-06  9.11068914E-06 -5.46953703E-05
  1.00338675E-20 -5.08138308E-03 -1.97533936E+00  9.27649339E-04  1.51341735E-06
  3.08335994E-02 -4.46949876E-01  2.06647092E-01 -9.68136900E-01  1.06139623E-15
 -3.55742175E-01 -5.87044507E+00 -7.20603513E-01 -7.82891353E+00  1.03932376E-14
  1.73511999E-02 -1.76478073E+00 -1.81829019E+01  2.07818218E-07  1.52128643E-01
  2.49102982E-01  5.91073579E-02 -7.27923207E-17  0.00000000E+00  7.00507869E-03
  1.63042216E-02 -4.58192088E-03  1.13022213E-17  0.00000000E+00  1.37167226E-05
  4.96379203E-05 -5.27157926E-06  1.68371466E-20  0.00000000E+00  5.52458166E-07
  2.23040948E-06  4.85245810E-07 -6.54075509E-22  0.00000000E+00  1.12489005E-05
  3.56009475E-05  2.11161757E-05 -3.62214113E-20  0.00000000E+00  5.82323855E-03
  1.08885550E-02  9.38408729E-03 -1.65702130E-17  6.60964275E-03  1.25574300E-06
  9.57672893E-07  5.14839319E-03  0.00000000E+00  0.00000000E+00  0.00000000E+00
  0.00000000E+00  0.00000000E+00  0.00000000E+00  0.00000000E+00  0.00000000E+00
  0.00000000E+00  0.00000000E+00  1.70902444E-11  0.00000000E+00  1.17189971E-11
  6.02617227E+00  4.02367109E-02  9.87400033E-01  1.19809635E+00  1.02702281E+00
 -3.03575637E-16  2.91749771E-03  2.59882936E-01  4.24031173E-01 -2.23195137E-02
  2.55813089E-16 -6.33133972E-06  4.31184583E-03  9.76093336E-03  6.31547135E-04
  2.83366759E-18  1.04160504E-07  1.26590299E-04  3.25991999E-04  3.00028571E-04
 -8.12474102E-20  2.90188182E-06 -2.34864536E-03 -4.62844189E-03 -2.06876237E-04
  4.03208632E-18 -4.01535736E-03 -6.63399026E-02 -1.00769685E-01  3.42447320E-02
  1.27583941E-16  2.85445819E-01  5.93051192E-04 -4.91971600E-04 -1.24687550E-01
  0.00000000E+00  7.57497421E-10  4.03066188E-09  1.17194176E-10 -1.22979443E-24
  0.00000000E+00 -7.80340602E-09 -2.06865118E-08 -6.03131806E-09 -1.02390742E-24
 -9.33721274E-08 -2.16579776E-10  5.88851405E-08  1.49667455E+00  6.02617227E+00
 -6.66365227E-02 -9.75626977E-01 -9.66110311E-01 -1.04358609E+00  3.92275137E-16
 -6.59785925E-03 -3.26774633E-01 -4.87798815E-01  4.50561312E-02 -3.55307492E-16
  2.31424072E-05 -7.19794812E-03 -1.56642432E-02 -9.33841990E-04 -4.85014111E-18
 -4.22679761E-07 -2.36822404E-04 -6.03685884E-04 -5.27900747E-04  1.58871087E-19
 -9.49354084E-06  3.23674884E-03  5.88266226E-03  1.36383218E-04 -5.54942213E-18
  7.34191589E-03  5.08078505E-02  6.89125274E-02 -4.12430040E-02 -1.10756661E-16
 -2.58868208E-01 -9.62420945E-04  6.40545957E-04  6.02438653E-02  0.00000000E+00
 -4.03066188E-09 -2.03375324E-08  1.96952931E-07  6.30895706E-24  0.00000000E+00
  3.12892250E-08  8.41022060E-08  2.41837048E-08  4.10554949E-24  1.23571955E-07
  8.87333268E-10  4.07852301E-08  7.96773295E-02  9.30045156E-01  6.02617227E+00
 -9.19880927E-03  6.75826156E-01  7.56491510E-01  5.04359002E-01 -1.98450660E-16
  2.11058515E-03  2.16328705E-01  3.65467673E-01  4.43197785E-02  2.25416946E-16
 -2.93723765E-06  2.81178758E-03  6.47302725E-03  1.13454433E-03  1.90201073E-18
 -9.91567512E-08  1.98069023E-04  5.06621299E-04  2.31894816E-05 -1.24887541E-19
 -5.35101763E-06  4.40332974E-03  8.74829896E-03  1.55772811E-03 -7.68101941E-18
  6.35658055E-03  1.64038968E-01  2.34674410E-01  4.42112055E-02 -3.06677389E-16
  3.52402743E-01  5.34322543E-04  8.97703624E-04  2.52752176E-01  0.00000000E+00
 -1.17194176E-10  1.96952931E-07  7.49523278E-10  5.20198246E-25  0.00000000E+00
 -4.29121047E-09 -1.13758243E-08 -2.34880114E-09 -5.63062107E-25  1.78941664E-07
 -1.54189826E-10  4.44373620E-08  3.90505053E-01  4.55822672E+00  5.08390209E-01
  6.02617227E+00  1.98866095E-17  3.41939484E-16  5.05046804E-16  3.54323020E-16
  5.48540577E-01 -4.70129671E-18 -2.64372846E-16 -4.64712909E-16  3.53730493E-17
  1.04004107E-01  7.78577148E-21 -2.93129554E-18 -6.76462736E-18 -3.87935929E-19
  1.42315860E-03  1.23501976E-22  8.50825104E-20  2.23670814E-19  1.92587177E-19
  4.29270859E-05  9.37306018E-21 -3.92566347E-18 -7.81449089E-18 -1.92471300E-19
 -7.37985793E-04 -1.14084375E-17 -9.13069339E-17 -1.56929599E-16  7.69113874E-17
 -2.39763304E-02 -5.54257287E-16 -7.85419739E-19 -1.14210818E-18 -2.90845391E-16
  0.00000000E+00  1.22979443E-24  6.30895706E-24  5.20198246E-25  5.55177176E-10
  0.00000000E+00  1.02390742E-24  2.71433690E-24  7.91386644E-25 -2.44580924E-09
 -1.50606741E-22 -4.93553144E-27 -6.00421980E-23  0.00000000E+00  0.00000000E+00
  0.00000000E+00  0.00000000E+00  6.02617227E+00  0.00000000E+00 -5.55007442E-03
 -1.29155025E-02  3.87799033E-03 -7.99021737E-18  0.00000000E+00 -1.27794177E-05
 -4.09473709E-05  2.18833424E-05 -4.43829906E-20  0.00000000E+00 -5.97250661E-09
 -2.68166586E-08  8.62628682E-09 -1.83966151E-23  0.00000000E+00 -1.19988875E-09
 -5.87927770E-09  2.03881397E-10 -8.03042706E-25  0.00000000E+00 -4.94407304E-07
 -1.99149573E-06 -4.12064772E-07  6.70795192E-22  0.00000000E+00 -1.06410731E-03
 -2.91671551E-03 -6.09393755E-04  1.04177347E-18 -1.89361695E-05 -4.95951644E-10
 -2.12757830E-07 -8.19669471E-03  0.00000000E+00  0.00000000E+00  0.00000000E+00
  0.00000000E+00  0.00000000E+00  0.00000000E+00  0.00000000E+00  0.00000000E+00
  0.00000000E+00  0.00000000E+00  0.00000000E+00  0.00000000E+00  0.00000000E+00
  4.06116874E-06 -1.87648029E-01 -2.06636376E-01  2.32864674E-01 -4.33168886E-16
 -4.93036655E+00  1.65913899E-03 -2.23417469E-02 -2.64442547E-02  1.57159446E-01
 -1.59458173E-17  9.34354268E-06  6.76088425E-03  1.28814922E-02 -1.40534555E-03
  1.28192411E-17 -3.83029173E-09  5.52547796E-05  1.42674271E-04  1.23123189E-05
  8.96442576E-20  2.94389079E-10 -1.70816200E-05 -4.85366415E-05  1.73945712E-05
 -6.03784714E-21  9.86362716E-08 -1.38025558E-03 -3.21780429E-03 -1.54163317E-04
  9.97585187E-19 -7.88093151E-04 -1.03604722E-01 -1.81097220E-01  8.49537888E-03
  5.94161390E-17  8.06660860E-03  6.44324098E-06 -4.57476634E-04 -4.05599058E-01
  0.00000000E+00 -7.80340602E-09 -3.12892250E-08  4.29121047E-09 -1.02390742E-24
  0.00000000E+00  0.00000000E+00  0.00000000E+00  0.00000000E+00  0.00000000E+00
 -3.37866122E-08  0.00000000E+00  8.38789019E-10  2.50399374E-01  5.13574689E-01
  6.14238279E-01  1.31963690E+00  1.07075302E-15 -1.22451762E+00 -4.93036655E+00
 -3.81353091E-03  4.26249902E-02  4.90690953E-02 -2.12831852E-01  3.66133384E-17
 -2.92695129E-05 -1.05395625E-02 -1.85131544E-02  2.23501942E-03 -2.04356557E-17
  1.73548819E-08 -1.18160045E-04 -2.90736317E-04 -2.68500833E-05 -1.91739943E-19
 -1.44956906E-09  3.98796533E-05  1.09367685E-04 -4.04613498E-05  1.41403480E-20
 -4.12544988E-07  2.71293749E-03  5.99733741E-03  3.20819398E-04 -1.98245792E-18
  2.13084347E-03  1.52822884E-01  2.48528522E-01 -7.96177004E-03 -9.39203603E-17
 -9.60138072E-03 -1.35571874E-05  8.27465805E-04  4.14917439E-01  0.00000000E+00
  2.06865118E-08  8.41022060E-08 -1.13758243E-08  2.71433690E-24  0.00000000E+00
  0.00000000E+00  0.00000000E+00  0.00000000E+00  0.00000000E+00  8.59828354E-08
  0.00000000E+00 -2.17808785E-09 -2.79076899E-01 -1.91239934E-01 -9.77675423E-02
 -8.17760683E-01 -6.79296930E-16 -4.93249468E-02 -5.75752577E-01 -4.93036655E+00
  1.21189140E-03  1.51750230E-01  2.37851192E-01 -1.19336491E-02  1.36523794E-16
  1.51691297E-05  1.04801915E-02  2.01952373E-02 -3.15116671E-03  2.01677958E-17
 -5.23754238E-09  9.04839851E-05  2.34266399E-04 -1.04321628E-05  1.47354615E-19
 -9.45904680E-12  1.60866864E-05  4.58016208E-05 -5.36240032E-06  5.70247919E-21
 -9.24452582E-08  1.19910130E-03  2.81794244E-03 -1.05221916E-04 -8.75298451E-19
  5.33373641E-04  9.11559470E-02  1.63238034E-01 -2.06251465E-02 -5.41060478E-17
  1.35731170E-02  1.00776351E-05  5.37340919E-04  4.85683110E-01  0.00000000E+00
  6.03131806E-09  2.41837048E-08 -2.34880114E-09  7.91386644E-25  0.00000000E+00
  0.00000000E+00  0.00000000E+00  0.00000000E+00  0.00000000E+00  3.19510493E-08
  0.00000000E+00  1.37550712E-09  3.07524916E-01  2.14220139E+00  1.95689071E+00
 -1.16392237E-01  3.62686115E-15  5.16098347E-01  6.02423261E+00  5.08390209E-01
 -4.93036655E+00 -2.38704882E-18  2.91815179E-17  4.12066547E-17 -1.44439083E-16
 -1.07354157E-02 -3.23147349E-20 -1.25373909E-17 -2.44006487E-17  2.64216673E-18
  2.21098276E-03  1.18062083E-23 -8.95343890E-20 -2.31442395E-19 -2.03012538E-20
  1.73352974E-05 -1.97172339E-25  6.06183341E-21  1.72676162E-20 -6.15334680E-21
 -5.38559155E-06  1.34754948E-22 -1.00355694E-18 -2.36247254E-18 -1.18307685E-19
 -4.41922572E-04 -7.71210879E-19 -5.98868061E-17 -1.10984172E-16  3.18453880E-18
 -3.82951061E-02 -2.01937127E-17 -1.37033563E-20 -6.86719139E-19 -5.89909309E-16
  0.00000000E+00  1.02390742E-24  4.10554949E-24 -5.63062107E-25 -2.44580924E-09
  0.00000000E+00  0.00000000E+00  0.00000000E+00  0.00000000E+00  0.00000000E+00
 -2.62628087E-23  0.00000000E+00 -1.54765147E-24 -5.96281032E-16 -4.43243101E-16
 -8.69110185E-16 -2.04272148E-15  2.96328686E-01  0.00000000E+00  0.00000000E+00
  0.00000000E+00  0.00000000E+00 -4.93036655E+00  7.43549126E-03  6.30819406E-01
  7.46978374E-01  7.48160746E-01 -9.33147706E-16  2.94007865E-03  2.89031833E-01
  4.78993223E-01  1.19159030E-01 -5.71678032E-17 -1.38824519E-05  3.94372483E-03
  8.83771140E-03  2.10372556E-03 -1.34806218E-18  6.58597346E-08  9.82319459E-05
  2.53097394E-04  1.43402013E-04 -1.41976493E-19  3.83347350E-07 -2.27287354E-05
 -4.77211724E-05  2.40267862E-04  4.86104532E-20 -2.35636498E-04  5.33967340E-03
  5.87503652E-03  2.00260187E-02 -1.26678384E-17  7.68003175E-01  9.54255693E-04
 -2.15554916E-05 -1.94804574E-03  1.70902444E-11 -9.33721274E-08 -1.23571955E-07
 -1.78941664E-07  1.50606741E-22  0.00000000E+00 -3.37866122E-08 -8.59828354E-08
 -3.19510493E-08  2.62628087E-23  1.05846442E-10 -1.16058384E-09 -3.35634128E-07
  4.13035641E-01  6.00262403E+00  1.95290533E+00  7.48440728E+00 -1.06530529E-14
 -2.27490179E-02  7.41021936E-01 -2.34073315E-01  1.36417421E+00 -1.74054452E-15
  1.84809872E+01  7.87293158E-05  4.50862914E-03  8.21138873E-03  1.68890383E-02
  2.56257501E-18  6.83980652E-07  1.02515191E-03  2.16133380E-03 -1.26023937E-04
  1.50277118E-18 -2.86049261E-10  5.54953264E-06  1.51435996E-05  8.88822243E-07
  7.01387011E-21  1.28821393E-11 -5.03698138E-07 -1.49020739E-06  7.86009143E-07
 -8.48474833E-23  2.85333888E-09 -6.35959606E-05 -1.58656808E-04 -4.47416533E-06
  4.80610971E-20 -2.20643502E-05 -7.12525048E-03 -1.37900008E-02  1.05250171E-03
  4.34469037E-18  2.21624480E-03  7.52334810E-07 -2.55113207E-05 -4.77704547E-02
  0.00000000E+00 -2.16579776E-10 -8.87333268E-10  1.54189826E-10  4.93553144E-27
  0.00000000E+00  0.00000000E+00  0.00000000E+00  0.00000000E+00  0.00000000E+00
 -1.16058384E-09  0.00000000E+00  7.05851328E-11  3.41138339E-02  3.19261303E-01
  4.23867265E-01  3.67084051E-01  3.12962218E-16 -2.94711071E-01 -1.86674246E+00
 -1.94125891E+00  2.44344110E+00  5.16664429E-16  5.03346970E-01 -2.50744641E+00
  1.01963898E-03 -1.21877682E-01 -1.57244942E-01  1.97364861E-01 -2.32264916E-16
  8.45293820E-06  6.96716956E-04  1.19383510E-03  1.10423047E-03  1.82501253E-18
 -5.09303084E-08 -4.00314786E-06 -9.11068914E-06  5.46953703E-05 -1.00338675E-20
  3.91895276E-08 -1.02644373E-04 -2.66842907E-04  9.75563958E-05 -1.22802369E-19
  1.04687129E-05 -8.53850289E-03 -1.77865042E-02  2.62593883E-03 -2.42860082E-18
 -5.10818774E-03 -3.38255805E-01 -5.38629635E-01  1.68579792E-01 -1.88796692E-16
  9.27649339E-04  1.51341735E-06 -5.08138308E-03 -1.97533936E+00  1.17189971E-11
  5.88851405E-08 -4.07852301E-08 -4.44373620E-08  6.00421980E-23  0.00000000E+00
  8.38789019E-10  2.17808785E-09 -1.37550712E-09  1.54765147E-24 -3.35634128E-07
  7.05851328E-11  0.00000000E+00  3.08335994E-02 -4.46949876E-01 -2.06647092E-01
  9.68136900E-01 -1.06139623E-15 -3.55742175E-01 -5.87044507E+00  7.20603513E-01
  7.82891353E+00 -1.03932376E-14  1.73511999E-02 -1.76478073E+00 -1.81829019E+01
Multipole Matrix (0,2,0)                   R   N=        1830
  3.08581032E-01  9.52778092E-02  1.11886633E+00  0.00000000E+00  0.00000000E+00
  7.85906151E-01  7.57066286E-02  8.83696574E-01  0.00000000E+00  1.80268657E+00
  0.00000000E+00  0.00000000E+00  0.00000000E+00  0.00000000E+00  7.85906151E-01
  2.19307637E-06  2.22320997E-01 -2.38630245E-01  2.81366558E-01 -5.51795972E-16
  6.28216534E+00  1.89755946E-02  1.20156876E+00 -7.49126095E-01  1.57526190E+00
 -1.73223961E-15  1.57889149E+00  7.09245064E+00  2.25875660E-02  8.89047019E-01
 -4.87944077E-02  1.32891531E+00 -1.66807281E-15  0.00000000E+00  0.00000000E+00
  6.75949046E+00 -2.19774908E-02 -9.97012012E-02  1.91613643E-01  1.75027550E-01
  4.43077265E-16  3.59309062E-01  4.19408700E+00  0.00000000E+00  7.77627088E+00
  5.22302943E-17  2.05578536E-15 -1.66807281E-15  3.07291356E-15  6.72582050E-01
  0.00000000E+00  0.00000000E+00  0.00000000E+00  0.00000000E+00  6.75949046E+00
  0.00000000E+00  6.89022342E-03 -1.50485891E-02  5.41050857E-03 -1.14087738E-17
  4.74861850E-06  1.55880591E-01 -2.55081468E-01 -4.16800736E-02  7.50130495E-17
  3.92541670E+00  8.42731644E-04  1.59063784E-01 -2.08425460E-01  1.64825967E-01
 -1.58013413E-16  2.36190642E-01  2.17452074E+00 -2.24654748E+00  7.72852420E-01
  6.60653160E-16  9.93563760E-01  4.73570200E+00  1.83483921E-03  2.24255969E-01
 -2.58217618E-01  2.37872155E-01 -2.44453956E-16  3.81150119E-01  2.16492951E+00
 -1.69260867E+00  6.67854180E-01  8.58939173E-16  0.00000000E+00  0.00000000E+00
  4.40274182E+00 -4.89979915E-04  3.20220335E-02 -3.99869363E-02  7.94218305E-02
 -3.03152613E-17  9.03788774E-02  1.62625499E+00 -1.81690990E+00  1.41521200E+00
  5.34307544E-16  2.83600843E-01  3.31037187E+00  0.00000000E+00  5.41952223E+00
  1.39104506E-18  1.70014983E-16 -2.44453956E-16  1.80337810E-16  6.42260741E-02
 -1.12086672E-16 -6.36651366E-16  8.58939173E-16 -1.96399132E-16  1.22820933E+00
  0.00000000E+00  0.00000000E+00  0.00000000E+00  0.00000000E+00  4.40274182E+00
  0.00000000E+00  1.40979227E-04 -3.65937270E-04 -9.66614649E-05  1.07583605E-19
  0.00000000E+00  4.74596979E-04 -8.17580327E-04 -7.97210646E-04  1.33047700E-18
  5.54750544E-07  1.01087993E-02 -4.86245768E-03 -1.62281090E-02  2.79613890E-17
  3.08581032E-01  1.40979227E-04  2.76771822E-02 -4.11401596E-02 -7.08073566E-03
  1.20949875E-17  1.04752221E-02  1.28356110E-01 -1.51988019E-01 -4.25074615E-02
  2.47335407E-16  1.33304344E-01  5.68652455E-01 -2.02052484E-01 -1.04112751E-01
  1.16189558E-15  9.52778092E-02  1.11886633E+00  3.65937270E-04  4.11401596E-02
 -5.45816044E-02 -1.08094950E-02  1.89375114E-17  1.80610581E-02  1.31334046E-01
 -1.18263165E-01 -5.15756361E-02  2.80486422E-16  6.73898217E-02  1.61565327E-01
  2.38271909E-01 -5.61263444E-02  4.20007697E-16  0.00000000E+00  0.00000000E+00
  7.85906151E-01  9.66614649E-05  7.08073566E-03 -1.08094950E-02  2.72939470E-02
  3.17793386E-18  1.64709011E-02  1.83881072E-01 -2.24782689E-01 -1.01112258E-02
  3.65796714E-16  2.10864980E-01  7.63845573E-01 -3.15854274E-01  1.52099480E-01
  1.81630871E-15 -7.57066286E-02 -8.83696574E-01  0.00000000E+00  1.80268657E+00
 -1.07583605E-19 -1.20949875E-17  1.89375114E-17  3.17793386E-18  9.83286847E-03
 -2.93913901E-17 -2.13724476E-16  2.80486422E-16  8.39308325E-17  5.40962077E-02
 -3.87522759E-16 -9.29075636E-16  4.20007697E-16  3.22752536E-16  3.11310829E-01
  0.00000000E+00  0.00000000E+00  0.00000000E+00  0.00000000E+00  7.85906151E-01
  0.00000000E+00  1.04752221E-02 -1.80610581E-02 -1.64709011E-02  2.93913901E-17
  0.00000000E+00  2.21997953E-03 -1.86772541E-03 -5.69984694E-03  1.07464303E-17
  0.00000000E+00  9.89753902E-03  4.56202429E-03 -2.28043149E-02  4.41825838E-17
  2.19307637E-06  2.22320997E-01  2.38630245E-01 -2.81366558E-01  5.51795972E-16
  6.28216534E+00  4.74596979E-04  1.28356110E-01 -1.31334046E-01 -1.83881072E-01
  2.13724476E-16  2.21997953E-03  3.35086191E-02 -1.87739952E-02 -5.00189684E-02
  1.08020927E-16  5.95641963E-03  8.09978313E-02  2.47773931E-02 -1.24538460E-01
  2.39965677E-16  1.89755946E-02  1.20156876E+00  7.49126095E-01 -1.57526190E+00
  1.73223961E-15  1.57889149E+00  7.09245064E+00  8.17580327E-04  1.51988019E-01
 -1.18263165E-01 -2.24782689E-01  2.80486422E-16  1.86772541E-03  1.87739952E-02
  3.37310802E-03 -3.11194422E-02  6.66330901E-17 -2.74610568E-03 -2.69528742E-02
  2.92758269E-02  4.53592444E-02 -8.87739456E-17 -2.25875660E-02 -8.89047019E-01
 -4.87944077E-02  1.32891531E+00 -1.66807281E-15  0.00000000E+00  0.00000000E+00
  6.75949046E+00  7.97210646E-04  4.25074615E-02 -5.15756361E-02 -1.01112258E-02
  8.39308325E-17  5.69984694E-03  5.00189684E-02 -3.11194422E-02 -4.83636493E-02
  1.79053578E-16  1.38020838E-02  9.26004802E-02  3.30121211E-02 -8.01898359E-02
  3.19717896E-16  2.19774908E-02  9.97012012E-02  1.91613643E-01  1.75027550E-01
  4.43077265E-16 -3.59309062E-01 -4.19408700E+00  0.00000000E+00  7.77627088E+00
 -1.33047700E-18 -2.47335407E-16  2.80486422E-16  3.65796714E-16  5.40962077E-02
 -1.07464303E-17 -1.08020927E-16  6.66330901E-17  1.79053578E-16  1.49539132E-02
 -2.65956594E-17 -2.61034915E-16 -8.87739456E-17  4.39298103E-16  3.84420834E-02
 -5.22302943E-17 -2.05578536E-15 -1.66807281E-15  3.07291356E-15  6.72582050E-01
  0.00000000E+00  0.00000000E+00  0.00000000E+00  0.00000000E+00  6.75949046E+00
  5.54750544E-07  1.33304344E-01 -6.73898217E-02 -2.10864980E-01  3.87522759E-16
  0.00000000E+00  5.95641963E-03  2.74610568E-03 -1.38020838E-02  2.65956594E-17
  0.00000000E+00  1.39784743E-03  2.46261530E-03 -2.86291342E-03  5.69583741E-18
  0.00000000E+00  6.89022342E-03  1.50485891E-02 -5.41050857E-03  1.14087738E-17
  4.74861850E-06  1.55880591E-01  2.55081468E-01  4.16800736E-02 -7.50130495E-17
  3.92541670E+00  1.01087993E-02  5.68652455E-01 -1.61565327E-01 -7.63845573E-01
  9.29075636E-16  9.89753902E-03  8.09978313E-02  2.69528742E-02 -9.26004802E-02
  2.61034915E-16  1.39784743E-03  3.11891870E-02  3.47656162E-02 -3.43461898E-02
  8.04101631E-17  8.42731644E-04  1.59063784E-01  2.08425460E-01 -1.64825967E-01
  1.58013413E-16  2.36190642E-01  2.17452074E+00  2.24654748E+00 -7.72852420E-01
 -6.60653160E-16  9.93563760E-01  4.73570200E+00  4.86245768E-03  2.02052484E-01
  2.38271909E-01 -3.15854274E-01  4.20007697E-16 -4.56202429E-03 -2.47773931E-02
  2.92758269E-02  3.30121211E-02 -8.87739456E-17 -2.46261530E-03 -3.47656162E-02
 -2.94336623E-02  4.19243712E-02 -9.79709376E-17 -1.83483921E-03 -2.24255969E-01
 -2.58217618E-01  2.37872155E-01 -2.44453956E-16 -3.81150119E-01 -2.16492951E+00
 -1.69260867E+00  6.67854180E-01  8.58939173E-16  0.00000000E+00  0.00000000E+00
  4.40274182E+00  1.62281090E-02  1.04112751E-01 -5.61263444E-02  1.52099480E-01
  3.22752536E-16  2.28043149E-02  1.24538460E-01  4.53592444E-02 -8.01898359E-02
  4.39298103E-16  2.86291342E-03  3.43461898E-02  4.19243712E-02 -8.56168849E-03
  9.69678058E-17  4.89979915E-04 -3.20220335E-02 -3.99869363E-02  7.94218305E-02
 -3.03152613E-17 -9.03788774E-02 -1.62625499E+00 -1.81690990E+00  1.41521200E+00
  5.34307544E-16 -2.83600843E-01 -3.31037187E+00  0.00000000E+00  5.41952223E+00
 -2.79613890E-17 -1.16189558E-15  4.20007697E-16  1.81630871E-15  3.11310829E-01
 -4.41825838E-17 -2.39965677E-16 -8.87739456E-17  3.19717896E-16  3.84420834E-02
 -5.69583741E-18 -8.04101631E-17 -9.79709376E-17  9.69678058E-17  1.29244165E-02
 -1.39104506E-18 -1.70014983E-16 -2.44453956E-16  1.80337810E-16  6.42260741E-02
  1.12086672E-16  6.36651366E-16  8.58939173E-16 -1.96399132E-16  1.22820933E+00
  0.00000000E+00  0.00000000E+00  0.00000000E+00  0.00000000E+00  4.40274182E+00
  2.92072724E-03  6.85752707E-01 -2.34609986E-01  1.13373993E+00 -1.68550360E-15
  4.26208573E-01  6.53450841E+00  1.92640669E+00  8.06845951E+00 -1.10702046E-14
  2.30518511E-02  1.06629306E+00  1.07698331E+00  1.23584893E+00 -1.51014438E-15
  2.14190671E-05  2.63716975E-02  2.73804273E-02  4.73340550E-02 -6.27831432E-17
  6.29145949E-05  3.13164229E-03  1.90275881E-03  6.66727749E-03 -1.09441292E-17
  2.89723358E-04  1.43053678E-02 -9.92366744E-04  3.09230635E-02 -4.92400347E-17
  2.06402965E+01  4.69831243E-05  2.96954937E-02 -4.25906654E-02  3.84319472E-02
 -4.82656712E-17  3.45942972E-02  9.54073676E-01 -1.17431865E+00  7.04406813E-01
 -7.19573600E-16  2.67780009E-01  4.22554625E+00 -2.58404284E+00  4.73519484E+00
 -5.97437183E-15  1.35106377E-03  3.25904585E-01 -5.61725916E-02  5.64934005E-01
 -8.26244834E-16  4.89960341E-04  9.79679849E-03 -6.44616066E-03  1.63488859E-02
 -3.38456209E-17  3.96265099E-05  2.80571270E-03 -3.46334409E-03  4.67384203E-03
 -8.00956667E-18  8.58305203E-01  1.31018413E+01  2.14190671E-05  2.63716975E-02
 -2.73804273E-02 -4.73340550E-02  6.27831432E-17  6.29145949E-05  3.13164229E-03
 -1.90275881E-03 -6.66727749E-03  1.09441292E-17  2.89723358E-04  1.43053678E-02
  9.92366744E-04 -3.09230635E-02  4.92400347E-17  2.92072724E-03  6.85752707E-01
  2.34609986E-01 -1.13373993E+00  1.68550360E-15  4.26208573E-01  6.53450841E+00
 -1.92640669E+00 -8.06845951E+00  1.10702046E-14  2.30518511E-02  1.06629306E+00
 -1.07698331E+00 -1.23584893E+00  1.51014438E-15  1.80484250E-04  1.52813873E-03
  2.06402965E+01  1.35106377E-03  3.25904585E-01  5.61725916E-02 -5.64934005E-01
  8.26244834E-16  4.89960341E-04  9.79679849E-03  6.44616066E-03 -1.63488859E-02
  3.38456209E-17  3.96265099E-05  2.80571270E-03  3.46334409E-03 -4.67384203E-03
  8.00956667E-18  4.69831243E-05  2.96954937E-02  4.25906654E-02 -3.84319472E-02
  4.82656712E-17  3.45942972E-02  9.54073676E-01  1.17431865E+00 -7.04406813E-01
  7.19573600E-16  2.67780009E-01  4.22554625E+00  2.58404284E+00 -4.73519484E+00
  5.97437183E-15  1.52813873E-03  1.73633376E-04  8.58305203E-01  1.31018413E+01
  0.00000000E+00  1.24709092E-07 -5.01652009E-07 -1.15209515E-07  1.47536804E-22
  0.00000000E+00  2.31077724E-06 -7.28698603E-06 -4.44205801E-06  7.43979969E-21
  0.00000000E+00  1.19133613E-03 -2.21514860E-03 -1.97057890E-03  3.38947874E-18
  4.68848429E-08  3.37342225E-02 -5.48311350E-02 -1.47099534E-02  1.61365908E-17
  0.00000000E+00  1.69549621E-03 -3.92320327E-03  1.03702073E-03 -2.73213427E-18
  0.00000000E+00  3.36511149E-06 -1.21232427E-05  1.14454964E-06 -4.12527359E-21
  1.90350723E-07  1.02011455E-03  1.64253521E-03  3.17551982E-07  1.26062489E+00
  3.32293791E-08  3.52275651E-04 -7.53613639E-04 -2.53217148E-04  2.21639196E-19
  1.29504225E-05  2.47565456E-03 -4.36511056E-03 -1.15457918E-03  4.45665026E-18
  3.95827504E-03  6.10699577E-02 -7.48815290E-02 -2.78261231E-02  1.14578928E-16
  1.09015318E-02  4.77758629E-01 -4.69759766E-01 -4.29012922E-01  1.38248480E-16
  6.90578908E-03  1.99936436E-01 -2.94073056E-01 -2.44450837E-02 -2.04793639E-16
  9.00329039E-06  5.30930573E-03 -1.04685215E-02 -1.60674937E-03 -3.56220826E-18
  4.67461902E-04  7.44474382E-02  2.49056728E-01  9.28993950E-04  3.31729697E-01
  2.07091019E+00  1.33517876E-07  7.56274592E-04 -1.52016179E-03 -5.45915457E-04
  4.80155291E-19  4.08066827E-05  4.23224349E-03 -6.87461029E-03 -2.06652891E-03
  7.86888258E-18  7.35751669E-03  6.82139550E-02 -6.66020528E-02 -3.57174542E-02
  1.40429250E-16  1.81471651E-02  4.96360641E-01 -3.67541639E-01 -4.85651391E-01
  1.76198295E-16  1.60052166E-02  2.78405691E-01 -3.66907898E-01 -2.81285394E-02
 -3.10985107E-16  3.24735987E-05  1.03878339E-02 -1.92277838E-02 -3.14251349E-03
 -7.13897833E-18  7.49094437E-04  5.00626710E-02  2.73823499E-01  1.84189088E-03
  0.00000000E+00  0.00000000E+00  1.73795001E+00  3.27401460E-08  4.93407420E-05
 -1.05253712E-04  2.54942613E-04  3.09553158E-20  2.41178015E-05  3.65300185E-03
 -6.50361731E-03 -4.61293838E-04  6.64000312E-18  6.37900816E-03  7.47587277E-02
 -9.60688685E-02  1.33552144E-02  1.46998440E-16  1.83012887E-03 -2.71212272E-01
  2.80730875E-01  4.52806134E-01 -8.26180096E-17 -5.14703265E-03 -1.89911806E-01
  2.86072484E-01  7.66832020E-02  1.99222009E-16 -4.43246141E-06 -4.08332147E-03
  8.10996758E-03  2.54274760E-03  2.75964409E-18  8.75845120E-04  1.32206096E-01
 -3.41001617E-01 -9.84193841E-04 -1.59354659E-01 -1.86009031E+00  0.00000000E+00
  2.75473043E+00 -3.92678597E-23 -2.22421787E-19  4.80155291E-19  1.60554768E-19
  1.12453661E-04 -4.16624300E-20 -4.32099687E-18  7.86888258E-18  2.10986560E-18
  8.32645258E-04 -1.12580016E-17 -1.04376632E-16  1.40429250E-16  5.46525647E-17
  2.51736096E-02 -5.34064042E-18 -1.46077015E-16  1.76198295E-16  1.42925324E-16
  2.31169245E-01  1.11460962E-17  1.93882825E-16 -3.10985107E-16 -1.95888261E-17
  7.96506040E-02  1.10500534E-20  3.53475204E-18 -7.13897833E-18 -1.06932841E-18
  1.75205303E-03 -1.10137988E-18 -1.91427809E-16  4.85548213E-16  1.21142086E-18
  0.00000000E+00  0.00000000E+00  0.00000000E+00  0.00000000E+00  1.73795001E+00
  0.00000000E+00  1.52725044E-10 -7.45818352E-10  3.42621000E-11 -1.02061890E-25
  0.00000000E+00  6.73500670E-08 -2.70171580E-07 -5.23369601E-08  9.12030468E-23
  0.00000000E+00  1.36779833E-04 -3.73005617E-04 -7.08853273E-05  1.33627355E-19
  0.00000000E+00  6.34133926E-04 -1.46829825E-03  4.73611126E-04 -9.11412831E-19
  0.00000000E+00  1.38083098E-06 -4.40755381E-06  2.41800362E-06 -4.78937324E-21
  0.00000000E+00  6.76708812E-10 -3.02864054E-09  1.00708778E-09 -2.08176738E-24
  3.00610640E-08  1.07407864E-03  1.97140391E-06  5.46489952E-11  3.54133027E-07
  2.03127640E-02 -2.17453189E-02  2.57241474E-02 -4.59612573E-17  5.02273861E-01
  1.06718156E-10  1.82421299E-05 -4.71288292E-05  9.60050289E-06 -6.44936850E-21
  5.55836453E-07  1.00151312E-03 -2.16140765E-03  3.63017658E-05  7.29636193E-19
  7.74684887E-04  4.98963420E-02 -8.10196160E-02  1.13014121E-02  2.90248630E-17
  4.12171539E-04  5.12113633E-02 -6.95218955E-02  1.98487844E-02 -4.31541395E-17
  1.96033789E-05  3.69114484E-03 -6.59412010E-03  1.14183527E-03 -7.16535832E-18
  5.62764940E-09  4.88834603E-05 -1.16070870E-04  1.00590656E-05 -7.97825125E-20
  3.80875212E-04  2.02539619E-01  4.14223667E-03  5.33540992E-06  5.06319827E-02
  4.06431160E-01 -2.68242524E-01  6.02422253E-02 -5.66961731E-16  1.43383823E-01
  1.31255916E+00  5.20781136E-10  4.71342258E-05 -1.16245038E-04  2.48392871E-05
 -1.66927065E-20  2.23574266E-06  2.14683636E-03 -4.36588442E-03  7.27594608E-05
  1.58231673E-18  2.11847582E-03  7.79832195E-02 -1.16326135E-01  1.74485792E-02
  4.82017203E-17  9.53575215E-04  7.01783998E-02 -8.28840865E-02  2.85179915E-02
 -6.32508706E-17  6.25465171E-05  6.38046999E-03 -1.05286781E-02  2.07298381E-03
 -1.27889160E-17  2.51877571E-08  1.15701456E-04 -2.60427172E-04  2.39278232E-05
 -1.89626308E-19  7.59639201E-04  2.32670785E-01  5.60806447E-03  1.25501025E-05
  5.54566579E-02  2.47693492E-01  2.06586526E-03  6.37202435E-02 -4.30341800E-16
  0.00000000E+00  0.00000000E+00  9.79598981E-01  8.94618745E-12  8.06394500E-06
 -2.08658043E-05  1.43396030E-05 -2.85539156E-21  5.32532212E-07  1.00551559E-03
 -2.17868179E-03  2.78598331E-04  7.35467501E-19  5.45483165E-04  4.71558417E-02
 -7.78148123E-02  2.42105069E-02  2.78767585E-17 -3.15602395E-04 -9.73764355E-03
  1.37182036E-02  5.12144642E-02  8.51526368E-18 -3.23368256E-05 -5.19967999E-03
  9.37077392E-03 -1.92990966E-04  1.01825493E-17 -7.85954210E-09 -5.86578054E-05
  1.39449333E-04  1.36921587E-05  9.58519404E-20  5.11977760E-04  2.65529951E-01
 -7.38916989E-03 -8.31576219E-06 -6.30364306E-02 -2.91353613E-01  2.43330202E-01
  4.37615442E-01  5.14306645E-16  9.86498936E-02  1.15150515E+00  0.00000000E+00
  1.99637940E+00  7.12665584E-26  6.45010701E-21 -1.66927065E-20  3.39914482E-21
  5.73709219E-06 -7.54729797E-22 -7.24717295E-19  1.58231673E-18 -2.45617414E-20
  3.21426228E-04 -7.58933126E-19 -2.79370895E-17  4.82017203E-17 -6.25086425E-18
  1.82235046E-02  5.91910183E-19  4.35616497E-17 -6.32508706E-17  1.77018963E-17
  1.90139114E-02  6.79648231E-20  6.93320003E-18 -1.27889160E-17  2.25256313E-18
  1.24067718E-03  1.73130652E-23  7.95285916E-20 -1.89626308E-19  1.64470366E-20
  1.54489552E-05 -5.68401591E-19 -2.94432476E-16  1.05308018E-17  1.13523676E-20
  1.17214088E-16  5.23528964E-16 -4.30341800E-16  1.34680136E-16  2.05670385E-01
  0.00000000E+00  0.00000000E+00  0.00000000E+00  0.00000000E+00  9.79598981E-01
  1.97022537E-08  2.04361264E-04 -3.98858613E-04 -2.93345907E-04  2.94361223E-19
  1.52930608E-06  2.53262934E-04 -4.10483253E-04 -3.11169870E-04  6.27838006E-19
  2.30396776E-04  7.90161331E-03 -8.86797478E-03 -1.16143017E-02  2.03723889E-17
  2.17005884E-03  3.61147916E-01 -3.64370424E-01 -4.73528448E-01  5.20619705E-16
  7.43433828E-03  2.93543539E-01 -4.17378434E-01 -1.83666863E-01  5.77574225E-17
  1.95939547E-05  7.60204628E-03 -1.38818525E-02 -5.65430081E-03  2.65049423E-18
  2.92914132E-05  5.29626345E-03  8.67151357E-01  2.59361236E-03  1.00196604E-01
  2.76746470E+00 -5.65891648E-01 -3.79055931E+00  4.71556818E-15  2.37965661E-03
  2.74095294E-01  1.11868989E-01 -4.51668227E-01  6.64533922E-16  1.04506659E+01
  4.50858763E-12  6.99584437E-07 -1.88331299E-06  2.31277959E-07 -1.17995669E-22
  1.55528258E-08  4.32111611E-05 -9.99839418E-05  2.69818553E-06  3.28626435E-20
  2.15015202E-05  3.26378149E-03 -5.89473395E-03  7.28514785E-04  2.00801180E-18
  1.99003029E-05  5.88788131E-03 -9.43611348E-03 -2.30270686E-04 -3.21209439E-18
  1.45935869E-06  5.31170829E-04 -1.04973487E-03  2.26877280E-05 -7.89122380E-19
  4.20819278E-10  4.24607060E-06 -1.06576248E-05 -3.49027966E-07 -5.38642152E-21
  1.98215743E-05  2.12447781E-02  1.17789456E-03  6.27255965E-07  7.09591361E-03
  1.30568854E-01 -1.43990164E-01 -3.09370557E-02 -1.17934026E-16  3.27131658E-02
  5.21956403E-01 -3.94038137E-01  2.82858513E-01  1.15694277E-16  1.72823413E-01
  7.23547876E-01  1.39925446E-08  1.68304435E-04 -3.59456108E-04  1.82382173E-04
 -2.02649393E-19  4.78046061E-05  1.08963859E-02 -1.98436632E-02  5.52820528E-03
 -3.15067737E-18  5.44829728E-03  2.34617774E-01 -3.27529701E-01  1.68017615E-01
 -1.29134302E-16  2.52006210E-04  6.07732696E-02 -6.94748694E-02  8.50264195E-02
 -1.13689360E-16  1.90334036E-05  1.21407972E-03 -1.79686255E-03  1.19069121E-03
 -3.30157807E-18  6.61910877E-08  5.06248600E-05 -9.94842987E-05  5.63563262E-05
 -1.18077943E-19  7.82993712E-03  1.39885200E+00  6.33825111E-04  3.46195632E-06
  6.10295011E-03  1.95318225E-01 -8.06079752E-02  2.96461808E-01 -4.78834524E-16
  4.72618015E-02  1.96382503E+00  3.94895227E-01  2.75708228E+00 -3.29065713E-15
  2.91832504E-02  5.30512393E-01  7.98424434E+00  4.68848429E-08  3.37342225E-02
  5.48311350E-02  1.47099534E-02 -1.61365908E-17  0.00000000E+00  1.69549621E-03
  3.92320327E-03 -1.03702073E-03  2.73213427E-18  0.00000000E+00  3.36511149E-06
  1.21232427E-05 -1.14454964E-06  4.12527359E-21  0.00000000E+00  1.24709092E-07
  5.01652009E-07  1.15209515E-07 -1.47536804E-22  0.00000000E+00  2.31077724E-06
  7.28698603E-06  4.44205801E-06 -7.43979969E-21  0.00000000E+00  1.19133613E-03
  2.21514860E-03  1.97057890E-03 -3.38947874E-18  1.64253521E-03  3.17551982E-07
  1.90350723E-07  1.02011455E-03  0.00000000E+00  0.00000000E+00  0.00000000E+00
  0.00000000E+00  0.00000000E+00  0.00000000E+00  0.00000000E+00  0.00000000E+00
  0.00000000E+00  0.00000000E+00  3.65690715E-12  0.00000000E+00  3.01265910E-12
  1.26062489E+00  1.09015318E-02  4.77758629E-01  4.69759766E-01  4.29012922E-01
 -1.38248480E-16  6.90578908E-03  1.99936436E-01  2.94073056E-01  2.44450837E-02
  2.04793639E-16  9.00329039E-06  5.30930573E-03  1.04685215E-02  1.60674937E-03
  3.56220826E-18  3.32293791E-08  3.52275651E-04  7.53613639E-04  2.53217148E-04
 -2.21639196E-19  1.29504225E-05  2.47565456E-03  4.36511056E-03  1.15457918E-03
 -4.45665026E-18  3.95827504E-03  6.10699577E-02  7.48815290E-02  2.78261231E-02
 -1.14578928E-16  2.49056728E-01  9.28993950E-04  4.67461902E-04  7.44474382E-02
  0.00000000E+00  6.33459737E-07  1.81849492E-06  3.70739272E-07 -5.34915466E-22
  0.00000000E+00  1.92023917E-08  6.39501811E-08  1.27437160E-08  2.51960122E-24
  4.32441233E-07  5.97992981E-10  7.66976434E-07  3.31729697E-01  2.07091019E+00
 -1.81471651E-02 -4.96360641E-01 -3.67541639E-01 -4.85651391E-01  1.76198295E-16
 -1.60052166E-02 -2.78405691E-01 -3.66907898E-01 -2.81285394E-02 -3.10985107E-16
 -3.24735987E-05 -1.03878339E-02 -1.92277838E-02 -3.14251349E-03 -7.13897833E-18
 -1.33517876E-07 -7.56274592E-04 -1.52016179E-03 -5.45915457E-04  4.80155291E-19
 -4.08066827E-05 -4.23224349E-03 -6.87461029E-03 -2.06652891E-03  7.86888258E-18
 -7.35751669E-03 -6.82139550E-02 -6.66020528E-02 -3.57174542E-02  1.40429250E-16
 -2.73823499E-01 -1.84189088E-03 -7.49094437E-04 -5.00626710E-02  0.00000000E+00
 -1.81849492E-06 -5.02406147E-06 -1.06452859E-06  1.53629647E-21  0.00000000E+00
 -6.39501811E-08 -2.06956232E-07 -4.24406999E-08 -8.39108778E-24 -1.11797787E-06
 -1.99659309E-09 -2.12504867E-06  0.00000000E+00  0.00000000E+00  1.73795001E+00
 -1.83012887E-03  2.71212272E-01  2.80730875E-01  4.52806134E-01 -8.26180096E-17
  5.14703265E-03  1.89911806E-01  2.86072484E-01  7.66832020E-02  1.99222009E-16
  4.43246141E-06  4.08332147E-03  8.10996758E-03  2.54274760E-03  2.75964409E-18
 -3.27401460E-08 -4.93407420E-05 -1.05253712E-04  2.54942613E-04  3.09553158E-20
 -2.41178015E-05 -3.65300185E-03 -6.50361731E-03 -4.61293838E-04  6.64000312E-18
 -6.37900816E-03 -7.47587277E-02 -9.60688685E-02  1.33552144E-02  1.46998440E-16
  3.41001617E-01  9.84193841E-04 -8.75845120E-04 -1.32206096E-01  0.00000000E+00
 -3.70739272E-07 -1.06452859E-06  3.78961369E-07  3.13134120E-22  0.00000000E+00
  8.46171045E-09  2.81802353E-08  1.27926195E-08  1.11028544E-24 -6.51761056E-07
  2.14386541E-10  6.92752262E-07  1.59354659E-01  1.86009031E+00  0.00000000E+00
  2.75473043E+00  5.34064042E-18  1.46077015E-16  1.76198295E-16  1.42925324E-16
  2.31169245E-01 -1.11460962E-17 -1.93882825E-16 -3.10985107E-16 -1.95888261E-17
  7.96506040E-02 -1.10500534E-20 -3.53475204E-18 -7.13897833E-18 -1.06932841E-18
  1.75205303E-03  3.92678597E-23  2.22421787E-19  4.80155291E-19  1.60554768E-19
  1.12453661E-04  4.16624300E-20  4.32099687E-18  7.86888258E-18  2.10986560E-18
  8.32645258E-04  1.12580016E-17  1.04376632E-16  1.40429250E-16  5.46525647E-17
  2.51736096E-02 -4.85548213E-16 -1.21142086E-18  1.10137988E-18  1.91427809E-16
  0.00000000E+00  5.34915466E-22  1.53629647E-21  3.13134120E-22  1.98721393E-07
  0.00000000E+00 -2.51960122E-24 -8.39108778E-24 -1.67213974E-24  6.01857534E-09
  7.00308030E-22  1.36273720E-26 -7.70006496E-22  0.00000000E+00  0.00000000E+00
  0.00000000E+00  0.00000000E+00  1.73795001E+00  0.00000000E+00  6.34133926E-04
  1.46829825E-03 -4.73611126E-04  9.11412831E-19  0.00000000E+00  1.38083098E-06
  4.40755381E-06 -2.41800362E-06  4.78937324E-21  0.00000000E+00  6.76708812E-10
  3.02864054E-09 -1.00708778E-09  2.08176738E-24  0.00000000E+00  1.52725044E-10
  7.45818352E-10 -3.42621000E-11  1.02061890E-25  0.00000000E+00  6.73500670E-08
  2.70171580E-07  5.23369601E-08 -9.12030468E-23  0.00000000E+00  1.36779833E-04
  3.73005617E-04  7.08853273E-05 -1.33627355E-19  1.97140391E-06  5.46489952E-11
  3.00610640E-08  1.07407864E-03  0.00000000E+00  0.00000000E+00  0.00000000E+00
  0.00000000E+00  0.00000000E+00  0.00000000E+00  0.00000000E+00  0.00000000E+00
  0.00000000E+00  0.00000000E+00  0.00000000E+00  0.00000000E+00  0.00000000E+00
  3.54133027E-07  2.03127640E-02  2.17453189E-02 -2.57241474E-02  4.59612573E-17
  5.02273861E-01  4.12171539E-04  5.12113633E-02  6.95218955E-02 -1.98487844E-02
  4.31541395E-17  1.96033789E-05  3.69114484E-03  6.59412010E-03 -1.14183527E-03
  7.16535832E-18  5.62764940E-09  4.88834603E-05  1.16070870E-04 -1.00590656E-05
  7.97825125E-20  1.06718156E-10  1.82421299E-05  4.71288292E-05 -9.60050289E-06
  6.44936850E-21  5.55836453E-07  1.00151312E-03  2.16140765E-03 -3.63017658E-05
 -7.29636193E-19  7.74684887E-04  4.98963420E-02  8.10196160E-02 -1.13014121E-02
 -2.90248630E-17  4.14223667E-03  5.33540992E-06  3.80875212E-04  2.02539619E-01
  0.00000000E+00  1.92023917E-08  6.39501811E-08 -8.46171045E-09  2.51960122E-24
  0.00000000E+00  0.00000000E+00  0.00000000E+00  0.00000000E+00  0.00000000E+00
  5.45126237E-08  0.00000000E+00  1.71509074E-09  5.06319827E-02  4.06431160E-01
  2.68242524E-01 -6.02422253E-02  5.66961731E-16  1.43383823E-01  1.31255916E+00
 -9.53575215E-04 -7.01783998E-02 -8.28840865E-02  2.85179915E-02 -6.32508706E-17
 -6.25465171E-05 -6.38046999E-03 -1.05286781E-02  2.07298381E-03 -1.27889160E-17
 -2.51877571E-08 -1.15701456E-04 -2.60427172E-04  2.39278232E-05 -1.89626308E-19
 -5.20781136E-10 -4.71342258E-05 -1.16245038E-04  2.48392871E-05 -1.66927065E-20
 -2.23574266E-06 -2.14683636E-03 -4.36588442E-03  7.27594608E-05  1.58231673E-18
 -2.11847582E-03 -7.79832195E-02 -1.16326135E-01  1.74485792E-02  4.82017203E-17
 -5.60806447E-03 -1.25501025E-05 -7.59639201E-04 -2.32670785E-01  0.00000000E+00
 -6.39501811E-08 -2.06956232E-07  2.81802353E-08 -8.39108778E-24  0.00000000E+00
  0.00000000E+00  0.00000000E+00  0.00000000E+00  0.00000000E+00 -1.62598551E-07
  0.00000000E+00 -5.43152801E-09 -5.54566579E-02 -2.47693492E-01  2.06586526E-03
  6.37202435E-02 -4.30341800E-16  0.00000000E+00  0.00000000E+00  9.79598981E-01
  3.15602395E-04  9.73764355E-03  1.37182036E-02  5.12144642E-02  8.51526368E-18
  3.23368256E-05  5.19967999E-03  9.37077392E-03 -1.92990966E-04  1.01825493E-17
  7.85954210E-09  5.86578054E-05  1.39449333E-04  1.36921587E-05  9.58519404E-20
 -8.94618745E-12 -8.06394500E-06 -2.08658043E-05  1.43396030E-05 -2.85539156E-21
 -5.32532212E-07 -1.00551559E-03 -2.17868179E-03  2.78598331E-04  7.35467501E-19
 -5.45483165E-04 -4.71558417E-02 -7.78148123E-02  2.42105069E-02  2.78767585E-17
  7.38916989E-03  8.31576219E-06 -5.11977760E-04 -2.65529951E-01  0.00000000E+00
 -1.27437160E-08 -4.24406999E-08  1.27926195E-08 -1.67213974E-24  0.00000000E+00
  0.00000000E+00  0.00000000E+00  0.00000000E+00  0.00000000E+00 -6.01022234E-08
  0.00000000E+00  2.28341700E-09  6.30364306E-02  2.91353613E-01  2.43330202E-01
  4.37615442E-01  5.14306645E-16 -9.86498936E-02 -1.15150515E+00  0.00000000E+00
  1.99637940E+00 -5.91910183E-19 -4.35616497E-17 -6.32508706E-17  1.77018963E-17
  1.90139114E-02 -6.79648231E-20 -6.93320003E-18 -1.27889160E-17  2.25256313E-18
  1.24067718E-03 -1.73130652E-23 -7.95285916E-20 -1.89626308E-19  1.64470366E-20
  1.54489552E-05 -7.12665584E-26 -6.45010701E-21 -1.66927065E-20  3.39914482E-21
  5.73709219E-06  7.54729797E-22  7.24717295E-19  1.58231673E-18 -2.45617414E-20
  3.21426228E-04  7.58933126E-19  2.79370895E-17  4.82017203E-17 -6.25086425E-18
  1.82235046E-02 -1.05308018E-17 -1.13523676E-20  5.68401591E-19  2.94432476E-16
  0.00000000E+00 -2.51960122E-24 -8.39108778E-24  1.11028544E-24  6.01857534E-09
  0.00000000E+00  0.00000000E+00  0.00000000E+00  0.00000000E+00  0.00000000E+00
  4.23437542E-23  0.00000000E+00 -3.16451770E-24 -1.17214088E-16 -5.23528964E-16
 -4.30341800E-16  1.34680136E-16  2.05670385E-01  0.00000000E+00  0.00000000E+00
  0.00000000E+00  0.00000000E+00  9.79598981E-01  2.17005884E-03  3.61147916E-01
  3.64370424E-01  4.73528448E-01 -5.20619705E-16  7.43433828E-03  2.93543539E-01
  4.17378434E-01  1.83666863E-01 -5.77574225E-17  1.95939547E-05  7.60204628E-03
  1.38818525E-02  5.65430081E-03 -2.65049423E-18  1.97022537E-08  2.04361264E-04
  3.98858613E-04  2.93345907E-04 -2.94361223E-19  1.52930608E-06  2.53262934E-04
  4.10483253E-04  3.11169870E-04 -6.27838006E-19  2.30396776E-04  7.90161331E-03
  8.86797478E-03  1.16143017E-02 -2.03723889E-17  8.67151357E-01  2.59361236E-03
  2.92914132E-05  5.29626345E-03  3.65690715E-12  4.32441233E-07  1.11797787E-06
  6.51761056E-07 -7.00308030E-22  0.00000000E+00  5.45126237E-08  1.62598551E-07
  6.01022234E-08 -4.23437542E-23  8.28560855E-08  1.80177381E-09  2.83806369E-06
  1.00196604E-01  2.76746470E+00  5.65891648E-01  3.79055931E+00 -4.71556818E-15
  2.37965661E-03  2.74095294E-01 -1.11868989E-01  4.51668227E-01 -6.64533922E-16
  1.04506659E+01  1.99003029E-05  5.88788131E-03  9.43611348E-03  2.30270686E-04
  3.21209439E-18  1.45935869E-06  5.31170829E-04  1.04973487E-03 -2.26877280E-05
  7.89122380E-19  4.20819278E-10  4.24607060E-06  1.06576248E-05  3.49027966E-07
  5.38642152E-21  4.50858763E-12  6.99584437E-07  1.88331299E-06 -2.31277959E-07
  1.17995669E-22  1.55528258E-08  4.32111611E-05  9.99839418E-05 -2.69818553E-06
 -3.28626435E-20  2.15015202E-05  3.26378149E-03  5.89473395E-03 -7.28514785E-04
 -2.00801180E-18  1.17789456E-03  6.27255965E-07  1.98215743E-05  2.12447781E-02
  0.00000000E+00  5.97992981E-10  1.99659309E-09 -2.14386541E-10 -1.36273720E-26
  0.00000000E+00  0.00000000E+00  0.00000000E+00  0.00000000E+00  0.00000000E+00
  1.80177381E-09  0.00000000E+00  1.37295863E-10  7.09591361E-03  1.30568854E-01
  1.43990164E-01  3.09370557E-02  1.17934026E-16  3.27131658E-02  5.21956403E-01
  3.94038137E-01 -2.82858513E-01 -1.15694277E-16  1.72823413E-01  7.23547876E-01
  2.52006210E-04  6.07732696E-02  6.94748694E-02 -8.50264195E-02  1.13689360E-16
  1.90334036E-05  1.21407972E-03  1.79686255E-03 -1.19069121E-03  3.30157807E-18
  6.61910877E-08  5.06248600E-05  9.94842987E-05 -5.63563262E-05  1.18077943E-19
  1.39925446E-08  1.68304435E-04  3.59456108E-04 -1.82382173E-04  2.02649393E-19
  4.78046061E-05  1.08963859E-02  1.98436632E-02 -5.52820528E-03  3.15067737E-18
  5.44829728E-03  2.34617774E-01  3.27529701E-01 -1.68017615E-01  1.29134302E-16
  6.33825111E-04  3.46195632E-06  7.82993712E-03  1.39885200E+00  3.01265910E-12
  7.66976434E-07  2.12504867E-06 -6.92752262E-07  7.70006496E-22  0.00000000E+00
  1.71509074E-09  5.43152801E-09 -2.28341700E-09  3.16451770E-24  2.83806369E-06
  1.37295863E-10  6.02008385E-09  6.10295011E-03  1.95318225E-01  8.06079752E-02
 -2.96461808E-01  4.78834524E-16  4.72618015E-02  1.96382503E+00 -3.94895227E-01
 -2.75708228E+00  3.29065713E-15  2.91832504E-02  5.30512393E-01  7.98424434E+00
Multipole Matrix (1,0,1)                   R   N=        1830
 -1.96135210E-15 -4.87126097E-16 -1.96135210E-15 -5.45641570E-17 -6.36908017E-16
 -1.96135210E-15  0.00000000E+00  0.00000000E+00  0.00000000E+00 -1.96135210E-15
  1.85595739E-01  2.16639311E+00  5.08390209E-01  0.00000000E+00 -1.96135210E-15
 -4.41094649E-21 -1.60890929E-16  1.67646354E-16 -2.02192353E-16  2.50218811E-03
 -4.00777069E-15 -9.12292668E-17 -1.69706376E-15  4.88351307E-16 -1.29745983E-15
  4.99623705E-01 -9.95379507E-16 -4.00777069E-15 -1.07899751E-16 -2.03686402E-15
  2.17422801E-16 -1.86279870E-15  4.94748030E-01 -3.45053927E-16 -4.02769188E-15
 -4.00777069E-15  1.18651063E-16  1.35156568E-15 -6.83515690E-16  4.00811619E-16
 -3.89334399E-01  0.00000000E+00  0.00000000E+00  0.00000000E+00 -4.00777069E-15
  6.26359604E-03  4.22484513E-01 -1.47257769E-01  3.35336971E-01 -8.55192533E-16
  5.99702384E-02  7.00011283E-01  5.08390209E-01  0.00000000E+00 -4.00777069E-15
  0.00000000E+00  1.11039546E-17 -2.46642218E-17  8.10796250E-18 -1.52926826E-04
  1.88956522E-21  2.50319737E-16 -4.08306899E-16 -8.11429778E-17 -3.95448497E-03
  7.06587031E-15 -3.98991702E-18 -5.07679386E-17 -1.19031757E-17 -2.62218177E-17
  2.56542909E-02 -1.27032627E-16  7.28624052E-16 -1.76804799E-15 -1.13677448E-16
 -6.62721675E-02  1.75489644E-15  7.06587031E-15 -8.80242693E-18 -1.42700065E-16
  7.23871861E-17 -7.06939171E-17  5.89790697E-02 -2.06768849E-16 -2.36513541E-16
 -6.27291153E-16  4.02382793E-17  7.53486950E-02 -2.90484711E-16 -3.39072481E-15
  7.06587031E-15  2.90847722E-18  1.30237589E-17  1.84370838E-17 -8.16163625E-18
 -1.21320629E-02 -3.96961297E-17  1.91909765E-16 -4.60833833E-16  3.76695415E-16
 -1.52140797E-02  0.00000000E+00  0.00000000E+00  0.00000000E+00  7.06587031E-15
  2.37544025E-04  8.10201724E-03  1.25771377E-02  3.36772939E-03  4.11205982E-18
  1.60879175E-03 -1.80304291E-01  3.28968688E-01  3.65235725E-02  3.88237244E-16
 -1.25592084E-01 -1.46599177E+00  5.08390209E-01  0.00000000E+00  7.06587031E-15
  0.00000000E+00 -6.81838717E-19  1.79157192E-18  3.62163527E-19 -5.39981447E-05
  0.00000000E+00 -2.25984080E-18  3.95467251E-18  3.46211725E-18 -2.42946570E-04
  3.31531902E-21 -4.95587675E-17  2.33099567E-17  6.69304691E-17 -6.45758410E-03
 -1.96135210E-15 -6.81838717E-19 -1.90781802E-18  4.61208887E-18  1.13323369E-18
  3.21156853E-03 -5.68583498E-18  9.40884817E-17 -1.80353676E-16 -7.73248638E-17
 -2.84310182E-02  2.57923709E-16  1.27858723E-15 -1.02380236E-15 -1.42127350E-15
 -5.66056738E-01 -4.87126097E-16 -1.96135210E-15 -1.79157192E-18 -4.61208887E-18
  1.02083509E-17  2.76653175E-18  1.53030685E-02 -1.02720691E-17  2.38840340E-17
 -8.64682015E-17 -1.46377936E-17 -7.50845279E-03  1.24323166E-16  3.65168687E-17
  4.84372838E-16 -2.08850806E-16 -3.90422579E-02  5.45641570E-17  6.36908017E-16
 -1.96135210E-15 -3.62163527E-19 -1.13323369E-18  2.76653175E-18 -1.04395961E-18
  1.16410291E-03 -8.69439831E-18  8.35920097E-17 -1.71780125E-16 -4.00461674E-17
 -2.67356689E-02  4.00324619E-16  1.11872068E-15 -1.09132209E-15 -9.32067220E-16
 -5.65660109E-01  0.00000000E+00  0.00000000E+00  0.00000000E+00 -1.96135210E-15
  5.39981447E-05 -3.21156853E-03  1.53030685E-02  1.16410291E-03 -5.03403430E-18
  6.55681745E-05 -4.22959214E-02  6.92159336E-02  4.12222631E-02  5.45674333E-18
 -4.65961618E-03 -6.02918279E-01  3.49733203E-01  5.98351729E-01  6.70104903E-16
 -1.85595739E-01 -2.16639311E+00  5.08390209E-01  0.00000000E+00 -1.96135210E-15
  0.00000000E+00 -5.68583498E-18  1.02720691E-17  8.69439831E-18 -6.55681745E-05
  0.00000000E+00 -1.39473328E-18  1.27416846E-18  3.51599902E-18 -1.74664332E-05
  0.00000000E+00 -7.09221312E-18 -2.82930279E-18  1.60016014E-17 -8.96819930E-05
 -4.41094649E-21 -1.60890929E-16 -1.67646354E-16  2.02192353E-16 -2.50218811E-03
 -4.00777069E-15 -2.25984080E-18  9.40884817E-17 -2.38840340E-17 -8.35920097E-17
  4.22959214E-02 -1.39473328E-18 -3.90156576E-18 -2.30427206E-18  1.09993037E-17
  1.03861516E-03  1.14259014E-17 -2.39892441E-17 -3.07357776E-18  2.44392550E-18
 -5.40512001E-02 -9.12292668E-17 -1.69706376E-15 -4.88351307E-16  1.29745983E-15
 -4.99623705E-01 -9.95379507E-16 -4.00777069E-15 -3.95467251E-18  1.80353676E-16
 -8.64682015E-17 -1.71780125E-16  6.92159336E-02 -1.27416846E-18  2.30427206E-18
 -7.04050837E-18 -5.30403440E-19  1.01977262E-02 -5.62617922E-18  4.39971051E-17
  5.62974604E-18 -5.56545850E-17  3.83759713E-02  1.07899751E-16  2.03686402E-15
  2.17422801E-16 -1.86279870E-15  4.94748030E-01  3.45053927E-16  4.02769188E-15
 -4.00777069E-15 -3.46211725E-18  7.73248638E-17 -1.46377936E-17 -4.00461674E-17
  4.12222631E-02 -3.51599902E-18 -1.09993037E-17 -5.30403440E-19  2.57769794E-17
  1.78675087E-03  2.57954101E-17 -5.25169884E-17 -1.20590358E-17  2.33259538E-17
 -7.69812693E-02 -1.18651063E-16 -1.35156568E-15 -6.83515690E-16  4.00811619E-16
 -3.89334399E-01  0.00000000E+00  0.00000000E+00  0.00000000E+00 -4.00777069E-15
  2.42946570E-04  2.84310182E-02 -7.50845279E-03 -2.67356689E-02  5.45674333E-18
  1.74664332E-05 -1.03861516E-03  1.01977262E-02  1.78675087E-03 -1.02951827E-17
 -1.72033936E-04 -5.03494489E-02  8.11293077E-03  7.12651589E-02  4.36878592E-18
 -6.26359604E-03 -4.22484513E-01 -1.47257769E-01  3.35336971E-01 -8.55192533E-16
 -5.99702384E-02 -7.00011283E-01  5.08390209E-01  0.00000000E+00 -4.00777069E-15
  3.31531902E-21  2.57923709E-16 -1.24323166E-16 -4.00324619E-16  4.65961618E-03
  0.00000000E+00  1.14259014E-17  5.62617922E-18 -2.57954101E-17  1.72033936E-04
  0.00000000E+00  2.45551859E-18  4.41186165E-18 -4.88584636E-18  3.65280134E-05
  0.00000000E+00  1.11039546E-17  2.46642218E-17 -8.10796250E-18  1.52926826E-04
  1.88956522E-21  2.50319737E-16  4.08306899E-16  8.11429778E-17  3.95448497E-03
  7.06587031E-15 -4.95587675E-17  1.27858723E-15 -3.65168687E-17 -1.11872068E-15
  6.02918279E-01 -7.09221312E-18 -2.39892441E-17 -4.39971051E-17  5.25169884E-17
  5.03494489E-02  2.45551859E-18  6.87120754E-18  8.51642527E-18 -1.52892494E-17
 -2.17266447E-03 -3.98991702E-18 -5.07679386E-17  1.19031757E-17  2.62218177E-17
 -2.56542909E-02 -1.27032627E-16  7.28624052E-16  1.76804799E-15  1.13677448E-16
  6.62721675E-02  1.75489644E-15  7.06587031E-15 -2.33099567E-17  1.02380236E-15
  4.84372838E-16 -1.09132209E-15  3.49733203E-01  2.82930279E-18  3.07357776E-18
  5.62974604E-18 -1.20590358E-17  8.11293077E-03 -4.41186165E-18 -8.51642527E-18
 -7.00768858E-18  2.15588796E-17  1.22064766E-02  8.80242693E-18  1.42700065E-16
  7.23871861E-17 -7.06939171E-17  5.89790697E-02  2.06768849E-16  2.36513541E-16
 -6.27291153E-16  4.02382793E-17  7.53486950E-02  2.90484711E-16  3.39072481E-15
  7.06587031E-15 -6.69304691E-17  1.42127350E-15 -2.08850806E-16 -9.32067220E-16
  5.98351729E-01 -1.60016014E-17 -2.44392550E-18 -5.56545850E-17  2.33259538E-17
  7.12651589E-02  4.88584636E-18  1.52892494E-17  2.15588796E-17 -2.60017086E-17
 -2.95012330E-03 -2.90847722E-18 -1.30237589E-17  1.84370838E-17 -8.16163625E-18
 -1.21320629E-02  3.96961297E-17 -1.91909765E-16 -4.60833833E-16  3.76695415E-16
 -1.52140797E-02  0.00000000E+00  0.00000000E+00  0.00000000E+00  7.06587031E-15
  6.45758410E-03  5.66056738E-01 -3.90422579E-02 -5.65660109E-01  6.70104903E-16
  8.96819930E-05  5.40512001E-02  3.83759713E-02 -7.69812693E-02  4.36878592E-18
 -3.65280134E-05  2.17266447E-03  1.22064766E-02 -2.95012330E-03  1.81303914E-17
 -2.37544025E-04 -8.10201724E-03  1.25771377E-02  3.36772939E-03  4.11205982E-18
 -1.60879175E-03  1.80304291E-01  3.28968688E-01  3.65235725E-02  3.88237244E-16
  1.25592084E-01  1.46599177E+00  5.08390209E-01  0.00000000E+00  7.06587031E-15
 -1.39360659E-17 -8.60278172E-16  2.73871634E-17 -1.04968104E-15  1.48483384E-01
 -2.69397604E-16 -3.92712230E-15 -3.38890372E-15 -3.51801617E-15  3.84755042E-01
  3.63044789E-17  8.90953616E-17 -3.17194545E-16  6.41102083E-17 -3.32104950E-02
 -9.57373385E-20  1.52395355E-17  5.50180704E-19  1.77312074E-17 -4.32658097E-03
 -3.94925814E-20 -5.49781743E-19 -1.35051571E-18 -1.25746554E-18  1.62182690E-04
  5.73971291E-19 -1.48652130E-17 -3.98663200E-18 -2.24505337E-17  7.59159004E-03
 -1.28235143E-14 -2.15888310E-19 -5.20589962E-19 -1.56471164E-17  5.32540958E-20
  1.28298032E-03 -1.79463878E-17  6.15958065E-16 -1.16271127E-15  1.99188316E-16
 -4.89788753E-02  4.74905445E-16  6.92121593E-15 -6.19848822E-15  4.89300637E-15
 -8.05554510E-01 -6.55922861E-18  8.31363025E-16 -3.03541689E-16  1.05392086E-15
 -1.92397703E-01 -3.67768361E-19  6.30297874E-18 -3.94584860E-18  9.71649207E-18
 -8.11780286E-03  6.95168713E-20  9.66999866E-19 -2.32911823E-18  1.74594981E-18
 -3.38628755E-04  3.11960966E-16  2.25975832E-14 -9.57373385E-20  1.52395355E-17
 -5.50180704E-19 -1.77312074E-17  4.32658097E-03 -3.94925814E-20 -5.49781743E-19
  1.35051571E-18  1.25746554E-18 -1.62182690E-04  5.73971291E-19 -1.48652130E-17
  3.98663200E-18  2.24505337E-17 -7.59159004E-03 -1.39360659E-17 -8.60278172E-16
 -2.73871634E-17  1.04968104E-15 -1.48483384E-01 -2.69397604E-16 -3.92712230E-15
  3.38890372E-15  3.51801617E-15 -3.84755042E-01  3.63044789E-17  8.90953616E-17
  3.17194545E-16 -6.41102083E-17  3.32104950E-02 -1.12994097E-20 -1.08379227E-18
 -1.28235143E-14 -6.55922861E-18  8.31363025E-16  3.03541689E-16 -1.05392086E-15
  1.92397703E-01 -3.67768361E-19  6.30297874E-18  3.94584860E-18 -9.71649207E-18
  8.11780286E-03  6.95168713E-20  9.66999866E-19  2.32911823E-18 -1.74594981E-18
  3.38628755E-04 -2.15888310E-19 -5.20589962E-19  1.56471164E-17 -5.32540958E-20
 -1.28298032E-03 -1.79463878E-17  6.15958065E-16  1.16271127E-15 -1.99188316E-16
  4.89788753E-02  4.74905445E-16  6.92121593E-15  6.19848822E-15 -4.89300637E-15
  8.05554510E-01 -1.08379227E-18  1.98756049E-20  3.11960966E-16  2.25975832E-14
  0.00000000E+00 -7.96463545E-22  3.21551912E-21  6.54107621E-22 -3.15312514E-08
  0.00000000E+00 -1.55189023E-20  4.91334813E-20  2.81881381E-20 -6.92356220E-07
  0.00000000E+00 -8.06203215E-18  1.50795137E-17  1.25390637E-17 -3.30411723E-04
 -2.99591020E-22 -2.19318107E-16  3.59122097E-16  7.27827141E-17 -8.62204634E-03
  0.00000000E+00 -1.04286806E-17  2.42675659E-17 -7.30635157E-18 -3.27003538E-04
  0.00000000E+00 -2.04652596E-20  7.40420344E-20 -8.88410350E-21 -6.84440798E-07
 -1.29635773E-21 -7.01109081E-18 -9.93467473E-18 -1.89339564E-21 -8.68773356E-15
 -1.50140960E-22 -1.82523179E-19  4.70028088E-19  8.12606315E-20 -2.43669432E-04
 -5.60299197E-21  5.45862324E-18 -1.07488407E-17 -5.29852877E-18 -2.06665757E-03
  8.29544065E-18  1.93447369E-16 -2.79384129E-16 -1.96030646E-16 -1.03954374E-01
 -5.80005515E-17 -1.42343940E-15  1.72717073E-15  3.03522135E-16 -8.16477102E-01
 -5.57280476E-18 -4.59133947E-16  7.51946086E-16 -1.96720467E-16 -8.87884786E-02
  1.28662887E-20 -7.86520252E-18  1.77969918E-17 -1.82543132E-18 -1.63393675E-03
  1.06370795E-18  3.06007020E-16 -5.14400700E-16 -1.10675496E-18 -2.15770627E-15
 -8.68773356E-15 -6.09266953E-22 -3.41457146E-19  8.70407929E-19  1.58894712E-19
 -4.17696153E-04 -1.83301298E-20  7.66079522E-18 -1.39563104E-17 -7.48790808E-18
 -2.99271617E-03  1.51665640E-17  1.65750758E-16 -2.03662691E-16 -1.87501989E-16
 -1.01758513E-01 -9.60557184E-17 -1.40647490E-15  1.39274566E-15  3.92208040E-16
 -7.71522604E-01 -1.26034419E-17 -5.72265752E-16  8.58294804E-16 -2.70651942E-16
 -1.09265534E-01  4.70314975E-20 -1.30580702E-17  2.83700608E-17 -3.09913341E-18
 -2.64954468E-03  1.39407362E-18  1.48424519E-16 -4.64871217E-16 -1.78919382E-18
  1.14868175E-16  1.34081539E-15 -8.68773356E-15 -1.23488045E-22 -8.50960645E-20
  2.23705683E-19 -2.26416998E-20 -1.06368727E-04 -1.02039671E-20  5.22724220E-18
 -1.04284708E-17 -3.37317213E-18 -2.03530878E-03  1.28769059E-17  1.63076401E-16
 -2.58819583E-16 -1.06462417E-16 -9.93756440E-02 -1.98815910E-17 -3.41882655E-16
  5.04960143E-16 -6.98625893E-16 -1.81817569E-01  3.90047803E-18  2.01137037E-16
 -3.54925197E-16 -8.88701091E-17  3.82216245E-02 -5.59728690E-21  1.88284890E-18
 -4.33862355E-18 -2.13715150E-18  3.84208406E-04  1.36042775E-18  3.81367085E-16
  4.78498255E-16  6.28066670E-19  0.00000000E+00  0.00000000E+00  0.00000000E+00
 -8.68773356E-15  1.34867576E-08 -2.57088468E-04  6.61775716E-04  1.13854932E-04
 -7.26856681E-20  6.59201656E-08 -2.18980356E-03  4.34201700E-03  2.18718696E-03
  1.46993503E-18 -1.23209165E-04 -1.14150451E-01  1.48930812E-01  1.10210577E-01
  5.33482292E-17 -4.59360270E-03 -9.12979213E-01  1.10676809E+00  2.01560117E-01
 -8.19245114E-16 -6.86582138E-05 -1.01502930E-01  1.63627656E-01 -4.43206563E-02
 -1.68794926E-16  1.83076736E-07 -1.77486277E-03  4.08008876E-03 -4.25843828E-04
 -2.46624398E-18 -2.72046160E-04 -9.99534733E-02 -8.57527305E-02 -1.96747672E-04
 -3.90505053E-01 -4.55822672E+00  5.08390209E-01  0.00000000E+00 -8.68773356E-15
  0.00000000E+00  3.58605698E-24 -1.75732655E-23  2.86758328E-25 -1.07944535E-10
  0.00000000E+00  1.42001437E-21 -5.72199975E-21 -1.29171004E-21 -3.74966894E-08
  0.00000000E+00  3.11641281E-18 -8.54477385E-18 -2.01747324E-18 -7.92456398E-05
  0.00000000E+00  1.72891277E-17 -4.02272880E-17  1.05753333E-17 -4.82589514E-04
  0.00000000E+00  4.23030998E-20 -1.35447050E-19  6.78219408E-20 -1.37902919E-06
  0.00000000E+00  1.93267437E-23 -8.67417529E-23  2.57847086E-23 -6.54673440E-10
  6.00823237E-22  2.37260891E-17  6.48172514E-20  1.64354666E-24  4.78719955E-21
  6.02754409E-16 -6.77015362E-16  6.89579599E-16 -2.23598471E-02  1.50522868E-14
 -4.55107486E-25  4.02275935E-20 -1.14332583E-19  1.69942044E-21 -1.66732495E-05
 -1.90842626E-22  2.99096774E-18 -6.97311901E-18 -1.44918267E-18 -5.14410132E-04
  1.62813852E-18  2.39872163E-16 -4.17893835E-16 -9.07150280E-17 -4.77709940E-02
 -2.20765963E-18  1.68122446E-16 -2.42449475E-16  5.94023729E-17 -1.50383355E-01
 -1.77884802E-20 -1.00085902E-17  1.91414485E-17 -8.78249782E-18 -4.51696229E-03
  7.77587485E-24 -8.33336010E-20  2.15038790E-19 -5.85075046E-20 -5.11569302E-05
  9.66965242E-19  9.12165888E-16 -1.30889896E-17 -1.09550469E-20 -3.46382399E-16
  6.79029246E-16 -1.69143920E-16  1.91754051E-16 -1.83998517E+00  3.73842194E-15
  1.50522868E-14 -2.24012055E-24  9.40221049E-20 -2.58022548E-19  3.98675943E-21
 -3.87720490E-05 -7.98191698E-22  5.89005965E-18 -1.30285998E-17 -2.88766704E-18
 -1.00780771E-03  4.40179706E-18  3.56695432E-16 -5.78242809E-16 -1.44703386E-16
 -7.00455740E-02 -5.07815293E-18  2.57073083E-16 -3.37538747E-16  1.01784602E-16
 -1.97273207E-01 -5.57282821E-20 -1.53295125E-17  2.69590673E-17 -1.36904233E-17
 -7.20596412E-03  3.52340238E-23 -1.77333616E-19  4.35283770E-19 -1.24223927E-19
 -1.09934753E-04  1.75200934E-18  9.36740489E-16 -1.54069468E-17 -2.30037236E-20
 -3.79891495E-16  6.64017828E-16  5.24466573E-17  4.01184114E-16 -1.14787507E+00
 -1.50587840E-16 -1.75775834E-15  1.50522868E-14  3.64000538E-26 -1.70717014E-21
  4.86594296E-21  1.26237639E-20  7.04447606E-07 -1.74722508E-22  1.46005372E-18
 -3.43894519E-18  2.43712345E-19 -2.49917221E-04  1.05311600E-18  9.23926109E-17
 -1.70734113E-16  5.17656807E-17 -1.80955469E-02  1.35055083E-18 -7.46132606E-17
  1.18123092E-16  4.30566838E-17  5.68168344E-02  2.84238024E-20  8.42881222E-18
 -1.64236267E-17  4.27153564E-18  3.95508663E-03 -1.03864308E-23  5.82508000E-20
 -1.50249906E-19  1.47924478E-20  3.60841785E-05  8.47588933E-19  7.38284045E-16
  1.56471554E-17  1.05130137E-20  3.94391577E-16 -8.52497866E-16  5.09738137E-16
 -8.95231794E-17  1.34980590E+00  0.00000000E+00  0.00000000E+00  0.00000000E+00
  1.50522868E-14  3.30145756E-11 -1.68108736E-05  4.78645260E-05 -7.11928806E-07
  1.27587580E-20  2.13359221E-09 -5.26525628E-04  1.23463263E-03  2.57411811E-04
  9.47908828E-19 -2.35831670E-05 -5.15692087E-02  8.98746061E-02  1.97750227E-02
  8.65029810E-17 -1.97527568E-04 -1.64150762E-01  2.55361743E-01 -6.25768614E-02
  8.60860567E-17 -2.40179723E-07 -4.68809445E-03  8.92248305E-03 -4.14150585E-03
 -2.83283290E-18  1.21681279E-10 -5.16869820E-05  1.33977879E-04 -3.65643908E-05
 -2.49257393E-20 -1.36980847E-04 -1.59042605E-01 -3.82402560E-03 -3.88299302E-06
 -1.77533291E-02 -1.92680085E+00  1.53453376E+00 -1.40541164E+00  5.53083576E-16
 -5.16098347E-01 -6.02423261E+00  5.08390209E-01  0.00000000E+00  1.50522868E-14
 -8.88127730E-23 -1.81264261E-19  4.66882359E-19  1.52779120E-19 -6.04879111E-05
 -7.39229307E-22  1.31075186E-19 -2.56484879E-19 -1.64912084E-19 -2.66828464E-04
  4.87093885E-19 -3.24383936E-18  2.55914190E-18  3.98392092E-18 -1.32527894E-02
 -1.11415070E-17 -1.07923361E-15  1.27668990E-15  8.76634861E-16 -2.35986142E-01
 -5.62516900E-18 -5.29922342E-16  8.78332733E-16  9.41109660E-17 -6.77733827E-02
  2.82163418E-20 -7.43646822E-18  1.66582675E-17  2.01036372E-18 -1.03579330E-03
  4.98300675E-20  9.81101196E-18 -1.41835078E-15 -1.81944861E-18 -6.16473462E-16
 -1.00941929E-14  3.25863173E-15  9.25916705E-15 -1.96855883E+00  7.53729457E-17
 -9.86776143E-16 -3.20159491E-16  1.14591399E-15 -4.89883315E-01 -3.24879367E-14
 -1.96260770E-26  1.30339392E-21 -3.85611571E-21 -7.56621967E-23 -8.15245427E-07
 -5.51924990E-24  1.39561233E-19 -3.48093592E-19 -7.11297620E-20 -2.79426159E-05
  4.56068744E-20  1.69536874E-17 -3.27632395E-17 -6.90780095E-18 -3.95805664E-03
 -1.07076417E-19  6.05396993E-18 -1.05173487E-17  1.20284597E-18 -1.77956807E-02
 -1.30284607E-21 -1.63757279E-18  3.45806655E-18 -1.05740629E-18 -5.35196149E-04
  5.80659448E-25 -9.12227925E-21  2.48968844E-20 -4.67215432E-21 -3.73106809E-06
  5.42609250E-20  1.10275589E-16 -3.73273126E-18 -1.32359384E-21 -4.79107286E-17
 -6.15375936E-17  9.97389631E-17 -2.60017046E-17 -5.06622245E-01  9.18869557E-16
  7.12579733E-15 -7.32441936E-15 -1.36019329E-15 -2.80199452E+00 -6.92914807E-16
  1.38112652E-14 -6.14861572E-23  2.11389415E-19 -5.49675254E-19  1.05343633E-19
 -4.64440722E-05 -2.02185226E-20  1.75603517E-17 -3.65829340E-17  8.67671247E-19
 -2.20435694E-03  1.05058976E-17  7.24263069E-16 -1.15307793E-15  1.51814661E-16
 -9.77200425E-02 -1.28385841E-18  2.97455406E-16 -3.84926510E-16  2.70920379E-16
 -8.62107666E-02 -1.61238281E-20 -3.31631022E-19  6.91206083E-19 -4.49172572E-19
 -1.98416190E-03  1.03864172E-22  2.27669026E-20 -5.20713813E-20  2.51970433E-20
 -5.00180321E-05  1.03460654E-17  4.20036814E-15 -1.34330786E-18 -2.24926802E-21
 -4.20930575E-17  1.26466359E-15 -6.08583233E-16  1.51659306E-15 -4.34988190E-01
  1.02347124E-15  1.39336431E-14  1.68280994E-15  1.28118119E-14 -2.44759008E+00
  2.51230708E-17  4.46848036E-15  4.02868244E-14 -2.99591020E-22 -2.19318107E-16
 -3.59122097E-16 -7.27827141E-17  8.62204634E-03  0.00000000E+00 -1.04286806E-17
 -2.42675659E-17  7.30635157E-18  3.27003538E-04  0.00000000E+00 -2.04652596E-20
 -7.40420344E-20  8.88410350E-21  6.84440798E-07  0.00000000E+00 -7.96463545E-22
 -3.21551912E-21 -6.54107621E-22  3.15312514E-08  0.00000000E+00 -1.55189023E-20
 -4.91334813E-20 -2.81881381E-20  6.92356220E-07  0.00000000E+00 -8.06203215E-18
 -1.50795137E-17 -1.25390637E-17  3.30411723E-04 -9.93467473E-18 -1.89339564E-21
 -1.29635773E-21 -7.01109081E-18  0.00000000E+00  0.00000000E+00  0.00000000E+00
  0.00000000E+00  0.00000000E+00  0.00000000E+00  0.00000000E+00  0.00000000E+00
  0.00000000E+00  0.00000000E+00 -2.39362795E-26  0.00000000E+00 -1.77169947E-26
 -8.68773356E-15 -5.80005515E-17 -1.42343940E-15 -1.72717073E-15 -3.03522135E-16
  8.16477102E-01 -5.57280476E-18 -4.59133947E-16 -7.51946086E-16  1.96720467E-16
  8.87884786E-02  1.28662887E-20 -7.86520252E-18 -1.77969918E-17  1.82543132E-18
  1.63393675E-03 -1.50140960E-22 -1.82523179E-19 -4.70028088E-19 -8.12606315E-20
  2.43669432E-04 -5.60299197E-21  5.45862324E-18  1.07488407E-17  5.29852877E-18
  2.06665757E-03  8.29544065E-18  1.93447369E-16  2.79384129E-16  1.96030646E-16
  1.03954374E-01 -5.14400700E-16 -1.10675496E-18  1.06370795E-18  3.06007020E-16
  0.00000000E+00 -1.09205902E-24 -5.81087214E-24 -1.22979443E-24 -7.35842241E-10
  0.00000000E+00  1.60575543E-23  4.25679230E-23  1.79036385E-24 -5.16126426E-09
  1.90280873E-22  4.50596471E-25 -1.14336663E-22 -2.15770627E-15 -8.68773356E-15
  9.60557184E-17  1.40647490E-15  1.39274566E-15  3.92208040E-16 -7.71522604E-01
  1.26034419E-17  5.72265752E-16  8.58294804E-16 -2.70651942E-16 -1.09265534E-01
 -4.70314975E-20  1.30580702E-17  2.83700608E-17 -3.09913341E-18 -2.64954468E-03
  6.09266953E-22  3.41457146E-19  8.70407929E-19  1.58894712E-19 -4.17696153E-04
  1.83301298E-20 -7.66079522E-18 -1.39563104E-17 -7.48790808E-18 -2.99271617E-03
 -1.51665640E-17 -1.65750758E-16 -2.03662691E-16 -1.87501989E-16 -1.01758513E-01
  4.64871217E-16  1.78919382E-18 -1.39407362E-18 -1.48424519E-16  0.00000000E+00
  5.81087214E-24  2.93199489E-23  6.30895706E-24  2.01329085E-07  0.00000000E+00
 -6.43857860E-23 -1.73062345E-22 -7.17880081E-24  2.06950604E-08 -2.53175954E-22
 -1.84610607E-24 -8.02668211E-23 -1.14868175E-16 -1.34081539E-15 -8.68773356E-15
  1.98815910E-17  3.41882655E-16  5.04960143E-16 -6.98625893E-16 -1.81817569E-01
 -3.90047803E-18 -2.01137037E-16 -3.54925197E-16 -8.88701091E-17  3.82216245E-02
  5.59728690E-21 -1.88284890E-18 -4.33862355E-18 -2.13715150E-18  3.84208406E-04
  1.23488045E-22  8.50960645E-20  2.23705683E-19 -2.26416998E-20 -1.06368727E-04
  1.02039671E-20 -5.22724220E-18 -1.04284708E-17 -3.37317213E-18 -2.03530878E-03
 -1.28769059E-17 -1.63076401E-16 -2.58819583E-16 -1.06462417E-16 -9.93756440E-02
 -4.78498255E-16 -6.28066670E-19 -1.36042775E-18 -3.81367085E-16  0.00000000E+00
  1.22979443E-24  6.30895706E-24  5.20198246E-25  5.55177176E-10  0.00000000E+00
 -1.79036385E-24 -4.74618171E-24  4.83327431E-24  5.75463784E-10 -1.83617475E-22
 -8.59282895E-26 -4.22855309E-23  0.00000000E+00  0.00000000E+00  0.00000000E+00
 -8.68773356E-15  4.59360270E-03  9.12979213E-01  1.10676809E+00  2.01560117E-01
 -8.19245114E-16  6.86582138E-05  1.01502930E-01  1.63627656E-01 -4.43206563E-02
 -1.68794926E-16 -1.83076736E-07  1.77486277E-03  4.08008876E-03 -4.25843828E-04
 -2.46624398E-18 -1.34867576E-08  2.57088468E-04  6.61775716E-04  1.13854932E-04
 -7.26856681E-20 -6.59201656E-08  2.18980356E-03  4.34201700E-03  2.18718696E-03
  1.46993503E-18  1.23209165E-04  1.14150451E-01  1.48930812E-01  1.10210577E-01
  5.33482292E-17  8.57527305E-02  1.96747672E-04  2.72046160E-04  9.99534733E-02
  0.00000000E+00  7.35842241E-10  2.01329085E-07  5.55177176E-10 -2.40114181E-24
  0.00000000E+00 -5.16126426E-09 -1.36823015E-08 -5.75463784E-10  5.03289392E-24
  8.90377770E-08 -1.95491369E-10  2.26215435E-08  3.90505053E-01  4.55822672E+00
  5.08390209E-01  0.00000000E+00 -8.68773356E-15  0.00000000E+00  1.72891277E-17
  4.02272880E-17 -1.05753333E-17  4.82589514E-04  0.00000000E+00  4.23030998E-20
  1.35447050E-19 -6.78219408E-20  1.37902919E-06  0.00000000E+00  1.93267437E-23
  8.67417529E-23 -2.57847086E-23  6.54673440E-10  0.00000000E+00  3.58605698E-24
  1.75732655E-23 -2.86758328E-25  1.07944535E-10  0.00000000E+00  1.42001437E-21
  5.72199975E-21  1.29171004E-21  3.74966894E-08  0.00000000E+00  3.11641281E-18
  8.54477385E-18  2.01747324E-18  7.92456398E-05  6.48172514E-20  1.64354666E-24
  6.00823237E-22  2.37260891E-17  0.00000000E+00  0.00000000E+00  0.00000000E+00
  0.00000000E+00  0.00000000E+00  0.00000000E+00  0.00000000E+00  0.00000000E+00
  0.00000000E+00  0.00000000E+00  0.00000000E+00  0.00000000E+00  0.00000000E+00
  4.78719955E-21  6.02754409E-16  6.77015362E-16 -6.89579599E-16  2.23598471E-02
  1.50522868E-14 -2.20765963E-18  1.68122446E-16  2.42449475E-16 -5.94023729E-17
  1.50383355E-01 -1.77884802E-20 -1.00085902E-17 -1.91414485E-17  8.78249782E-18
  4.51696229E-03  7.77587485E-24 -8.33336010E-20 -2.15038790E-19  5.85075046E-20
  5.11569302E-05 -4.55107486E-25  4.02275935E-20  1.14332583E-19 -1.69942044E-21
  1.66732495E-05 -1.90842626E-22  2.99096774E-18  6.97311901E-18  1.44918267E-18
  5.14410132E-04  1.62813852E-18  2.39872163E-16  4.17893835E-16  9.07150280E-17
  4.77709940E-02 -1.30889896E-17 -1.09550469E-20  9.66965242E-19  9.12165888E-16
  0.00000000E+00  1.60575543E-23  6.43857860E-23  1.79036385E-24  5.16126426E-09
  0.00000000E+00  0.00000000E+00  0.00000000E+00  0.00000000E+00  0.00000000E+00
  6.92031628E-23  0.00000000E+00 -1.50674949E-24 -3.46382399E-16  6.79029246E-16
  1.69143920E-16 -1.91754051E-16  1.83998517E+00  3.73842194E-15  1.50522868E-14
  5.07815293E-18 -2.57073083E-16 -3.37538747E-16  1.01784602E-16 -1.97273207E-01
  5.57282821E-20  1.53295125E-17  2.69590673E-17 -1.36904233E-17 -7.20596412E-03
 -3.52340238E-23  1.77333616E-19  4.35283770E-19 -1.24223927E-19 -1.09934753E-04
  2.24012055E-24 -9.40221049E-20 -2.58022548E-19  3.98675943E-21 -3.87720490E-05
  7.98191698E-22 -5.89005965E-18 -1.30285998E-17 -2.88766704E-18 -1.00780771E-03
 -4.40179706E-18 -3.56695432E-16 -5.78242809E-16 -1.44703386E-16 -7.00455740E-02
  1.54069468E-17  2.30037236E-20 -1.75200934E-18 -9.36740489E-16  0.00000000E+00
 -4.25679230E-23 -1.73062345E-22 -4.74618171E-24 -1.36823015E-08  0.00000000E+00
  0.00000000E+00  0.00000000E+00  0.00000000E+00  0.00000000E+00 -1.76143704E-22
  0.00000000E+00  3.91258430E-24  3.79891495E-16 -6.64017828E-16  5.24466573E-17
  4.01184114E-16 -1.14787507E+00  1.50587840E-16  1.75775834E-15  1.50522868E-14
 -1.35055083E-18  7.46132606E-17  1.18123092E-16  4.30566838E-17  5.68168344E-02
 -2.84238024E-20 -8.42881222E-18 -1.64236267E-17  4.27153564E-18  3.95508663E-03
  1.03864308E-23 -5.82508000E-20 -1.50249906E-19  1.47924478E-20  3.60841785E-05
 -3.64000538E-26  1.70717014E-21  4.86594296E-21  1.26237639E-20  7.04447606E-07
  1.74722508E-22 -1.46005372E-18 -3.43894519E-18  2.43712345E-19 -2.49917221E-04
 -1.05311600E-18 -9.23926109E-17 -1.70734113E-16  5.17656807E-17 -1.80955469E-02
 -1.56471554E-17 -1.05130137E-20 -8.47588933E-19 -7.38284045E-16  0.00000000E+00
 -1.79036385E-24 -7.17880081E-24  4.83327431E-24 -5.75463784E-10  0.00000000E+00
  0.00000000E+00  0.00000000E+00  0.00000000E+00  0.00000000E+00 -3.85885249E-23
  0.00000000E+00 -1.16568256E-24 -3.94391577E-16  8.52497866E-16  5.09738137E-16
 -8.95231794E-17  1.34980590E+00  0.00000000E+00  0.00000000E+00  0.00000000E+00
  1.50522868E-14  1.97527568E-04  1.64150762E-01  2.55361743E-01 -6.25768614E-02
  8.60860567E-17  2.40179723E-07  4.68809445E-03  8.92248305E-03 -4.14150585E-03
 -2.83283290E-18 -1.21681279E-10  5.16869820E-05  1.33977879E-04 -3.65643908E-05
 -2.49257393E-20 -3.30145756E-11  1.68108736E-05  4.78645260E-05 -7.11928806E-07
  1.27587580E-20 -2.13359221E-09  5.26525628E-04  1.23463263E-03  2.57411811E-04
  9.47908828E-19  2.35831670E-05  5.15692087E-02  8.98746061E-02  1.97750227E-02
  8.65029810E-17  3.82402560E-03  3.88299302E-06  1.36980847E-04  1.59042605E-01
  0.00000000E+00  5.16126426E-09  2.06950604E-08  5.75463784E-10  5.03289392E-24
  0.00000000E+00  0.00000000E+00  0.00000000E+00  0.00000000E+00  0.00000000E+00
  1.31138739E-08  0.00000000E+00  7.26585893E-10  1.77533291E-02  1.92680085E+00
  1.53453376E+00 -1.40541164E+00  5.53083576E-16  5.16098347E-01  6.02423261E+00
  5.08390209E-01  0.00000000E+00  1.50522868E-14 -1.11415070E-17 -1.07923361E-15
 -1.27668990E-15 -8.76634861E-16  2.35986142E-01 -5.62516900E-18 -5.29922342E-16
 -8.78332733E-16 -9.41109660E-17  6.77733827E-02  2.82163418E-20 -7.43646822E-18
 -1.66582675E-17 -2.01036372E-18  1.03579330E-03 -8.88127730E-23 -1.81264261E-19
 -4.66882359E-19 -1.52779120E-19  6.04879111E-05 -7.39229307E-22  1.31075186E-19
  2.56484879E-19  1.64912084E-19  2.66828464E-04  4.87093885E-19 -3.24383936E-18
 -2.55914190E-18 -3.98392092E-18  1.32527894E-02 -1.41835078E-15 -1.81944861E-18
  4.98300675E-20  9.81101196E-18 -2.39362795E-26  1.90280873E-22  2.53175954E-22
  1.83617475E-22 -8.90377770E-08  0.00000000E+00  6.92031628E-23  1.76143704E-22
  3.85885249E-23 -1.31138739E-08 -1.86068658E-25  2.38820788E-24  6.61582336E-22
 -6.16473462E-16 -1.00941929E-14 -3.25863173E-15 -9.25916705E-15  1.96855883E+00
  7.53729457E-17 -9.86776143E-16  3.20159491E-16 -1.14591399E-15  4.89883315E-01
 -3.24879367E-14 -1.07076417E-19  6.05396993E-18  1.05173487E-17 -1.20284597E-18
  1.77956807E-02 -1.30284607E-21 -1.63757279E-18 -3.45806655E-18  1.05740629E-18
  5.35196149E-04  5.80659448E-25 -9.12227925E-21 -2.48968844E-20  4.67215432E-21
  3.73106809E-06 -1.96260770E-26  1.30339392E-21  3.85611571E-21  7.56621967E-23
  8.15245427E-07 -5.51924990E-24  1.39561233E-19  3.48093592E-19  7.11297620E-20
  2.79426159E-05  4.56068744E-20  1.69536874E-17  3.27632395E-17  6.90780095E-18
  3.95805664E-03 -3.73273126E-18 -1.32359384E-21  5.42609250E-20  1.10275589E-16
  0.00000000E+00  4.50596471E-25  1.84610607E-24  8.59282895E-26  1.95491369E-10
  0.00000000E+00  0.00000000E+00  0.00000000E+00  0.00000000E+00  0.00000000E+00
  2.38820788E-24  0.00000000E+00 -1.30437357E-25 -4.79107286E-17 -6.15375936E-17
 -9.97389631E-17  2.60017046E-17  5.06622245E-01  9.18869557E-16  7.12579733E-15
  7.32441936E-15  1.36019329E-15  2.80199452E+00 -6.92914807E-16  1.38112652E-14
 -1.28385841E-18  2.97455406E-16  3.84926510E-16 -2.70920379E-16  8.62107666E-02
 -1.61238281E-20 -3.31631022E-19 -6.91206083E-19  4.49172572E-19  1.98416190E-03
  1.03864172E-22  2.27669026E-20  5.20713813E-20 -2.51970433E-20  5.00180321E-05
 -6.14861572E-23  2.11389415E-19  5.49675254E-19 -1.05343633E-19  4.64440722E-05
 -2.02185226E-20  1.75603517E-17  3.65829340E-17 -8.67671247E-19  2.20435694E-03
  1.05058976E-17  7.24263069E-16  1.15307793E-15 -1.51814661E-16  9.77200425E-02
 -1.34330786E-18 -2.24926802E-21  1.03460654E-17  4.20036814E-15 -1.77169947E-26
 -1.14336663E-22  8.02668211E-23  4.22855309E-23 -2.26215435E-08  0.00000000E+00
 -1.50674949E-24 -3.91258430E-24  1.16568256E-24 -7.26585893E-10  6.61582336E-22
 -1.30437357E-25  0.00000000E+00 -4.20930575E-17  1.26466359E-15  6.08583233E-16
 -1.51659306E-15  4.34988190E-01  1.02347124E-15  1.39336431E-14 -1.68280994E-15
 -1.28118119E-14  2.44759008E+00  2.51230708E-17  4.46848036E-15  4.02868244E-14
Multipole Matrix (0,1,1)                   R   N=        1830
 -4.00029000E-16 -9.93521585E-17 -4.00029000E-16  0.00000000E+00  0.00000000E+00
 -4.00029000E-16 -5.45641570E-17 -6.36908017E-16  0.00000000E+00 -4.00029000E-16
  3.78533143E-02  4.41848287E-01  0.00000000E+00  5.08390209E-01 -4.00029000E-16
 -3.90865781E-21 -4.18489571E-16  4.48796966E-16 -5.18065970E-16  6.00497311E-03
 -1.20061914E-14 -2.34068790E-17 -1.59801528E-15  1.01278684E-15 -1.80429784E-15
  3.64838639E-01 -2.98188640E-15 -1.20061914E-14 -2.90445533E-17 -1.28464120E-15
  1.07923193E-16 -1.68026363E-15  2.57326704E-01  0.00000000E+00  0.00000000E+00
 -1.20061914E-14  3.00007782E-17  6.10577678E-16 -6.35505192E-16  2.77667665E-16
 -1.40634207E-01 -3.45053927E-16 -4.02769188E-15  0.00000000E+00 -1.20061914E-14
  1.75924100E-03  4.51910382E-01 -3.11324132E-01  5.01236911E-01 -1.09173798E-15
  1.79654531E-01  2.09704350E+00  0.00000000E+00  5.08390209E-01 -1.20061914E-14
  0.00000000E+00 -1.36707800E-17  2.98662043E-17 -1.03676157E-17  1.91889058E-04
 -9.25742882E-21 -3.10222671E-16  5.07389688E-16  9.29649933E-17  5.17785728E-03
 -7.97775907E-15 -1.00051664E-18 -1.87479762E-16  2.49050467E-16 -1.73594935E-16
  4.76024572E-02 -4.47498069E-16 -3.63594756E-15  3.85242737E-15 -4.24914063E-16
  6.15570393E-01 -1.98137531E-15 -7.97775907E-15 -2.18172015E-18 -2.82217394E-16
  3.36325168E-16 -2.62652407E-16  6.50826061E-02 -7.22881074E-16 -3.71291632E-15
  3.03545465E-15 -1.89624205E-16  6.31845767E-01  0.00000000E+00  0.00000000E+00
 -7.97775907E-15  6.33486841E-19 -9.44064800E-18  4.18024259E-18 -4.04987270E-17
  9.19393283E-04 -1.59642253E-16 -1.93468554E-15  2.26665087E-15 -1.92195126E-15
  2.78823186E-01 -2.90484711E-16 -3.39072481E-15  0.00000000E+00 -7.97775907E-15
  6.14587762E-05  5.34655018E-02 -7.38469396E-02  4.73264933E-02 -8.69901354E-17
  6.31274761E-03  5.92308212E-01 -6.10536274E-01  2.53812978E-02 -2.13693789E-15
  1.41800422E-01  1.65518594E+00  0.00000000E+00  5.08390209E-01 -7.97775907E-15
  0.00000000E+00 -1.39064913E-19  3.62163527E-19  8.97404930E-20 -1.10132310E-05
  0.00000000E+00 -3.70727949E-19  6.43294802E-19  6.15740747E-19 -3.65231298E-05
 -1.10903377E-21 -8.24562864E-18  3.73974294E-18  1.21524030E-17 -8.34842095E-04
 -4.00029000E-16 -1.39064913E-19 -3.89110417E-19  1.13323369E-18 -7.13054511E-19
  6.55017803E-04 -1.98010856E-17 -1.34936015E-16  1.79957284E-16  6.63414982E-17
  4.60572764E-02 -2.66355942E-16 -5.16033325E-16  2.33083902E-16  1.48761567E-16
  2.50420899E-01 -9.93521585E-17 -4.00029000E-16 -3.62163527E-19 -1.13323369E-18
  2.76653175E-18 -1.04395961E-18  1.16410291E-03 -3.41458945E-17 -1.39828384E-16
  1.47799790E-16  8.47089258E-17  5.05450603E-02 -1.34742512E-16 -1.48258166E-16
 -2.60564866E-16  8.68926586E-17  8.12777921E-02  0.00000000E+00  0.00000000E+00
 -4.00029000E-16 -8.97404930E-20  7.13054511E-19 -1.04395961E-18 -8.97401637E-19
  9.83286847E-03 -3.07005262E-17 -1.94342927E-16  2.62122343E-16  7.88034116E-17
  6.74459011E-02 -4.12809068E-16 -7.81023376E-16  3.81634661E-16  2.58106717E-16
  3.93235531E-01  5.45641570E-17  6.36908017E-16  0.00000000E+00 -4.00029000E-16
  1.10132310E-05 -6.55017803E-04  1.16410291E-03  9.83286847E-03 -1.02672014E-18
  2.36741017E-04  3.37765636E-02 -3.60584661E-02 -9.26238990E-03 -8.65851899E-17
  4.54835762E-03  1.40055728E-01 -4.85861729E-02  4.41677016E-03 -5.37285585E-16
 -3.78533143E-02 -4.41848287E-01  0.00000000E+00  5.08390209E-01 -4.00029000E-16
  0.00000000E+00 -1.98010856E-17  3.41458945E-17  3.07005262E-17 -2.36741017E-04
  0.00000000E+00 -4.17824173E-18  3.51599902E-18  1.06334747E-17 -5.23246854E-05
  0.00000000E+00 -1.85931559E-17 -8.57190154E-18  4.24275537E-17 -2.28399074E-04
 -3.90865781E-21 -4.18489571E-16 -4.48796966E-16  5.18065970E-16 -6.00497311E-03
 -1.20061914E-14 -3.70727949E-19 -1.34936015E-16  1.39828384E-16  1.94342927E-16
 -3.37765636E-02 -4.17824173E-18 -1.16880303E-17  1.09993037E-17  2.69749887E-17
  3.11140867E-03 -1.18565305E-17 -3.57971136E-17 -1.57705248E-17  7.46787649E-17
 -1.58200304E-03 -2.34068790E-17 -1.59801528E-15 -1.01278684E-15  1.80429784E-15
 -3.64838639E-01 -2.98188640E-15 -1.20061914E-14 -6.43294802E-19 -1.79957284E-16
  1.47799790E-16  2.62122343E-16 -3.60584661E-02 -3.51599902E-18 -1.09993037E-17
 -5.30403440E-19  2.57769794E-17  1.78675087E-03  5.46791958E-18  1.94891132E-17
 -2.17680238E-17 -4.03330988E-17  2.28725616E-04  2.90445533E-17  1.28464120E-15
  1.07923193E-16 -1.68026363E-15  2.57326704E-01  0.00000000E+00  0.00000000E+00
 -1.20061914E-14 -6.15740747E-19 -6.63414982E-17  8.47089258E-17  7.88034116E-17
 -9.26238990E-03 -1.06334747E-17 -2.69749887E-17  2.57769794E-17  5.66597771E-17
  1.49539132E-02 -2.71454340E-17 -6.21930224E-17 -3.14334991E-17  1.17851179E-16
  2.15405728E-02 -3.00007782E-17 -6.10577678E-16 -6.35505192E-16  2.77667665E-16
 -1.40634207E-01  3.45053927E-16  4.02769188E-15  0.00000000E+00 -1.20061914E-14
  3.65231298E-05 -4.60572764E-02  5.05450603E-02  6.74459011E-02 -8.65851899E-17
  5.23246854E-05 -3.11140867E-03  1.78675087E-03  1.49539132E-02 -3.08415684E-17
  1.75009877E-04 -1.97153892E-02 -5.94483605E-03  5.17823611E-02 -8.56065032E-17
 -1.75924100E-03 -4.51910382E-01 -3.11324132E-01  5.01236911E-01 -1.09173798E-15
 -1.79654531E-01 -2.09704350E+00  0.00000000E+00  5.08390209E-01 -1.20061914E-14
 -1.10903377E-21 -2.66355942E-16  1.34742512E-16  4.12809068E-16 -4.54835762E-03
  0.00000000E+00 -1.18565305E-17 -5.46791958E-18  2.71454340E-17 -1.75009877E-04
  0.00000000E+00 -2.77241654E-18 -4.88584636E-18  5.60087769E-18 -4.12421510E-05
  0.00000000E+00 -1.36707800E-17 -2.98662043E-17  1.03676157E-17 -1.91889058E-04
 -9.25742882E-21 -3.10222671E-16 -5.07389688E-16 -9.29649933E-17 -5.17785728E-03
 -7.97775907E-15 -8.24562864E-18 -5.16033325E-16  1.48258166E-16  7.81023376E-16
 -1.40055728E-01 -1.85931559E-17 -3.57971136E-17 -1.94891132E-17  6.21930224E-17
  1.97153892E-02 -2.77241654E-18 -7.75797402E-18 -1.52892494E-17  1.22372060E-17
  2.45305857E-03 -1.00051664E-18 -1.87479762E-16 -2.49050467E-16  1.73594935E-16
 -4.76024572E-02 -4.47498069E-16 -3.63594756E-15 -3.85242737E-15  4.24914063E-16
 -6.15570393E-01 -1.98137531E-15 -7.97775907E-15 -3.73974294E-18 -2.33083902E-16
 -2.60564866E-16  3.81634661E-16 -4.85861729E-02  8.57190154E-18  1.57705248E-17
 -2.17680238E-17 -3.14334991E-17 -5.94483605E-03  4.88584636E-18  1.52892494E-17
  2.15588796E-17 -2.60017086E-17 -2.95012330E-03  2.18172015E-18  2.82217394E-16
  3.36325168E-16 -2.62652407E-16  6.50826061E-02  7.22881074E-16  3.71291632E-15
  3.03545465E-15 -1.89624205E-16  6.31845767E-01  0.00000000E+00  0.00000000E+00
 -7.97775907E-15 -1.21524030E-17 -1.48761567E-16  8.68926586E-17  2.58106717E-16
  4.41677016E-03 -4.24275537E-17 -7.46787649E-17 -4.03330988E-17  1.17851179E-16
  5.17823611E-02 -5.60087769E-18 -1.22372060E-17 -2.60017086E-17  1.57105587E-17
  1.29244165E-02 -6.33486841E-19  9.44064800E-18  4.18024259E-18 -4.04987270E-17
  9.19393283E-04  1.59642253E-16  1.93468554E-15  2.26665087E-15 -1.92195126E-15
  2.78823186E-01  2.90484711E-16  3.39072481E-15  0.00000000E+00 -7.97775907E-15
  8.34842095E-04 -2.50420899E-01  8.12777921E-02  3.93235531E-01 -5.37285585E-16
  2.28399074E-04  1.58200304E-03  2.28725616E-04  2.15405728E-02 -8.56065032E-17
  4.12421510E-05 -2.45305857E-03 -2.95012330E-03  1.29244165E-02 -2.04702164E-17
 -6.14587762E-05 -5.34655018E-02 -7.38469396E-02  4.73264933E-02 -8.69901354E-17
 -6.31274761E-03 -5.92308212E-01 -6.10536274E-01  2.53812978E-02 -2.13693789E-15
 -1.41800422E-01 -1.65518594E+00  0.00000000E+00  5.08390209E-01 -7.97775907E-15
 -3.70163163E-18 -1.10010554E-15  3.85209463E-16 -1.65702508E-15  1.42230942E-01
 -8.06993401E-16 -1.17602515E-14 -3.52105808E-15 -1.27482911E-14  1.15227879E+00
 -4.58783803E-17 -1.89733591E-15 -1.94007890E-15 -1.89545219E-15  2.02951727E-01
 -1.45302389E-20 -3.72806288E-17 -3.94307107E-17 -6.22577357E-17  6.88123225E-03
 -1.18313588E-19 -1.64491208E-18 -1.25669761E-18 -4.69403273E-18  4.84555312E-04
 -5.76672108E-19 -1.20039237E-17  9.59435492E-19 -2.91646027E-17  2.89903176E-03
 -3.83949477E-14 -5.82577432E-20 -4.29678877E-17  6.24850066E-17 -4.84031988E-17
  8.01795401E-03 -6.56073501E-17 -1.70550969E-15  2.12845578E-15 -9.48477345E-16
  1.99718129E-01 -5.36183894E-16 -7.81348361E-15  4.89440494E-15 -7.38681936E-15
  9.09426298E-01 -1.01821889E-18 -4.85010165E-16  8.81357625E-17 -8.20576078E-16
  7.27286668E-02 -9.18903355E-19 -4.30075666E-18  4.38730797E-18 -1.17966442E-17
 -3.05964390E-04 -7.84893969E-20 -1.09133932E-18  1.74559715E-18 -2.75320907E-18
  3.81991938E-04 -1.58403397E-15 -2.55093537E-14 -1.45302389E-20 -3.72806288E-17
  3.94307107E-17  6.22577357E-17 -6.88123225E-03 -1.18313588E-19 -1.64491208E-18
  1.25669761E-18  4.69403273E-18 -4.84555312E-04 -5.76672108E-19 -1.20039237E-17
 -9.59435492E-19  2.91646027E-17 -2.89903176E-03 -3.70163163E-18 -1.10010554E-15
 -3.85209463E-16  1.65702508E-15 -1.42230942E-01 -8.06993401E-16 -1.17602515E-14
  3.52105808E-15  1.27482911E-14 -1.15227879E+00 -4.58783803E-17 -1.89733591E-15
  1.94007890E-15  1.89545219E-15 -2.02951727E-01 -3.38316183E-20 -7.87675570E-19
 -3.83949477E-14 -1.01821889E-18 -4.85010165E-16 -8.81357625E-17  8.20576078E-16
 -7.27286668E-02 -9.18903355E-19 -4.30075666E-18 -4.38730797E-18  1.17966442E-17
  3.05964390E-04 -7.84893969E-20 -1.09133932E-18 -1.74559715E-18  2.75320907E-18
 -3.81991938E-04 -5.82577432E-20 -4.29678877E-17 -6.24850066E-17  4.84031988E-17
 -8.01795401E-03 -6.56073501E-17 -1.70550969E-15 -2.12845578E-15  9.48477345E-16
 -1.99718129E-01 -5.36183894E-16 -7.81348361E-15 -4.89440494E-15  7.38681936E-15
 -9.09426298E-01 -7.87675570E-19 -2.24366398E-20 -1.58403397E-15 -2.55093537E-14
  0.00000000E+00 -1.62509359E-22  6.54197689E-22  1.42738389E-22 -6.43360429E-09
  0.00000000E+00 -2.83489276E-21  8.95394176E-21  5.32361255E-21 -1.23524789E-07
  0.00000000E+00 -1.48536058E-18  2.76608751E-18  2.39390433E-18 -5.93133953E-05
 -6.11197315E-23 -4.47485044E-17  7.27557696E-17  1.73863227E-17 -1.75918854E-03
  0.00000000E+00 -2.34754852E-18  5.43392195E-18 -1.53158071E-18 -7.48172780E-05
  0.00000000E+00 -4.63871087E-21  1.67163717E-20 -1.77618618E-21 -1.57368177E-07
 -2.27454510E-22 -1.24680685E-18 -2.31084205E-18 -4.45014269E-22 -1.77261576E-15
 -3.06206413E-23 -3.72540806E-20  8.12977335E-20  8.82978696E-20 -4.97360046E-05
 -2.45178039E-20 -1.80167409E-18  3.39887520E-18  4.11708999E-19  6.79174712E-04
 -7.92836015E-18 -3.36653643E-17  5.56859435E-17  1.64682090E-18  1.73889030E-02
 -1.18300115E-17 -2.90397926E-16  3.03372101E-16  3.02039330E-16 -1.66565157E-01
 -1.29657894E-17 -2.71065582E-16  4.12485697E-16 -2.31967882E-17 -5.66968299E-02
 -1.77675819E-20 -6.64729400E-18  1.32436252E-17  1.03779308E-18 -1.43342752E-03
 -5.75282800E-19 -9.20279535E-17 -3.90500052E-16 -1.36439178E-18 -4.40251087E-16
 -1.77261576E-15 -1.23448992E-22 -8.51340998E-20  1.79850576E-19  1.92714724E-19
 -1.06422334E-04 -7.72649223E-20 -3.12810068E-18  5.59013956E-18  9.00457526E-19
  1.18521119E-03 -1.47404304E-17 -4.01600581E-17  5.66420939E-17  1.00802864E-17
  2.05053202E-02 -1.98675218E-17 -3.41723284E-16  2.89944837E-16  3.54080906E-16
 -1.81724293E-01 -3.00562861E-17 -3.80556619E-16  5.24391243E-16 -4.59860368E-17
 -8.15997718E-02 -6.41035166E-20 -1.30557389E-17  2.45435909E-17  1.98633251E-18
 -2.83393798E-03 -9.22872811E-19 -6.66430281E-17 -4.35742965E-16 -2.70694622E-18
  0.00000000E+00  0.00000000E+00 -1.77261576E-15 -2.91496261E-23  5.82905825E-20
 -1.24969668E-19 -6.82304823E-21  8.19809106E-05 -4.50854708E-20 -3.22004454E-18
  6.00839471E-18  1.26677756E-18  1.22504786E-03 -1.25592873E-17 -6.28828528E-17
  9.53843653E-17  1.75053298E-17  3.42494951E-02 -2.70456146E-18  1.98769187E-16
 -1.98327939E-16 -1.48338456E-16  8.21684721E-02  9.38309132E-18  2.07821133E-16
 -3.24602006E-16 -5.74999380E-17  4.17806166E-02  8.24737609E-21  4.15551795E-18
 -8.31092228E-18 -1.84299947E-18  8.83449454E-04 -1.03830126E-18 -1.75294686E-16
  4.67758147E-16  1.19782028E-18  1.14868175E-16  1.34081539E-15  0.00000000E+00
 -1.77261576E-15  2.75054484E-09 -5.24736297E-05  1.13908539E-04  1.26930735E-04
 -1.48342551E-20  3.13003539E-07  6.08281415E-04 -1.03333301E-03 -5.21347169E-05
 -7.99415267E-19  1.13916163E-04  8.86457755E-03 -9.67038689E-03  9.02140678E-03
 -3.48704477E-17 -9.36943396E-04 -1.86262191E-01  2.01466840E-01  1.60381568E-01
 -1.67138894E-16 -1.52959251E-04 -5.28510767E-02  7.55007400E-02 -5.73773494E-03
 -1.15669704E-16 -2.61792069E-07 -1.41646412E-03  2.79230256E-03  2.06213650E-04
 -2.23073166E-18  1.36249499E-04  1.58187361E-02 -5.37035735E-02 -2.31761447E-04
 -7.96773295E-02 -9.30045156E-01  0.00000000E+00  5.08390209E-01 -1.77261576E-15
  0.00000000E+00 -3.64165071E-25  1.78059819E-24 -6.20104225E-26  1.10345514E-11
  0.00000000E+00 -1.62926504E-22  6.54334579E-22  1.35512273E-22  4.39328866E-09
  0.00000000E+00 -3.36436872E-19  9.18824932E-19  1.92216372E-19  8.72291691E-06
  0.00000000E+00 -1.56443820E-18  3.62947969E-18 -1.09237365E-18  4.31555204E-05
  0.00000000E+00 -3.29244848E-21  1.05359405E-20 -5.63456653E-21  1.02690501E-07
  0.00000000E+00 -1.58645159E-24  7.11428687E-24 -2.29031363E-24  5.25086172E-11
 -7.29163691E-23 -2.65782261E-18 -4.68657191E-21 -1.27484206E-25  1.54951459E-22
 -5.06092903E-17  5.40812929E-17 -6.12076467E-17  1.69429732E-03 -1.43858870E-15
 -1.17481187E-25 -1.06005900E-20  2.74152587E-20 -1.08310361E-20  4.41500906E-06
 -1.05604536E-21 -1.50683517E-18  3.26323535E-18  1.70673256E-19  2.62648993E-04
 -1.55501583E-18 -7.22354231E-17  1.20440390E-16 -6.30021084E-18  1.52438012E-02
 -3.74300238E-19 -4.57640378E-18  7.25422021E-18 -1.91618681E-17  7.55329998E-04
 -3.66094489E-20 -2.45045001E-18  4.69904653E-18 -7.12279063E-19 -1.08422940E-03
 -1.10441475E-23 -2.01312089E-20  4.85868128E-20  4.13239988E-21 -1.22561293E-05
 -6.50279532E-19 -3.54098798E-16 -4.50694980E-18 -4.55231716E-21 -6.39638441E-17
 -2.76277964E-17  4.61030513E-17 -2.98115417E-17 -1.07640607E-01 -3.57291327E-16
 -1.43858870E-15 -5.73973331E-25 -2.74441949E-20  6.78359935E-20 -2.80211721E-20
  1.14225323E-05 -4.24806542E-21 -3.23659408E-18  6.61884740E-18  3.83353965E-19
  5.66607608E-04 -4.25316637E-18 -1.14640015E-16  1.77608506E-16 -7.73107614E-18
  2.46555858E-02 -8.69591262E-19 -1.07743243E-17  1.61763489E-17 -2.92151618E-17
  8.19933461E-04 -1.16833692E-19 -4.30842163E-18  7.85969130E-18 -1.46290925E-18
 -1.91765714E-03 -4.94444628E-23 -4.78811267E-20  1.10458952E-19  9.42001436E-21
 -2.91204836E-05 -1.29792505E-18 -4.15375217E-16 -6.17898910E-18 -1.07028318E-20
 -6.89299568E-17 -3.70519224E-17  6.26441580E-18 -4.93078654E-17 -7.27053595E-02
  0.00000000E+00  0.00000000E+00 -1.43858870E-15 -4.22713360E-27 -9.95300065E-21
  2.57565165E-20 -3.32317382E-21  4.13069329E-06 -9.86983407E-22 -1.29575632E-18
  2.82005338E-18 -1.24438568E-19  2.25038209E-04 -1.05249954E-18 -6.06087220E-17
  1.02191713E-16 -1.63168294E-17  1.22071328E-02  2.71313651E-19 -2.29521978E-17
  3.27258971E-17 -5.11340435E-18  1.79095347E-02  5.95433795E-20  3.62357544E-18
 -6.90746237E-18  1.12058723E-18  1.63526272E-03  1.50891580E-23  3.25007194E-20
 -7.79604386E-20  3.58089185E-21  1.98888627E-05 -7.57158183E-19 -4.07956877E-16
  7.45460405E-18  7.08258410E-21  7.48789116E-17 -1.27894516E-16  5.63775361E-17
 -1.08389369E-16  2.40939989E-01 -1.50587840E-16 -1.75775834E-15  0.00000000E+00
 -1.43858870E-15  8.73008402E-12  4.41725900E-06 -1.14300135E-05  4.50429771E-06
 -3.34219754E-21  1.33592317E-08  2.59907987E-04 -5.59113017E-04 -2.96444879E-05
 -4.88072518E-19  2.19043025E-05  1.43443490E-02 -2.29761100E-02  9.27509127E-04
 -2.78022350E-17 -3.20366391E-05  4.38682509E-03 -6.57996048E-03  1.98614403E-02
 -6.43808565E-18 -4.69019840E-07 -9.98319874E-04  1.73123792E-03 -1.96507939E-04
 -1.08168932E-18 -1.78726063E-10 -1.20982551E-05  2.86402713E-05  2.68501322E-06
 -6.79141670E-21  9.02986516E-05  5.12494176E-02 -1.15256233E-03 -1.59194573E-06
 -3.03725553E-03 -1.84684849E-02  1.70996199E-02  1.48697431E-01 -1.63523182E-16
  4.93249468E-02  5.75752577E-01  0.00000000E+00  5.08390209E-01 -1.43858870E-15
 -1.54855842E-23 -1.75725465E-19  3.43101592E-19  2.60278962E-19 -6.07196528E-05
 -2.88903161E-21 -2.28545654E-20  6.79442678E-20 -2.37302030E-21  1.59394441E-05
 -4.60798307E-19 -2.17685149E-18  4.05181793E-18  4.29266661E-18 -3.60804879E-04
 -2.56373407E-18 -4.68340695E-16  4.89879137E-16  5.43044848E-16 -9.38885625E-02
 -1.39956075E-17 -4.71774227E-16  6.79509595E-16  2.06243516E-16 -6.58756161E-02
 -3.87783825E-20 -1.19383653E-17  2.19065958E-17  6.68066106E-18 -1.77729220E-03
 -1.64586503E-20 -3.06887557E-18 -1.49358953E-15 -4.38478291E-18 -1.40781359E-16
 -3.97700154E-15  8.42817218E-16  4.74902199E-15 -6.74485973E-01 -5.87071343E-18
 -2.54236441E-16 -1.16443689E-16  4.11329638E-16 -5.89334820E-02 -1.72295379E-14
 -4.79008774E-27 -2.16743803E-22  5.83971991E-22 -3.38797844E-22  1.35968132E-07
 -2.95371035E-23 -6.16936323E-20  1.43092018E-19  4.47928456E-21  1.24318727E-05
 -4.31520146E-20 -4.30155475E-18  7.91743140E-18 -6.36896978E-19  1.03569633E-03
 -1.89525727E-20  1.22215403E-19 -9.72829333E-20 -5.18163815E-19 -6.83356959E-04
 -2.72843968E-21 -4.92997732E-19  9.96081756E-19 -6.82638057E-20 -1.62263261E-04
 -8.27182445E-25 -3.09021853E-21  7.79514081E-21  4.87864175E-22 -1.26588964E-06
 -3.33775257E-20 -3.55765187E-17 -1.50605863E-18 -7.08424434E-22 -9.13065584E-18
 -1.77730758E-17  2.98500960E-17  1.76359411E-17 -4.17597222E-02 -8.30306032E-17
 -4.10840605E-16  3.91835985E-16 -5.69111056E-16  1.81573861E-01 -1.77742433E-16
 -4.07729598E-16 -1.69298585E-23 -2.17649636E-19  4.65018535E-19 -2.09849564E-19
  4.90181162E-05 -9.08104926E-20 -1.88849438E-17  3.45288128E-17 -6.05369872E-18
  2.49063890E-03 -1.09193582E-17 -4.15417181E-16  5.89978457E-16 -2.14451980E-16
  5.97752679E-02 -1.99730923E-19 -6.95685323E-17  8.55864560E-17 -1.06006297E-16
  1.53092781E-02 -3.55933108E-20 -1.92922662E-19  5.16214592E-19 -2.73131864E-19
 -2.00583810E-04 -1.30447738E-22 -1.71648988E-21  5.86041525E-21 -9.77258076E-21
  6.56847184E-07 -1.43152868E-17 -2.68405900E-15 -3.91149176E-19 -5.62592970E-22
 -7.53281726E-18 -2.24761950E-16  1.04774931E-16 -4.12951133E-16  2.79694970E-02
 -1.17883242E-16 -3.65052497E-15 -7.73280919E-16 -4.62299556E-15  5.26636707E-01
 -2.04674834E-17 -9.25635904E-16 -1.62511233E-14 -6.11197315E-23 -4.47485044E-17
 -7.27557696E-17 -1.73863227E-17  1.75918854E-03  0.00000000E+00 -2.34754852E-18
 -5.43392195E-18  1.53158071E-18  7.48172780E-05  0.00000000E+00 -4.63871087E-21
 -1.67163717E-20  1.77618618E-21  1.57368177E-07  0.00000000E+00 -1.62509359E-22
 -6.54197689E-22 -1.42738389E-22  6.43360429E-09  0.00000000E+00 -2.83489276E-21
 -8.95394176E-21 -5.32361255E-21  1.23524789E-07  0.00000000E+00 -1.48536058E-18
 -2.76608751E-18 -2.39390433E-18  5.93133953E-05 -2.31084205E-18 -4.45014269E-22
 -2.27454510E-22 -1.24680685E-18  0.00000000E+00  0.00000000E+00  0.00000000E+00
  0.00000000E+00  0.00000000E+00  0.00000000E+00  0.00000000E+00  0.00000000E+00
  0.00000000E+00  0.00000000E+00 -4.52766787E-27  0.00000000E+00 -4.19942625E-27
 -1.77261576E-15 -1.18300115E-17 -2.90397926E-16 -3.03372101E-16 -3.02039330E-16
  1.66565157E-01 -1.29657894E-17 -2.71065582E-16 -4.12485697E-16  2.31967882E-17
  5.66968299E-02 -1.77675819E-20 -6.64729400E-18 -1.32436252E-17 -1.03779308E-18
  1.43342752E-03 -3.06206413E-23 -3.72540806E-20 -8.12977335E-20 -8.82978696E-20
  4.97360046E-05 -2.45178039E-20 -1.80167409E-18 -3.39887520E-18 -4.11708999E-19
 -6.79174712E-04 -7.92836015E-18 -3.36653643E-17 -5.56859435E-17 -1.64682090E-18
 -1.73889030E-02 -3.90500052E-16 -1.36439178E-18 -5.75282800E-19 -9.20279535E-17
  0.00000000E+00 -2.22820027E-25 -1.22979443E-24 -3.44730010E-26 -1.50138761E-10
  0.00000000E+00 -1.64934050E-23 -5.49283783E-23 -1.27478912E-23  5.30135660E-09
 -2.54373056E-22 -3.78498380E-25 -1.06923601E-21 -4.40251087E-16 -1.77261576E-15
  1.98675218E-17  3.41723284E-16  2.89944837E-16  3.54080906E-16 -1.81724293E-01
  3.00562861E-17  3.80556619E-16  5.24391243E-16 -4.59860368E-17 -8.15997718E-02
  6.41035166E-20  1.30557389E-17  2.45435909E-17  1.98633251E-18 -2.83393798E-03
  1.23448992E-22  8.51340998E-20  1.79850576E-19  1.92714724E-19 -1.06422334E-04
  7.72649223E-20  3.12810068E-18  5.59013956E-18  9.00457526E-19  1.18521119E-03
  1.47404304E-17  4.01600581E-17  5.66420939E-17  1.00802864E-17  2.05053202E-02
  4.35742965E-16  2.70694622E-18  9.22872811E-19  6.66430281E-17  0.00000000E+00
  1.22979443E-24  6.30895706E-24  5.20198246E-25  5.55177176E-10  0.00000000E+00
  5.49283783E-23  1.77759781E-22  4.24546050E-23 -1.76552338E-08  6.57310911E-22
  1.26373933E-24  2.96243470E-21  0.00000000E+00  0.00000000E+00 -1.77261576E-15
  2.70456146E-18 -1.98769187E-16 -1.98327939E-16 -1.48338456E-16  8.21684721E-02
 -9.38309132E-18 -2.07821133E-16 -3.24602006E-16 -5.74999380E-17  4.17806166E-02
 -8.24737609E-21 -4.15551795E-18 -8.31092228E-18 -1.84299947E-18  8.83449454E-04
  2.91496261E-23 -5.82905825E-20 -1.24969668E-19 -6.82304823E-21  8.19809106E-05
  4.50854708E-20  3.22004454E-18  6.00839471E-18  1.26677756E-18  1.22504786E-03
  1.25592873E-17  6.28828528E-17  9.53843653E-17  1.75053298E-17  3.42494951E-02
 -4.67758147E-16 -1.19782028E-18  1.03830126E-18  1.75294686E-16  0.00000000E+00
  3.44730010E-26  5.20198246E-25 -2.20474410E-25  1.98721393E-07  0.00000000E+00
 -9.06997174E-24 -3.02059423E-23 -4.96446401E-24  2.91529582E-09  4.83660234E-22
 -2.69464676E-25 -7.91471040E-22 -1.14868175E-16 -1.34081539E-15  0.00000000E+00
 -1.77261576E-15  9.36943396E-04  1.86262191E-01  2.01466840E-01  1.60381568E-01
 -1.67138894E-16  1.52959251E-04  5.28510767E-02  7.55007400E-02 -5.73773494E-03
 -1.15669704E-16  2.61792069E-07  1.41646412E-03  2.79230256E-03  2.06213650E-04
 -2.23073166E-18 -2.75054484E-09  5.24736297E-05  1.13908539E-04  1.26930735E-04
 -1.48342551E-20 -3.13003539E-07 -6.08281415E-04 -1.03333301E-03 -5.21347169E-05
 -7.99415267E-19 -1.13916163E-04 -8.86457755E-03 -9.67038689E-03  9.02140678E-03
 -3.48704477E-17  5.37035735E-02  2.31761447E-04 -1.36249499E-04 -1.58187361E-02
  0.00000000E+00  1.50138761E-10  5.55177176E-10  1.98721393E-07 -4.89920849E-25
  0.00000000E+00  5.30135660E-09  1.76552338E-08  4.09746305E-09 -5.16950190E-24
 -1.16857964E-07  1.64211598E-10  2.06488498E-07  7.96773295E-02  9.30045156E-01
  0.00000000E+00  5.08390209E-01 -1.77261576E-15  0.00000000E+00 -1.56443820E-18
 -3.62947969E-18  1.09237365E-18 -4.31555204E-05  0.00000000E+00 -3.29244848E-21
 -1.05359405E-20  5.63456653E-21 -1.02690501E-07  0.00000000E+00 -1.58645159E-24
 -7.11428687E-24  2.29031363E-24 -5.25086172E-11  0.00000000E+00 -3.64165071E-25
 -1.78059819E-24  6.20104225E-26 -1.10345514E-11  0.00000000E+00 -1.62926504E-22
 -6.54334579E-22 -1.35512273E-22 -4.39328866E-09  0.00000000E+00 -3.36436872E-19
 -9.18824932E-19 -1.92216372E-19 -8.72291691E-06 -4.68657191E-21 -1.27484206E-25
 -7.29163691E-23 -2.65782261E-18  0.00000000E+00  0.00000000E+00  0.00000000E+00
  0.00000000E+00  0.00000000E+00  0.00000000E+00  0.00000000E+00  0.00000000E+00
  0.00000000E+00  0.00000000E+00  0.00000000E+00  0.00000000E+00  0.00000000E+00
  1.54951459E-22 -5.06092903E-17 -5.40812929E-17  6.12076467E-17 -1.69429732E-03
 -1.43858870E-15 -3.74300238E-19 -4.57640378E-18 -7.25422021E-18  1.91618681E-17
 -7.55329998E-04 -3.66094489E-20 -2.45045001E-18 -4.69904653E-18  7.12279063E-19
  1.08422940E-03 -1.10441475E-23 -2.01312089E-20 -4.85868128E-20 -4.13239988E-21
  1.22561293E-05 -1.17481187E-25 -1.06005900E-20 -2.74152587E-20  1.08310361E-20
 -4.41500906E-06 -1.05604536E-21 -1.50683517E-18 -3.26323535E-18 -1.70673256E-19
 -2.62648993E-04 -1.55501583E-18 -7.22354231E-17 -1.20440390E-16  6.30021084E-18
 -1.52438012E-02 -4.50694980E-18 -4.55231716E-21 -6.50279532E-19 -3.54098798E-16
  0.00000000E+00 -1.64934050E-23 -5.49283783E-23  9.06997174E-24 -5.30135660E-09
  0.00000000E+00  0.00000000E+00  0.00000000E+00  0.00000000E+00  0.00000000E+00
 -7.85436250E-23  0.00000000E+00 -9.91820812E-25 -6.39638441E-17 -2.76277964E-17
 -4.61030513E-17  2.98115417E-17  1.07640607E-01 -3.57291327E-16 -1.43858870E-15
  8.69591262E-19  1.07743243E-17  1.61763489E-17 -2.92151618E-17  8.19933461E-04
  1.16833692E-19  4.30842163E-18  7.85969130E-18 -1.46290925E-18 -1.91765714E-03
  4.94444628E-23  4.78811267E-20  1.10458952E-19  9.42001436E-21 -2.91204836E-05
  5.73973331E-25  2.74441949E-20  6.78359935E-20 -2.80211721E-20  1.14225323E-05
  4.24806542E-21  3.23659408E-18  6.61884740E-18  3.83353965E-19  5.66607608E-04
  4.25316637E-18  1.14640015E-16  1.77608506E-16 -7.73107614E-18  2.46555858E-02
  6.17898910E-18  1.07028318E-20  1.29792505E-18  4.15375217E-16  0.00000000E+00
  5.49283783E-23  1.77759781E-22 -3.02059423E-23  1.76552338E-08  0.00000000E+00
  0.00000000E+00  0.00000000E+00  0.00000000E+00  0.00000000E+00  2.34284666E-22
  0.00000000E+00  3.14100146E-24  6.89299568E-17  3.70519224E-17  6.26441580E-18
 -4.93078654E-17 -7.27053595E-02  0.00000000E+00  0.00000000E+00 -1.43858870E-15
 -2.71313651E-19  2.29521978E-17  3.27258971E-17 -5.11340435E-18  1.79095347E-02
 -5.95433795E-20 -3.62357544E-18 -6.90746237E-18  1.12058723E-18  1.63526272E-03
 -1.50891580E-23 -3.25007194E-20 -7.79604386E-20  3.58089185E-21  1.98888627E-05
  4.22713360E-27  9.95300065E-21  2.57565165E-20 -3.32317382E-21  4.13069329E-06
  9.86983407E-22  1.29575632E-18  2.82005338E-18 -1.24438568E-19  2.25038209E-04
  1.05249954E-18  6.06087220E-17  1.02191713E-16 -1.63168294E-17  1.22071328E-02
 -7.45460405E-18 -7.08258410E-21  7.57158183E-19  4.07956877E-16  0.00000000E+00
  1.27478912E-23  4.24546050E-23 -4.96446401E-24  4.09746305E-09  0.00000000E+00
  0.00000000E+00  0.00000000E+00  0.00000000E+00  0.00000000E+00  7.42084438E-23
  0.00000000E+00 -1.62645977E-24 -7.48789116E-17  1.27894516E-16  5.63775361E-17
 -1.08389369E-16  2.40939989E-01  1.50587840E-16  1.75775834E-15  0.00000000E+00
 -1.43858870E-15  3.20366391E-05 -4.38682509E-03 -6.57996048E-03  1.98614403E-02
 -6.43808565E-18  4.69019840E-07  9.98319874E-04  1.73123792E-03 -1.96507939E-04
 -1.08168932E-18  1.78726063E-10  1.20982551E-05  2.86402713E-05  2.68501322E-06
 -6.79141670E-21 -8.73008402E-12 -4.41725900E-06 -1.14300135E-05  4.50429771E-06
 -3.34219754E-21 -1.33592317E-08 -2.59907987E-04 -5.59113017E-04 -2.96444879E-05
 -4.88072518E-19 -2.19043025E-05 -1.43443490E-02 -2.29761100E-02  9.27509127E-04
 -2.78022350E-17  1.15256233E-03  1.59194573E-06 -9.02986516E-05 -5.12494176E-02
  0.00000000E+00 -5.30135660E-09 -1.76552338E-08  2.91529582E-09 -5.16950190E-24
  0.00000000E+00  0.00000000E+00  0.00000000E+00  0.00000000E+00  0.00000000E+00
 -1.48654411E-08  0.00000000E+00  4.78276593E-10  3.03725553E-03  1.84684849E-02
  1.70996199E-02  1.48697431E-01 -1.63523182E-16 -4.93249468E-02 -5.75752577E-01
  0.00000000E+00  5.08390209E-01 -1.43858870E-15 -2.56373407E-18 -4.68340695E-16
 -4.89879137E-16 -5.43044848E-16  9.38885625E-02 -1.39956075E-17 -4.71774227E-16
 -6.79509595E-16 -2.06243516E-16  6.58756161E-02 -3.87783825E-20 -1.19383653E-17
 -2.19065958E-17 -6.68066106E-18  1.77729220E-03 -1.54855842E-23 -1.75725465E-19
 -3.43101592E-19 -2.60278962E-19  6.07196528E-05 -2.88903161E-21 -2.28545654E-20
 -6.79442678E-20  2.37302030E-21 -1.59394441E-05 -4.60798307E-19 -2.17685149E-18
 -4.05181793E-18 -4.29266661E-18  3.60804879E-04 -1.49358953E-15 -4.38478291E-18
 -1.64586503E-20 -3.06887557E-18 -4.52766787E-27 -2.54373056E-22 -6.57310911E-22
 -4.83660234E-22  1.16857964E-07  0.00000000E+00 -7.85436250E-23 -2.34284666E-22
 -7.42084438E-23  1.48654411E-08 -9.86789967E-26 -2.45298422E-24 -4.76437214E-21
 -1.40781359E-16 -3.97700154E-15 -8.42817218E-16 -4.74902199E-15  6.74485973E-01
 -5.87071343E-18 -2.54236441E-16  1.16443689E-16 -4.11329638E-16  5.89334820E-02
 -1.72295379E-14 -1.89525727E-20  1.22215403E-19  9.72829333E-20  5.18163815E-19
  6.83356959E-04 -2.72843968E-21 -4.92997732E-19 -9.96081756E-19  6.82638057E-20
  1.62263261E-04 -8.27182445E-25 -3.09021853E-21 -7.79514081E-21 -4.87864175E-22
  1.26588964E-06 -4.79008774E-27 -2.16743803E-22 -5.83971991E-22  3.38797844E-22
 -1.35968132E-07 -2.95371035E-23 -6.16936323E-20 -1.43092018E-19 -4.47928456E-21
 -1.24318727E-05 -4.31520146E-20 -4.30155475E-18 -7.91743140E-18  6.36896978E-19
 -1.03569633E-03 -1.50605863E-18 -7.08424434E-22 -3.33775257E-20 -3.55765187E-17
  0.00000000E+00 -3.78498380E-25 -1.26373933E-24  2.69464676E-25 -1.64211598E-10
  0.00000000E+00  0.00000000E+00  0.00000000E+00  0.00000000E+00  0.00000000E+00
 -2.45298422E-24  0.00000000E+00 -1.26994717E-25 -9.13065584E-18 -1.77730758E-17
 -2.98500960E-17 -1.76359411E-17  4.17597222E-02 -8.30306032E-17 -4.10840605E-16
 -3.91835985E-16  5.69111056E-16 -1.81573861E-01 -1.77742433E-16 -4.07729598E-16
 -1.99730923E-19 -6.95685323E-17 -8.55864560E-17  1.06006297E-16 -1.53092781E-02
 -3.55933108E-20 -1.92922662E-19 -5.16214592E-19  2.73131864E-19  2.00583810E-04
 -1.30447738E-22 -1.71648988E-21 -5.86041525E-21  9.77258076E-21 -6.56847184E-07
 -1.69298585E-23 -2.17649636E-19 -4.65018535E-19  2.09849564E-19 -4.90181162E-05
 -9.08104926E-20 -1.88849438E-17 -3.45288128E-17  6.05369872E-18 -2.49063890E-03
 -1.09193582E-17 -4.15417181E-16 -5.89978457E-16  2.14451980E-16 -5.97752679E-02
 -3.91149176E-19 -5.62592970E-22 -1.43152868E-17 -2.68405900E-15 -4.19942625E-27
 -1.06923601E-21 -2.96243470E-21  7.91471040E-22 -2.06488498E-07  0.00000000E+00
 -9.91820812E-25 -3.14100146E-24  1.62645977E-24 -4.78276593E-10 -4.76437214E-21
 -1.26994717E-25  0.00000000E+00 -7.53281726E-18 -2.24761950E-16 -1.04774931E-16
  4.12951133E-16 -2.79694970E-02 -1.17883242E-16 -3.65052497E-15  7.73280919E-16
  4.62299556E-15 -5.26636707E-01 -2.04674834E-17 -9.25635904E-16 -1.62511233E-14
Multipole Matrix (0,0,2)                   R   N=        1830
  3.10650896E-02  2.63532865E-02  8.41350389E-01  0.00000000E+00  0.00000000E+00
  5.08390209E-01  0.00000000E+00  0.00000000E+00  0.00000000E+00  5.08390209E-01
 -1.09128314E-16 -1.27381603E-15  0.00000000E+00  0.00000000E+00  1.52517063E+00
  6.56893082E-08  3.82669024E-03 -4.12288351E-03  4.65375179E-03 -3.24960854E-17
  3.10650896E-02  3.82669024E-03  3.34770192E-01 -1.97294320E-01  2.22698215E-01
 -1.77841925E-15  2.63532865E-02  8.41350389E-01  4.12288351E-03  1.97294320E-01
  9.52796011E-03  1.58363290E-01 -1.25855925E-15  0.00000000E+00  0.00000000E+00
  5.08390209E-01 -4.65375179E-03 -2.22698215E-01  1.58363290E-01 -2.89281251E-02
  1.42061312E-15  0.00000000E+00  0.00000000E+00  0.00000000E+00  5.08390209E-01
  3.96635252E-18 -1.22273851E-15  8.30957629E-16 -9.37952903E-16  4.49478737E-01
 -6.90107853E-16 -8.05538376E-15  0.00000000E+00  0.00000000E+00  1.52517063E+00
  0.00000000E+00  1.91607772E-04 -4.14654078E-04  1.38508286E-04 -1.09697684E-18
  6.62090453E-08  3.83073410E-03 -6.09815801E-03 -1.24400436E-03 -1.92883844E-17
  3.10650896E-02  1.91607772E-04  6.17353317E-02 -7.87564657E-02  2.63072852E-02
 -2.40515124E-16  3.83073410E-03  3.34960153E-01 -2.91612506E-01 -5.94880010E-02
 -2.33583748E-15  2.63532865E-02  8.41350389E-01  4.14654078E-04  7.87564657E-02
 -8.45455362E-02  3.58099404E-02 -3.28215932E-16  6.09815801E-03  2.91612506E-01
 -1.56428562E-01 -6.24958848E-02 -2.39690216E-15  0.00000000E+00  0.00000000E+00
  5.08390209E-01 -1.38508286E-04 -2.63072852E-02  3.58099404E-02  1.06974395E-02
  1.09635063E-16  1.24400436E-03  5.94880010E-02 -6.24958848E-02  1.37179751E-01
 -4.88960230E-16  0.00000000E+00  0.00000000E+00  0.00000000E+00  5.08390209E-01
  1.23800488E-19 -1.47713762E-16  2.05449368E-16 -6.86269384E-17  6.79774605E-02
 -2.61470542E-17 -2.44028133E-15  2.51564800E-15  5.13183995E-16  4.49786125E-01
 -5.80969421E-16 -6.78144962E-15  0.00000000E+00  0.00000000E+00  1.52517063E+00
  0.00000000E+00  4.45043950E-05 -1.14690104E-04 -2.33917038E-05  6.54686116E-20
  0.00000000E+00  1.91846304E-04 -3.27622250E-04 -2.90188448E-04  6.25047500E-19
  6.59921410E-08  3.82904972E-03 -1.97080071E-03 -5.90066913E-03  1.32438959E-17
  3.10650896E-02  4.45043950E-05  2.74072409E-02 -4.03539906E-02 -8.23042759E-03
  9.97548992E-18  1.91846304E-04  6.17784499E-02 -6.21941588E-02 -5.50879142E-02
 -8.48973544E-17  3.82904972E-03  3.34881044E-01 -9.42708966E-02 -2.82251455E-01
 -5.56103569E-16  2.63532865E-02  8.41350389E-01  1.14690104E-04  4.03539906E-02
 -5.26623519E-02 -1.26978340E-02  1.49474367E-17  3.27622250E-04  6.21941588E-02
 -4.41346133E-02 -5.91769596E-02 -9.53056748E-17  1.97080071E-03  9.42708966E-02
  1.17863369E-01 -9.58773541E-02 -1.73385404E-16  0.00000000E+00  0.00000000E+00
  5.08390209E-01  2.33917038E-05  8.23042759E-03 -1.26978340E-02  7.00564701E-03
  3.04861536E-18  2.90188448E-04  5.50879142E-02 -5.91769596E-02 -2.97393866E-02
 -8.44161403E-17  5.90066913E-03  2.82251455E-01 -9.58773541E-02 -1.37175229E-01
 -5.19123974E-16  0.00000000E+00  0.00000000E+00  0.00000000E+00  5.08390209E-01
 -6.54686116E-20 -9.97548992E-18  1.49474367E-17  3.04861536E-18  2.87863290E-02
 -1.44536836E-18 -2.42193123E-16  2.59521160E-16  2.29868523E-16  6.80282119E-02
 -3.01004426E-17 -1.21636446E-15  4.16098600E-16  1.24581859E-15  4.49658105E-01
  1.09128314E-16  1.27381603E-15  0.00000000E+00  0.00000000E+00  1.52517063E+00
  0.00000000E+00  1.91846304E-04 -3.27622250E-04 -2.90188448E-04  1.44536836E-18
  0.00000000E+00  4.45512879E-05 -3.70980651E-05 -1.11135718E-04  4.14448173E-19
  0.00000000E+00  1.91633907E-04  8.74522903E-05 -4.28393494E-04  1.72149495E-18
  6.56893082E-08  3.82669024E-03  4.12288351E-03 -4.65375179E-03  3.24960854E-17
  3.10650896E-02  1.91846304E-04  6.17784499E-02 -6.21941588E-02 -5.50879142E-02
  2.42193123E-16  4.45512879E-05  2.74231714E-02 -1.30471375E-02 -3.90856769E-02
  6.31181339E-17  1.91633907E-04  6.17400570E-02  1.66091307E-02 -8.13614315E-02
  1.55707819E-16  3.82669024E-03  3.34770192E-01  1.97294320E-01 -2.22698215E-01
  1.77841925E-15  2.63532865E-02  8.41350389E-01  3.27622250E-04  6.21941588E-02
 -4.41346133E-02 -5.91769596E-02  2.59521160E-16  3.70980651E-05  1.30471375E-02
  3.09695008E-03 -1.94852441E-02  3.05609280E-17 -8.74522903E-05 -1.66091307E-02
  1.78933740E-02  2.33547129E-02 -4.37723347E-17 -4.12288351E-03 -1.97294320E-01
  9.52796011E-03  1.58363290E-01 -1.25855925E-15  0.00000000E+00  0.00000000E+00
  5.08390209E-01  2.90188448E-04  5.50879142E-02 -5.91769596E-02 -2.97393866E-02
  2.29868523E-16  1.11135718E-04  3.90856769E-02 -1.94852441E-02 -4.87712008E-02
  9.15522320E-17  4.28393494E-04  8.13614315E-02  2.33547129E-02 -9.17443103E-02
  2.14423011E-16  4.65375179E-03  2.22698215E-01  1.58363290E-01 -2.89281251E-02
  1.42061312E-15  0.00000000E+00  0.00000000E+00  0.00000000E+00  5.08390209E-01
 -6.25047500E-19  8.48973544E-17 -9.53056748E-17 -8.44161403E-17  6.80282119E-02
 -4.14448173E-19 -6.31181339E-17  3.05609280E-17  9.15522320E-17  2.88038800E-02
 -1.56756679E-18 -9.43046043E-17 -2.59731353E-17  1.27231913E-16  6.79830221E-02
 -3.96635252E-18  1.22273851E-15  8.30957629E-16 -9.37952903E-16  4.49478737E-01
  6.90107853E-16  8.05538376E-15  0.00000000E+00  0.00000000E+00  1.52517063E+00
  6.59921410E-08  3.82904972E-03 -1.97080071E-03 -5.90066913E-03  3.01004426E-17
  0.00000000E+00  1.91633907E-04  8.74522903E-05 -4.28393494E-04  1.56756679E-18
  0.00000000E+00  4.44893366E-05  7.75841818E-05 -8.75968399E-05  3.48419072E-19
  0.00000000E+00  1.91607772E-04  4.14654078E-04 -1.38508286E-04  1.09697684E-18
  6.62090453E-08  3.83073410E-03  6.09815801E-03  1.24400436E-03  1.92883844E-17
  3.10650896E-02  3.82904972E-03  3.34881044E-01 -9.42708966E-02 -2.82251455E-01
  1.21636446E-15  1.91633907E-04  6.17400570E-02  1.66091307E-02 -8.13614315E-02
  9.43046043E-17  4.44893366E-05  2.74021237E-02  2.73021528E-02 -3.08256432E-02
  5.30973459E-17  1.91607772E-04  6.17353317E-02  7.87564657E-02 -2.63072852E-02
  2.40515124E-16  3.83073410E-03  3.34960153E-01  2.91612506E-01  5.94880010E-02
  2.33583748E-15  2.63532865E-02  8.41350389E-01  1.97080071E-03  9.42708966E-02
  1.17863369E-01 -9.58773541E-02  4.16098600E-16 -8.74522903E-05 -1.66091307E-02
  1.78933740E-02  2.33547129E-02 -2.59731353E-17 -7.75841818E-05 -2.73021528E-02
 -1.89096722E-02  3.21817327E-02 -5.38388376E-17 -4.14654078E-04 -7.87564657E-02
 -8.45455362E-02  3.58099404E-02 -3.28215932E-16 -6.09815801E-03 -2.91612506E-01
 -1.56428562E-01 -6.24958848E-02 -2.39690216E-15  0.00000000E+00  0.00000000E+00
  5.08390209E-01  5.90066913E-03  2.82251455E-01 -9.58773541E-02 -1.37175229E-01
  1.24581859E-15  4.28393494E-04  8.13614315E-02  2.33547129E-02 -9.17443103E-02
  1.27231913E-16  8.75968399E-05  3.08256432E-02  3.21817327E-02 -2.67413954E-02
  6.07870307E-17  1.38508286E-04  2.63072852E-02  3.58099404E-02  1.06974395E-02
  1.09635063E-16 -1.24400436E-03 -5.94880010E-02 -6.24958848E-02  1.37179751E-01
 -4.88960230E-16  0.00000000E+00  0.00000000E+00  0.00000000E+00  5.08390209E-01
 -1.32438959E-17  5.56103569E-16 -1.73385404E-16 -5.19123974E-16  4.49658105E-01
 -1.72149495E-18 -1.55707819E-16 -4.37723347E-17  2.14423011E-16  6.79830221E-02
 -3.48419072E-19 -5.30973459E-17 -5.38388376E-17  6.07870307E-17  2.87806914E-02
 -1.23800488E-19  1.47713762E-16  2.05449368E-16 -6.86269384E-17  6.79774605E-02
  2.61470542E-17  2.44028133E-15  2.51564800E-15  5.13183995E-16  4.49786125E-01
  5.80969421E-16  6.78144962E-15  0.00000000E+00  0.00000000E+00  1.52517063E+00
  5.47312554E-04  9.84558784E-02 -2.92754872E-02  1.05976002E-01 -7.35490123E-16
  6.04184372E-03  4.11417169E-01  9.31331195E-02  2.78658794E-01 -4.96142505E-15
  5.47427989E-04  9.84695999E-02  8.70965583E-02  6.71183981E-02 -9.22901681E-16
  9.79240406E-06  7.71156714E-03  7.59534540E-03  9.31277744E-03 -4.52382686E-17
  1.31391278E-06  2.27518852E-03  1.24843973E-03  3.73868611E-03 -9.04190511E-18
  9.78908679E-06  7.70996629E-03 -4.74193236E-04  1.20057480E-02 -3.32756232E-17
  6.49524236E-01  9.77830897E-06  7.70476370E-03 -1.06279630E-02  5.58864888E-03
 -4.31357746E-17  5.47366306E-04  9.84622679E-02 -1.06420879E-01  2.76375025E-02
 -8.56645033E-16  6.04150533E-03  4.11406964E-01 -1.94846909E-01  2.19903580E-01
 -4.17651106E-15  5.47499844E-04  9.84781405E-02 -1.45953058E-02  1.08992484E-01
 -5.39502851E-16  9.78463336E-06  7.70781683E-03 -4.26751141E-03  1.12284621E-02
 -2.29125636E-17  1.31180494E-06  2.27298436E-03 -2.61124122E-03  2.94789733E-03
 -7.60405440E-18  5.66832248E-02  6.49524236E-01  9.79240406E-06  7.71156714E-03
 -7.59534540E-03 -9.31277744E-03  4.52382686E-17  1.31391278E-06  2.27518852E-03
 -1.24843973E-03 -3.73868611E-03  9.04190511E-18  9.78908679E-06  7.70996629E-03
  4.74193236E-04 -1.20057480E-02  3.32756232E-17  5.47312554E-04  9.84558784E-02
  2.92754872E-02 -1.05976002E-01  7.35490123E-16  6.04184372E-03  4.11417169E-01
 -9.31331195E-02 -2.78658794E-01  4.96142505E-15  5.47427989E-04  9.84695999E-02
 -8.70965583E-02 -6.71183981E-02  9.22901681E-16  1.62869428E-04  1.08393654E-03
  6.49524236E-01  5.47499844E-04  9.84781405E-02  1.45953058E-02 -1.08992484E-01
  5.39502851E-16  9.78463336E-06  7.70781683E-03  4.26751141E-03 -1.12284621E-02
  2.29125636E-17  1.31180494E-06  2.27298436E-03  2.61124122E-03 -2.94789733E-03
  7.60405440E-18  9.77830897E-06  7.70476370E-03  1.06279630E-02 -5.58864888E-03
  4.31357746E-17  5.47366306E-04  9.84622679E-02  1.06420879E-01 -2.76375025E-02
  8.56645033E-16  6.04150533E-03  4.11406964E-01  1.94846909E-01 -2.19903580E-01
  4.17651106E-15  1.08393654E-03  1.62680996E-04  5.66832248E-02  6.49524236E-01
  0.00000000E+00  1.19862656E-08 -4.78749749E-08 -9.76700034E-09  3.26304269E-23
  0.00000000E+00  2.57964788E-07 -8.06012991E-07 -4.64009575E-07  1.16084117E-21
  0.00000000E+00  1.19542768E-04 -2.20023215E-04 -1.83948137E-04  4.99356322E-19
  4.48773196E-09  2.69470031E-03 -4.36451331E-03 -8.90840283E-04  6.35676210E-18
  0.00000000E+00  1.19457996E-04 -2.74330439E-04  8.29770067E-05  3.30015725E-20
  0.00000000E+00  2.57602975E-07 -9.22131530E-07  1.10997830E-07  1.58176907E-22
  2.26892047E-08  1.06491345E-04  1.06471835E-04  2.26600805E-08  3.10650896E-02
  1.19862656E-08  3.26437809E-04 -6.97228767E-04 -1.42242030E-04  3.48480846E-19
  2.57964788E-07  1.68034073E-03 -2.83892415E-03 -1.63432600E-03 -1.91486271E-19
  1.19542768E-04  4.74131521E-02 -5.08786295E-02 -4.25365528E-02 -1.19664484E-17
  2.69470031E-03  2.76317723E-01 -2.59318134E-01 -5.29293929E-02  5.56552497E-16
  1.19457996E-04  4.73943932E-02 -6.34556326E-02  1.91934897E-02  1.58945606E-16
  2.57602975E-07  1.67907786E-03 -3.25000803E-03  3.91206487E-04  4.15797466E-18
  1.99681202E-04  3.40766503E-02  3.40726827E-02  1.99528209E-04  2.63532865E-02
  8.41350389E-01  4.78749749E-08  6.97228767E-04 -1.39542320E-03 -3.05835368E-04
  7.47784941E-19  8.06012991E-07  2.83892415E-03 -4.32348581E-03 -2.80141288E-03
 -4.09017547E-19  2.20023215E-04  5.08786295E-02 -4.07533405E-02 -4.83728996E-02
 -1.66013634E-17  4.36451331E-03  2.59318134E-01 -1.66415383E-01 -5.83092076E-02
  6.08016240E-16  2.74330439E-04  6.34556326E-02 -7.29361951E-02  2.72330523E-02
  2.29957371E-16  9.22131530E-07  3.25000803E-03 -5.83998377E-03  7.68244525E-04
  8.24319456E-18  3.18852203E-04  2.00645749E-02  3.42504659E-02  3.93692332E-04
  0.00000000E+00  0.00000000E+00  5.08390209E-01  9.76700034E-09  1.42242030E-04
 -3.05835368E-04  4.12985463E-05  1.52556023E-19  4.64009575E-07  1.63432600E-03
 -2.80141288E-03 -1.06999175E-03 -2.35465260E-19  1.83948137E-04  4.25365528E-02
 -4.83728996E-02 -2.33354292E-02 -1.38793984E-17  8.90840283E-04  5.29293929E-02
 -5.83092076E-02  1.07358710E-01  1.24102121E-16 -8.29770067E-05 -1.91934897E-02
  2.72330523E-02  8.86184164E-03 -6.95554399E-17 -1.10997830E-07 -3.91206487E-04
  7.68244525E-04  4.49851397E-04 -9.92240992E-19  2.56814402E-04  4.03068125E-02
 -2.92185274E-02 -1.11290067E-04  0.00000000E+00  0.00000000E+00  0.00000000E+00
  5.08390209E-01 -2.20095775E-23 -5.37386234E-20  1.12416157E-19  2.29340829E-20
  3.11076571E-04 -2.03334626E-21 -5.73694646E-18  9.80685682E-18  5.64566020E-18
  1.62821874E-03 -8.08070799E-19 -1.36466128E-16  1.54006794E-16  1.28755790E-16
  5.13187016E-02  1.41673263E-18  4.60720247E-16 -4.96801450E-16 -1.01402084E-16
  3.57780586E-01  7.74916588E-19  2.29618324E-16 -3.27274566E-16  9.89910709E-17
  5.12971520E-02  1.37613355E-21  6.27387949E-18 -1.23513150E-17  1.48673927E-18
  1.62697711E-03 -1.05877884E-18 -1.59559259E-16  2.52798988E-16  1.12415947E-18
  2.29736350E-16  2.68163078E-15  0.00000000E+00  0.00000000E+00  1.52517063E+00
  0.00000000E+00  3.08589751E-11 -1.50021907E-10  2.45263031E-12 -8.63305170E-26
  0.00000000E+00  1.05527185E-08 -4.21461143E-08 -9.53512426E-09 -1.08209173E-23
  0.00000000E+00  2.18108382E-05 -5.91199163E-05 -1.40001400E-05 -2.95602394E-20
  0.00000000E+00  1.31805939E-04 -3.02700821E-04  7.98448501E-05 -4.57911371E-19
  0.00000000E+00  3.82586451E-07 -1.21046533E-06  6.07662001E-07 -2.00622853E-21
  0.00000000E+00  1.85777755E-10 -8.26090912E-10  2.46048441E-10 -9.10515853E-25
  4.18554347E-09  1.54590110E-04  5.90452952E-07  1.60573953E-11  2.15582755E-07
  4.49713417E-03 -5.08173190E-03  5.21966549E-03 -2.20576781E-17  3.10650896E-02
  3.08589751E-11  1.37376756E-05 -3.54764614E-05  5.79986259E-07 -2.56204709E-20
  1.05527185E-08  3.05030649E-04 -6.51268976E-04 -1.47342898E-04 -9.15348440E-19
  2.18108382E-05  1.85156139E-02 -2.83280625E-02 -6.70834576E-03 -5.94948226E-17
  1.31805939E-04  5.00693714E-02 -6.71901333E-02  1.77230643E-02 -7.62035261E-17
  3.82586451E-07  2.07558443E-03 -3.55869194E-03  1.78648806E-03 -5.73625952E-19
  1.85777755E-10  3.56265726E-05 -8.42329203E-05  2.50884962E-05 -2.06907263E-20
  7.28961500E-05  4.32265457E-02  1.40509307E-03  2.66212239E-06  4.49713417E-03
  3.64763319E-01 -2.17501762E-01  2.23405418E-01 -4.24629464E-16  2.63532865E-02
  8.41350389E-01  1.50021907E-10  3.54764614E-05 -8.74233417E-05  1.49982235E-06
 -6.62693800E-20  4.21461143E-08  6.51268976E-04 -1.30263647E-03 -3.16619190E-04
 -1.97545148E-18  5.91199163E-05  2.83280625E-02 -3.87458884E-02 -1.06834935E-02
 -9.63015135E-17  3.02700821E-04  6.71901333E-02 -7.75527765E-02  2.52376012E-02
 -1.07776605E-16  1.21046533E-06  3.55869194E-03 -5.52695081E-03  3.11221029E-03
 -8.88522067E-19  8.26090912E-10  8.42329203E-05 -1.88380348E-04  5.94489389E-05
 -4.87055457E-20  1.45178693E-04  4.52728399E-02  1.87183662E-03  6.26497510E-06
  5.08173190E-03  2.17501762E-01  7.53003992E-03  1.63039590E-01 -3.26758724E-16
  0.00000000E+00  0.00000000E+00  5.08390209E-01 -2.45263031E-12 -5.79986259E-07
  1.49982235E-06  4.29291453E-06  1.08340371E-21  9.53512426E-09  1.47342898E-04
 -3.16619190E-04  2.52172430E-05 -4.46925551E-19  1.40001400E-05  6.70834576E-03
 -1.06834935E-02  3.83851378E-03 -2.28050842E-17 -7.98448501E-05 -1.77230643E-02
  2.52376012E-02  1.14687691E-02  2.84287531E-17 -6.07662001E-07 -1.78648806E-03
  3.11221029E-03 -8.89765658E-04  4.46044248E-19 -2.46048441E-10 -2.50884962E-05
  5.94489389E-05 -6.49124633E-06  1.45067854E-20  6.33318838E-05  3.17224253E-02
 -1.69693164E-03 -2.56181512E-06 -5.21966549E-03 -2.23405418E-01  1.63039590E-01
 -1.20379218E-03  3.35627945E-16  0.00000000E+00  0.00000000E+00  0.00000000E+00
  5.08390209E-01 -6.69162774E-27 -1.59485488E-20  4.12859973E-20 -6.74963348E-22
  1.29523030E-05 -6.60321756E-23 -1.34687232E-18  2.89794735E-18  6.55630739E-19
  2.90547221E-04 -1.11800647E-19 -7.70702077E-17  1.23544064E-16  2.92563707E-17
  1.91053899E-02  2.71769438E-19 -9.88163520E-18  1.61055126E-17 -4.24822845E-18
  5.43774374E-02  3.09943593E-21  6.78841153E-18 -1.17776283E-17  5.91245120E-18
  2.01775655E-03  1.29239928E-24  9.43773373E-20 -2.23466452E-19  6.65587421E-20
  3.36462694E-05 -4.90548512E-19 -2.91101944E-16  7.22089066E-18  1.10792334E-20
  1.88968048E-17  1.27810956E-16 -1.15387921E-16  1.18519898E-16  4.98783559E-01
 -3.01175679E-16 -3.51551669E-15  0.00000000E+00  0.00000000E+00  1.52517063E+00
  8.25214546E-09  1.09238712E-04 -2.13101951E-04 -9.18461607E-05  3.82078010E-19
  3.14821684E-08  2.42795407E-04 -3.77445198E-04 -3.15438219E-04  4.58995283E-19
  7.41003058E-06  6.50216703E-03 -6.50042933E-03 -7.98459356E-03  1.35649217E-17
  4.60395986E-04  8.78402638E-02 -7.88551206E-02 -6.18407905E-02  4.30400656E-16
  1.20212954E-04  3.68087579E-02 -4.77668494E-02 -5.94148121E-03  2.50055428E-16
  5.09615505E-07  1.28604243E-03 -2.30159611E-03 -3.48130707E-04  7.17375385E-18
  2.20314342E-05  3.83150114E-03  6.22402168E-02  3.00341250E-04  6.06070781E-03
  4.11985261E-01 -6.63726328E-02 -2.86370337E-01  2.77831400E-15  5.97677370E-04
  1.04357239E-01  3.66144440E-02 -1.09252329E-01  3.45256550E-16  6.49524236E-01
  1.36842965E-12  6.15766577E-07 -1.65732881E-06 -3.57795979E-08 -8.06647123E-22
  2.96421194E-10  1.50753396E-05 -3.46572001E-05 -7.68319624E-06 -4.30948115E-20
  6.19543339E-07  1.44633625E-03 -2.53022115E-03 -5.76409052E-04 -4.01922287E-18
  5.98725876E-06  5.70859658E-03 -9.08216262E-03  1.09381498E-03 -4.15136823E-18
  2.75296310E-08  2.24108825E-04 -4.33200786E-04  1.43287120E-04  1.96755711E-19
  1.31904442E-11  2.36833278E-06 -5.92748606E-06  1.21398794E-06  1.17293638E-21
  4.12249405E-06  5.61493222E-03  2.88944704E-04  2.24668451E-07  5.97703511E-04
  1.04360259E-01 -1.08235984E-01  3.95256623E-02 -3.15766196E-17  6.06066137E-03
  4.11983864E-01 -2.88042333E-01 -5.86915045E-02 -1.21333046E-15  5.49449801E-02
  6.49524236E-01  3.23413217E-09  6.25166447E-05 -1.33356243E-04  3.12918810E-05
 -2.76648867E-19  8.08515685E-07  1.69771121E-03 -3.00807833E-03  8.29081144E-05
 -1.06816512E-17  1.38762862E-04  4.03390652E-02 -5.15311602E-02  7.62546063E-03
 -2.74613754E-16  9.51977999E-05  3.17361178E-02 -3.33227933E-02  2.60960833E-02
 -1.32491676E-16  3.79958617E-07  1.07806950E-03 -1.47963962E-03  1.31082780E-03
 -2.35033282E-18  2.21959425E-09  4.99618276E-05 -9.69409981E-05  5.36354755E-05
 -1.28119564E-19  7.82503815E-04  1.32323994E-01  3.84070602E-04  3.09312423E-06
  5.97677355E-04  1.04357237E-01 -3.66144434E-02  1.09252328E-01 -4.18135382E-16
  6.06070768E-03  4.11985257E-01  6.63726320E-02  2.86370336E-01 -3.12630156E-15
  1.77870151E-02  1.51838584E-01  6.49524236E-01  4.48773196E-09  2.69470031E-03
  4.36451331E-03  8.90840283E-04 -6.35676210E-18  0.00000000E+00  1.19457996E-04
  2.74330439E-04 -8.29770067E-05 -3.30015725E-20  0.00000000E+00  2.57602975E-07
  9.22131530E-07 -1.10997830E-07 -1.58176907E-22  0.00000000E+00  1.19862656E-08
  4.78749749E-08  9.76700034E-09 -3.26304269E-23  0.00000000E+00  2.57964788E-07
  8.06012991E-07  4.64009575E-07 -1.16084117E-21  0.00000000E+00  1.19542768E-04
  2.20023215E-04  1.83948137E-04 -4.99356322E-19  1.06471835E-04  2.26600805E-08
  2.26892047E-08  1.06491345E-04  0.00000000E+00  0.00000000E+00  0.00000000E+00
  0.00000000E+00  0.00000000E+00  0.00000000E+00  0.00000000E+00  0.00000000E+00
  0.00000000E+00  0.00000000E+00  4.25271841E-13  0.00000000E+00  2.36901962E-13
  3.10650896E-02  2.69470031E-03  2.76317723E-01  2.59318134E-01  5.29293929E-02
 -5.56552497E-16  1.19457996E-04  4.73943932E-02  6.34556326E-02 -1.91934897E-02
 -1.58945606E-16  2.57602975E-07  1.67907786E-03  3.25000803E-03 -3.91206487E-04
 -4.15797466E-18  1.19862656E-08  3.26437809E-04  6.97228767E-04  1.42242030E-04
 -3.48480846E-19  2.57964788E-07  1.68034073E-03  2.83892415E-03  1.63432600E-03
  1.91486271E-19  1.19542768E-04  4.74131521E-02  5.08786295E-02  4.25365528E-02
  1.19664484E-17  3.40726827E-02  1.99528209E-04  1.99681202E-04  3.40766503E-02
  0.00000000E+00  6.33305180E-07  1.81764188E-06  3.70865499E-07 -5.34231643E-22
  0.00000000E+00  1.11871776E-08  3.72569233E-08  1.24733306E-09 -2.03499611E-23
  3.07378196E-07  4.16067246E-10  2.17079518E-07  2.63532865E-02  8.41350389E-01
 -4.36451331E-03 -2.59318134E-01 -1.66415383E-01 -5.83092076E-02  6.08016240E-16
 -2.74330439E-04 -6.34556326E-02 -7.29361951E-02  2.72330523E-02  2.29957371E-16
 -9.22131530E-07 -3.25000803E-03 -5.83998377E-03  7.68244525E-04  8.24319456E-18
 -4.78749749E-08 -6.97228767E-04 -1.39542320E-03 -3.05835368E-04  7.47784941E-19
 -8.06012991E-07 -2.83892415E-03 -4.32348581E-03 -2.80141288E-03 -4.09017547E-19
 -2.20023215E-04 -5.08786295E-02 -4.07533405E-02 -4.83728996E-02 -1.66013634E-17
 -3.42504659E-02 -3.93692332E-04 -3.18852203E-04 -2.00645749E-02  0.00000000E+00
 -1.81764188E-06 -5.01968531E-06 -1.06472293E-06  1.53337513E-21  0.00000000E+00
 -3.72569233E-08 -1.20571237E-07 -4.15402293E-09  6.77719589E-23 -7.94764151E-07
 -1.38917515E-09 -6.01362392E-07  0.00000000E+00  0.00000000E+00  5.08390209E-01
 -8.90840283E-04 -5.29293929E-02 -5.83092076E-02  1.07358710E-01  1.24102121E-16
  8.29770067E-05  1.91934897E-02  2.72330523E-02  8.86184164E-03 -6.95554399E-17
  1.10997830E-07  3.91206487E-04  7.68244525E-04  4.49851397E-04 -9.92240992E-19
 -9.76700034E-09 -1.42242030E-04 -3.05835368E-04  4.12985463E-05  1.52556023E-19
 -4.64009575E-07 -1.63432600E-03 -2.80141288E-03 -1.06999175E-03 -2.35465260E-19
 -1.83948137E-04 -4.25365528E-02 -4.83728996E-02 -2.33354292E-02 -1.38793984E-17
  2.92185274E-02  1.11290067E-04 -2.56814402E-04 -4.03068125E-02  0.00000000E+00
 -3.70865499E-07 -1.06472293E-06 -1.86343478E-08  3.12864673E-22  0.00000000E+00
 -1.24733306E-09 -4.15402293E-09  3.36730595E-09  2.26895292E-24 -2.97185919E-07
 -7.93436014E-11  7.91729273E-08  0.00000000E+00  0.00000000E+00  0.00000000E+00
  5.08390209E-01 -1.41673263E-18 -4.60720247E-16 -4.96801450E-16 -1.01402084E-16
  3.57780586E-01 -7.74916588E-19 -2.29618324E-16 -3.27274566E-16  9.89910709E-17
  5.12971520E-02 -1.37613355E-21 -6.27387949E-18 -1.23513150E-17  1.48673927E-18
  1.62697711E-03  2.20095775E-23  5.37386234E-20  1.12416157E-19  2.29340829E-20
  3.11076571E-04  2.03334626E-21  5.73694646E-18  9.80685682E-18  5.64566020E-18
  1.62821874E-03  8.08070799E-19  1.36466128E-16  1.54006794E-16  1.28755790E-16
  5.13187016E-02 -2.52798988E-16 -1.12415947E-18  1.05877884E-18  1.59559259E-16
  0.00000000E+00  5.34231643E-22  1.53337513E-21  3.12864673E-22  5.95824350E-07
  0.00000000E+00 -2.32857648E-23 -7.75491357E-23 -2.59628526E-24  1.05191383E-08
  9.73589350E-22 -6.73806311E-25 -1.02080015E-21 -2.29736350E-16 -2.68163078E-15
  0.00000000E+00  0.00000000E+00  1.52517063E+00  0.00000000E+00  1.31805939E-04
  3.02700821E-04 -7.98448501E-05  4.57911371E-19  0.00000000E+00  3.82586451E-07
  1.21046533E-06 -6.07662001E-07  2.00622853E-21  0.00000000E+00  1.85777755E-10
  8.26090912E-10 -2.46048441E-10  9.10515853E-25  0.00000000E+00  3.08589751E-11
  1.50021907E-10 -2.45263031E-12  8.63305170E-26  0.00000000E+00  1.05527185E-08
  4.21461143E-08  9.53512426E-09  1.08209173E-23  0.00000000E+00  2.18108382E-05
  5.91199163E-05  1.40001400E-05  2.95602394E-20  5.90452952E-07  1.60573953E-11
  4.18554347E-09  1.54590110E-04  0.00000000E+00  0.00000000E+00  0.00000000E+00
  0.00000000E+00  0.00000000E+00  0.00000000E+00  0.00000000E+00  0.00000000E+00
  0.00000000E+00  0.00000000E+00  0.00000000E+00  0.00000000E+00  0.00000000E+00
  2.15582755E-07  4.49713417E-03  5.08173190E-03 -5.21966549E-03  2.20576781E-17
  3.10650896E-02  1.31805939E-04  5.00693714E-02  6.71901333E-02 -1.77230643E-02
  7.62035261E-17  3.82586451E-07  2.07558443E-03  3.55869194E-03 -1.78648806E-03
  5.73625952E-19  1.85777755E-10  3.56265726E-05  8.42329203E-05 -2.50884962E-05
  2.06907263E-20  3.08589751E-11  1.37376756E-05  3.54764614E-05 -5.79986259E-07
  2.56204709E-20  1.05527185E-08  3.05030649E-04  6.51268976E-04  1.47342898E-04
  9.15348440E-19  2.18108382E-05  1.85156139E-02  2.83280625E-02  6.70834576E-03
  5.94948226E-17  1.40509307E-03  2.66212239E-06  7.28961500E-05  4.32265457E-02
  0.00000000E+00  1.11871776E-08  3.72569233E-08  1.24733306E-09  2.32857648E-23
  0.00000000E+00  0.00000000E+00  0.00000000E+00  0.00000000E+00  0.00000000E+00
  1.61622457E-08  0.00000000E+00  1.16295622E-09  4.49713417E-03  3.64763319E-01
  2.17501762E-01 -2.23405418E-01  4.24629464E-16  2.63532865E-02  8.41350389E-01
 -3.02700821E-04 -6.71901333E-02 -7.75527765E-02  2.52376012E-02 -1.07776605E-16
 -1.21046533E-06 -3.55869194E-03 -5.52695081E-03  3.11221029E-03 -8.88522067E-19
 -8.26090912E-10 -8.42329203E-05 -1.88380348E-04  5.94489389E-05 -4.87055457E-20
 -1.50021907E-10 -3.54764614E-05 -8.74233417E-05  1.49982235E-06 -6.62693800E-20
 -4.21461143E-08 -6.51268976E-04 -1.30263647E-03 -3.16619190E-04 -1.97545148E-18
 -5.91199163E-05 -2.83280625E-02 -3.87458884E-02 -1.06834935E-02 -9.63015135E-17
 -1.87183662E-03 -6.26497510E-06 -1.45178693E-04 -4.52728399E-02  0.00000000E+00
 -3.72569233E-08 -1.20571237E-07 -4.15402293E-09 -7.75491357E-23  0.00000000E+00
  0.00000000E+00  0.00000000E+00  0.00000000E+00  0.00000000E+00 -4.82083497E-08
  0.00000000E+00 -3.68297089E-09 -5.08173190E-03 -2.17501762E-01  7.53003992E-03
  1.63039590E-01 -3.26758724E-16  0.00000000E+00  0.00000000E+00  5.08390209E-01
  7.98448501E-05  1.77230643E-02  2.52376012E-02  1.14687691E-02  2.84287531E-17
  6.07662001E-07  1.78648806E-03  3.11221029E-03 -8.89765658E-04  4.46044248E-19
  2.46048441E-10  2.50884962E-05  5.94489389E-05 -6.49124633E-06  1.45067854E-20
  2.45263031E-12  5.79986259E-07  1.49982235E-06  4.29291453E-06  1.08340371E-21
 -9.53512426E-09 -1.47342898E-04 -3.16619190E-04  2.52172430E-05 -4.46925551E-19
 -1.40001400E-05 -6.70834576E-03 -1.06834935E-02  3.83851378E-03 -2.28050842E-17
  1.69693164E-03  2.56181512E-06 -6.33318838E-05 -3.17224253E-02  0.00000000E+00
 -1.24733306E-09 -4.15402293E-09  3.36730595E-09 -2.59628526E-24  0.00000000E+00
  0.00000000E+00  0.00000000E+00  0.00000000E+00  0.00000000E+00 -9.00470655E-09
  0.00000000E+00  8.99710134E-10  5.21966549E-03  2.23405418E-01  1.63039590E-01
 -1.20379218E-03  3.35627945E-16  0.00000000E+00  0.00000000E+00  0.00000000E+00
  5.08390209E-01 -2.71769438E-19  9.88163520E-18  1.61055126E-17 -4.24822845E-18
  5.43774374E-02 -3.09943593E-21 -6.78841153E-18 -1.17776283E-17  5.91245120E-18
  2.01775655E-03 -1.29239928E-24 -9.43773373E-20 -2.23466452E-19  6.65587421E-20
  3.36462694E-05  6.69162774E-27  1.59485488E-20  4.12859973E-20 -6.74963348E-22
  1.29523030E-05  6.60321756E-23  1.34687232E-18  2.89794735E-18  6.55630739E-19
  2.90547221E-04  1.11800647E-19  7.70702077E-17  1.23544064E-16  2.92563707E-17
  1.91053899E-02 -7.22089066E-18 -1.10792334E-20  4.90548512E-19  2.91101944E-16
  0.00000000E+00  2.03499611E-23  6.77719589E-23  2.26895292E-24  1.05191383E-08
  0.00000000E+00  0.00000000E+00  0.00000000E+00  0.00000000E+00  0.00000000E+00
  7.34484672E-23  0.00000000E+00 -3.86406694E-24 -1.88968048E-17 -1.27810956E-16
 -1.15387921E-16  1.18519898E-16  4.98783559E-01  3.01175679E-16  3.51551669E-15
  0.00000000E+00  0.00000000E+00  1.52517063E+00  4.60395986E-04  8.78402638E-02
  7.88551206E-02  6.18407905E-02 -4.30400656E-16  1.20212954E-04  3.68087579E-02
  4.77668494E-02  5.94148121E-03 -2.50055428E-16  5.09615505E-07  1.28604243E-03
  2.30159611E-03  3.48130707E-04 -7.17375385E-18  8.25214546E-09  1.09238712E-04
  2.13101951E-04  9.18461607E-05 -3.82078010E-19  3.14821684E-08  2.42795407E-04
  3.77445198E-04  3.15438219E-04 -4.58995283E-19  7.41003058E-06  6.50216703E-03
  6.50042933E-03  7.98459356E-03 -1.35649217E-17  6.22402168E-02  3.00341250E-04
  2.20314342E-05  3.83150114E-03  4.25271841E-13  3.07378196E-07  7.94764151E-07
  2.97185919E-07 -9.73589350E-22  0.00000000E+00  1.61622457E-08  4.82083497E-08
  9.00470655E-09 -7.34484672E-23  8.27999512E-08  6.09710976E-10  4.19865942E-07
  6.06070781E-03  4.11985261E-01  6.63726328E-02  2.86370337E-01 -2.77831400E-15
  5.97677370E-04  1.04357239E-01 -3.66144440E-02  1.09252329E-01 -3.45256550E-16
  6.49524236E-01  5.98725876E-06  5.70859658E-03  9.08216262E-03 -1.09381498E-03
  4.15136823E-18  2.75296310E-08  2.24108825E-04  4.33200786E-04 -1.43287120E-04
 -1.96755711E-19  1.31904442E-11  2.36833278E-06  5.92748606E-06 -1.21398794E-06
 -1.17293638E-21  1.36842965E-12  6.15766577E-07  1.65732881E-06  3.57795979E-08
  8.06647123E-22  2.96421194E-10  1.50753396E-05  3.46572001E-05  7.68319624E-06
  4.30948115E-20  6.19543339E-07  1.44633625E-03  2.53022115E-03  5.76409052E-04
  4.01922287E-18  2.88944704E-04  2.24668451E-07  4.12249405E-06  5.61493222E-03
  0.00000000E+00  4.16067246E-10  1.38917515E-09  7.93436014E-11  6.73806311E-25
  0.00000000E+00  0.00000000E+00  0.00000000E+00  0.00000000E+00  0.00000000E+00
  6.09710976E-10  0.00000000E+00  6.85736872E-11  5.97703511E-04  1.04360259E-01
  1.08235984E-01 -3.95256623E-02  3.15766196E-17  6.06066137E-03  4.11983864E-01
  2.88042333E-01  5.86915045E-02  1.21333046E-15  5.49449801E-02  6.49524236E-01
  9.51977999E-05  3.17361178E-02  3.33227933E-02 -2.60960833E-02  1.32491676E-16
  3.79958617E-07  1.07806950E-03  1.47963962E-03 -1.31082780E-03  2.35033282E-18
  2.21959425E-09  4.99618276E-05  9.69409981E-05 -5.36354755E-05  1.28119564E-19
  3.23413217E-09  6.25166447E-05  1.33356243E-04 -3.12918810E-05  2.76648867E-19
  8.08515685E-07  1.69771121E-03  3.00807833E-03 -8.29081144E-05  1.06816512E-17
  1.38762862E-04  4.03390652E-02  5.15311602E-02 -7.62546063E-03  2.74613754E-16
  3.84070602E-04  3.09312423E-06  7.82503815E-04  1.32323994E-01  2.36901962E-13
  2.17079518E-07  6.01362392E-07 -7.91729273E-08  1.02080015E-21  0.00000000E+00
  1.16295622E-09  3.68297089E-09 -8.99710134E-10  3.86406694E-24  4.19865942E-07
  6.85736872E-11  6.02008385E-09  5.97677355E-04  1.04357237E-01  3.66144434E-02
 -1.09252328E-01  4.18135382E-16  6.06070768E-03  4.11985257E-01 -6.63726320E-02
 -2.86370336E-01  3.12630156E-15  1.77870151E-02  1.51838584E-01  6.49524236E-01
Number of Excited States                   I               10
Excitation Energies                        R   N=          10
  1.32489789E-01  1.67853242E-01  1.83396041E-01  1.87201147E-01  2.03595260E-01
  2.07220993E-01  2.21878012E-01  2.43317704E-01  2.69432747E-01  2.77702702E-01
Oscillator Strengths                       R   N=          10
  0.00000000E+00  0.00000000E+00  0.00000000E+00  0.00000000E+00  0.00000000E+00
  2.33227356E-03  9.40771386E-01  4.78709770E-27  2.09607887E-01  1.77387863E-27
Alpha Amplitudes                           R   N=        8750
  7.81408335E-19  4.80308514E-19 -8.00656243E-19 -1.12397424E-19  5.66689556E-18
 -6.03569165E-05  2.70625000E-15  1.82009570E-15 -3.36797485E-05  3.22599558E-15
  3.50991160E-05  2.07342528E-15 -9.89095992E-05  2.68747042E-15 -1.34731278E-05
 -9.08923497E-05  9.42290603E-17  7.72960390E-08 -3.86481280E-15  3.82922199E-15
 -6.27726889E-06  5.96513703E-06 -3.97517816E-16  1.73945386E-06  3.04474188E-15
 -6.69622597E-19 -5.56997753E-19  3.99475693E-19  6.60222260E-20  1.98110696E-18
 -3.40264111E-15 -4.75203908E-05 -3.14542580E-05 -1.93902259E-15 -5.59963082E-05
  2.02501309E-15 -3.68066558E-05 -5.63554886E-15 -4.63467427E-05 -8.05081991E-16
 -5.17169241E-15 -1.43959485E-06  1.89154729E-17  6.82969170E-05 -6.73260298E-05
 -3.38130461E-16  3.59045062E-16  7.57709879E-06  8.15421304E-17 -5.33836130E-05
  8.49196960E-19  2.19582852E-19  1.29333981E-19  1.15921591E-19  3.58262076E-18
 -4.40457846E-05 -1.78301721E-14 -8.76471092E-14  3.78768922E-05 -5.21037315E-14
  3.28042671E-05  4.63690625E-14 -6.83721748E-05 -5.53707023E-14 -1.20258722E-05
  3.68416332E-05  7.61969572E-15 -2.81128538E-05  4.57987841E-14  3.45919107E-14
 -1.45632135E-05 -4.41411745E-05 -5.95064445E-14 -2.29142649E-05  1.04342944E-14
 -1.22769016E-19 -1.71311419E-19  2.54695020E-19 -3.35792101E-19  1.49951042E-19
  5.58738367E-14 -1.40566257E-05 -6.89365863E-05 -4.80487081E-14 -4.10776748E-05
 -4.16397208E-14  3.65322995E-05  8.71074930E-14 -4.36260036E-05  1.53177432E-14
 -4.67111741E-14  5.88047430E-06  3.57510656E-14  3.59378479E-05  2.71271389E-05
  1.85055911E-14  5.60977502E-14 -4.69122531E-05  2.91302375E-14  8.17101477E-06
 -5.51889899E-19  1.08706355E-19  1.87071532E-19  1.09743689E-19 -1.44145521E-18
  2.31462363E-05 -1.02228627E-16 -6.31684914E-16 -2.99493144E-05 -7.12722682E-16
 -2.01173892E-05 -1.01346532E-15 -6.51162886E-05 -7.15151879E-16 -3.71733894E-05
 -3.15967235E-05  2.07319915E-15 -9.99817105E-06  4.11806152E-16  7.60378270E-16
  5.91957684E-06  5.80539924E-06  8.05478190E-16  3.92486272E-06 -6.82698225E-16
 -9.75457983E-19  1.47105909E-19  1.22525911E-18 -2.02680111E-19  2.94023864E-19
  6.33166223E-16  1.90160566E-06  1.23430912E-05 -8.91837085E-16  1.48097747E-05
 -7.63799395E-16  3.21896457E-05 -2.44527656E-15  1.58415745E-05 -1.58203952E-15
 -9.43408349E-16 -5.78719677E-05 -4.67212524E-16 -1.04987117E-05 -1.89384879E-05
  2.07824709E-16  1.17217327E-16 -2.74209054E-05  1.17703978E-16  1.95372600E-05
 -4.29413930E-19  3.41054859E-19  1.07549224E-19 -1.92806618E-19 -1.76898620E-18
  1.98179794E-05 -2.90508798E-15  8.00928673E-17 -2.12343857E-05 -8.82862777E-15
  6.67680906E-05 -3.44366314E-15 -1.80532024E-05 -6.20160650E-15  8.86196592E-05
 -3.08969194E-05  1.08161925E-15  1.58342160E-05 -6.59572512E-15 -4.50460646E-15
 -1.70025447E-05 -1.48705948E-05 -1.21476917E-15 -1.06405339E-05 -6.32931580E-15
 -8.88916267E-19 -3.55064950E-19 -2.47973363E-19  5.82752867E-20  1.06520423E-18
 -2.61586853E-15 -2.30291420E-05  1.07106118E-06  2.76198655E-15 -7.07844152E-05
 -8.28369826E-15 -2.80874778E-05  2.14508601E-15 -4.89540532E-05 -1.11177733E-14
  3.94233547E-15  9.65306798E-06 -2.05015128E-15 -5.25523332E-05 -3.56002934E-05
  2.09556041E-15  1.77187091E-15 -8.53221758E-06  1.25983924E-15 -5.07577352E-05
 -2.14274829E-18  2.26673238E-19 -1.56519792E-19 -7.80446122E-19 -7.45803640E-19
  7.11170275E-15  6.79045978E-06 -6.03263216E-05 -8.25746825E-15  8.58310805E-05
  1.81722845E-14 -2.66942364E-06  1.15240162E-14 -1.21187523E-04 -1.22817384E-14
 -4.22306998E-15  1.42876310E-05  7.81429137E-15 -2.25579809E-06  2.49540642E-05
  3.74094407E-15  1.14927889E-14 -7.85488229E-05  7.78650516E-15 -1.78698669E-06
 -1.24041395E-18  5.01367791E-19  9.38625854E-19 -3.68034622E-19  2.72224669E-18
 -4.04833214E-05  1.18299533E-15 -1.06667194E-14  4.67137767E-05  1.50662296E-14
 -1.03558396E-04 -4.23999809E-16 -6.55438994E-05 -2.13606682E-14  6.94696220E-05
  2.39134384E-05  2.50737449E-15 -4.43975540E-05 -3.59353472E-16  4.38772069E-15
 -2.12221542E-05 -6.52134430E-05 -1.38511990E-14 -4.41242095E-05 -2.91325010E-16
  1.49438505E-17 -9.11820178E-19 -9.97251084E-19  2.59650930E-18  1.02797020E-16
  5.91131937E-16 -2.39855674E-03 -2.29429606E-03 -6.44673547E-16 -4.18300477E-03
  2.23307703E-15 -2.04431718E-03 -3.78659122E-17 -4.24724886E-03  4.97871128E-16
  8.18807837E-18  1.32413369E-03  1.22572544E-16  5.54314650E-04 -2.05013994E-03
  1.45661274E-16  9.50360530E-17 -5.95026676E-04 -1.49060165E-15 -2.96718945E-03
 -2.47110277E-17 -2.89015592E-18 -1.40393710E-17 -2.32916561E-17  3.87409276E-16
 -3.98035858E-03 -2.68724159E-16 -2.50969728E-16  6.36649446E-04  3.02718102E-16
  1.38446035E-04 -3.54389821E-16 -7.62835876E-03  6.98302182E-16  1.00055781E-03
 -1.34582298E-03  3.88868706E-16 -1.79015925E-03  4.45177917E-16 -1.92512951E-16
 -1.28031648E-03 -2.50484882E-03  3.30009664E-16 -1.57503267E-03  6.67131980E-16
 -1.53639742E-17 -2.71136185E-18 -3.00903154E-17 -1.44783229E-17  5.53399081E-18
 -1.91643309E-16  2.08632604E-04  4.85743487E-03  2.29133373E-15 -2.45800172E-03
  1.36110273E-15 -1.86942708E-03  2.08895088E-16  4.78024074E-03  1.41055777E-16
  7.41664935E-16 -1.50052467E-04 -3.02415376E-16 -1.81711922E-03 -1.96145723E-03
 -4.50795917E-17 -1.19801386E-16  4.03712821E-03 -1.20080141E-15 -1.19352042E-03
 -2.80691474E-17  2.31826175E-18 -2.39823667E-17  6.47223578E-19  7.78794652E-17
 -5.53355566E-04 -1.57266733E-16  2.66455302E-16 -2.34557835E-04 -3.22363510E-15
 -3.19020459E-03  1.05090015E-15 -1.48455185E-03  1.10226596E-16 -5.45227087E-03
 -2.35861011E-05 -1.37932323E-16 -9.03284209E-04  4.01692310E-16  9.32711141E-18
  9.17771629E-04  9.26560071E-04  2.63976686E-16  9.24137282E-04 -5.72224076E-16
  2.72987623E-17  7.17808686E-18  3.43828980E-19  5.97598569E-19  3.82470128E-17
 -9.70174383E-04 -6.90782280E-16 -1.81249926E-15  4.43972711E-03 -3.88457716E-15
 -5.06512713E-03  2.26898420E-15  1.72942280E-03  1.53213814E-16  1.40267384E-03
  5.45863229E-03 -9.35787673E-16 -1.91001728E-03  8.76834782E-16 -1.71731516E-16
 -3.88281584E-04 -2.63687314E-03 -2.52889990E-17 -1.48874562E-03  9.45558153E-16
 -2.03143383E-17  1.18967722E-17 -5.79939275E-17  1.45267941E-17 -5.09016556E-17
 -4.43962430E-16  1.60194798E-03  1.22041112E-03  5.27625475E-16  2.86913951E-03
 -2.61026589E-15 -3.16501159E-04  2.15811738E-17 -1.80969449E-03 -7.30310981E-16
  1.14318964E-16 -1.03774383E-03 -8.03271064E-16 -4.30083010E-03 -1.92784503E-04
 -4.27837002E-16 -3.84385394E-16 -2.02953743E-03  6.34916956E-17 -3.18902231E-04
 -3.87062027E-17 -2.49873211E-18  7.00731311E-18  2.00686678E-17 -5.38434234E-17
 -1.62070010E-16  1.42305163E-03  2.00916590E-06 -1.86715270E-16  3.17704710E-03
 -3.02809204E-15 -7.63054803E-04  1.68889820E-16 -1.58970220E-03 -2.70142264E-16
  5.86550091E-16  3.23356889E-03 -5.58850793E-16 -1.44894479E-03  3.46663348E-03
 -9.40757410E-17  1.39470127E-16  8.77375835E-04 -7.63881917E-17  1.41484554E-04
  6.20315904E-18  1.88697357E-17 -2.66663112E-17  6.58393026E-17 -8.60015409E-17
  1.20497993E-03  1.70770498E-16  4.26135560E-16 -8.28029570E-04 -4.55939105E-15
 -5.23257554E-03  2.60116557E-15 -9.06885835E-04  7.24307879E-16  2.57642123E-03
 -2.64816745E-03  2.49923221E-16 -2.51909648E-04 -4.34595178E-16  2.02833959E-16
  5.01033682E-05  5.24801397E-04 -7.51736373E-17 -4.96236204E-04  3.07509537E-16
  7.67417292E-18  9.12605374E-18 -6.59255596E-17  6.01308626E-18  2.62096921E-17
 -1.51341225E-16 -3.45596726E-04  1.17538016E-04  4.79719745E-16 -3.95126976E-03
  4.21649233E-15  1.59694623E-03  7.51839876E-17  1.74833953E-03 -2.30298138E-16
  1.71717309E-16  4.50413907E-05 -4.19138096E-16 -1.96255200E-03  1.14893215E-03
 -2.88638344E-16 -2.47081596E-16 -4.50271496E-04  1.01392961E-15  1.77504096E-03
 -3.02474149E-17  5.86499306E-17 -9.97155313E-17  1.67695155E-17  8.10860690E-18
  2.59898367E-16 -6.24751586E-04 -3.97250032E-04 -4.36454070E-16  8.87710718E-04
 -1.38552166E-15 -1.35970967E-03 -1.11449923E-16 -8.86587805E-04  2.47911100E-16
  3.70419732E-17  1.06984182E-03  2.74516853E-16  1.32158989E-03 -2.78443095E-03
  5.62445435E-16  1.96682330E-17  1.08458404E-03  8.70212823E-16  1.67389785E-03
  3.34048574E-18  4.43787036E-18  2.33765679E-17 -8.02546445E-19 -1.17229042E-16
  1.61028071E-03  4.36039082E-16  5.27884115E-16 -1.08835733E-03 -1.02006635E-15
 -1.17765832E-03  9.10117340E-16 -6.08064712E-04  2.93027802E-16  2.03279662E-03
  1.61938129E-04  1.28698701E-16  5.38703644E-04 -3.53840191E-16  2.32914926E-16
  2.06177835E-03 -6.53741881E-04  4.61171341E-17  2.56872474E-03 -1.42740004E-15
 -7.24382878E-17  1.84933992E-17  2.25203905E-16 -7.81889475E-18  1.18043899E-16
  4.69483883E-03  5.39396957E-16  9.37283905E-17  2.58694405E-05  1.29728494E-16
  1.23682915E-04 -8.64914913E-17  1.36306798E-03 -2.86876613E-16 -2.57576881E-04
  2.91741410E-03 -7.35266094E-16 -3.77673053E-04  1.95437307E-16 -1.01219370E-16
 -1.08164628E-03  1.43723113E-04  1.92912973E-16 -2.61791178E-04  2.42590004E-16
  3.25330425E-18  1.44300319E-16 -3.00182624E-16  1.30404732E-16  1.01720621E-17
 -2.03089031E-03 -4.79647834E-16 -6.62817675E-16  1.56564233E-03 -6.30332803E-16
 -7.86233219E-04  2.00171487E-16  5.70797651E-04  1.11178112E-16 -1.22329965E-03
  3.43031879E-04  2.71564911E-16 -1.02539675E-03  6.56268881E-16  1.05381092E-16
 -2.62083762E-03  1.05670583E-03 -1.24057668E-16  2.86539894E-03 -1.57663809E-15
 -1.56897143E-17  6.85194201E-17 -1.30072447E-17 -7.09680590E-17 -3.23545503E-16
  4.12074121E-16  8.59824784E-04 -4.20795710E-04 -4.29883826E-16  2.83272888E-05
  5.61654937E-16  1.21623345E-03  1.92521434E-16  9.34719248E-04  9.22485218E-17
  7.10949847E-16  3.30408570E-03 -7.22937265E-17  4.46425243E-04  5.59383677E-04
  2.95996977E-16  1.43051241E-16 -3.01959704E-03 -2.62454519E-16 -1.55964759E-04
 -8.00415111E-17  4.66487709E-17  1.05410917E-16  6.64455419E-17  7.04184206E-17
 -1.21660229E-03 -3.20599208E-16 -5.87105935E-16  1.55322601E-03  7.06562325E-16
  6.00943442E-04 -2.88158512E-16  3.01975106E-05  2.72375006E-17  1.51844874E-03
  2.86785135E-04  2.83897355E-16  3.15811756E-03 -4.97738598E-16  4.47494732E-17
 -1.86369427E-03  3.71215480E-04 -6.39229256E-17  1.08322073E-04  3.43403684E-17
  6.99715910E-17  1.34587964E-17 -4.50483998E-16  1.62750704E-16 -2.20539706E-15
  9.02920269E-04  2.38338848E-16  6.24712089E-17 -4.27431988E-04 -9.85185580E-16
 -1.30456854E-03  8.19388072E-16  1.10821320E-04  7.99048150E-17 -8.60807180E-04
 -7.42985543E-04  3.50072491E-16 -9.25328731E-04  5.61747403E-16 -1.49919711E-16
 -9.76116744E-04 -4.51192934E-03  4.77888648E-16  3.71629613E-04 -2.33290377E-16
 -8.71694243E-17  2.44689592E-16 -2.78982493E-16  2.52631449E-16  5.73162783E-16
 -7.96801933E-16  2.36439339E-03 -5.79704764E-04 -2.37031232E-16  4.57420196E-04
  1.11129183E-15  3.40831752E-03  1.67565644E-16  1.76658443E-04 -3.17325341E-16
  6.03537662E-16  1.73392748E-03 -2.05898888E-16 -1.01892630E-03 -9.87273244E-04
  1.36570776E-17  4.26460992E-16  1.67182609E-03  6.91024646E-17  3.33267251E-04
  5.86393926E-16  1.87194891E-15 -1.35622081E-03 -2.73217284E-15 -5.30629577E-02
 -4.27696156E-15 -1.46173417E-15  1.42182184E-16 -4.04487458E-16 -1.01979877E-16
 -6.85762067E-17 -6.94489211E-17 -1.33484206E-17 -5.94104093E-17 -5.85285668E-17
  4.90199722E-17 -2.13463822E-17  2.41886594E-17 -1.85726546E-17 -5.67308478E-17
  4.69122267E-18  1.90806254E-16  4.12934054E-17 -3.16624996E-17 -7.60117935E-18
 -9.72083773E-18  3.57242727E-16 -6.44382036E-16  6.09742970E-16 -4.76567029E-16
  4.65863873E-03  1.10166102E-16 -1.77437488E-15  3.57191444E-03 -9.01140170E-17
 -5.48503406E-04  3.01154002E-16  4.47246145E-04  4.57082402E-16  2.44454902E-04
 -3.07912117E-03  5.21619369E-16 -1.76733047E-04 -2.73410344E-16 -4.05824903E-17
  1.13769474E-03 -6.04377272E-04  1.34321777E-16 -3.34174965E-04  2.32452472E-16
  1.76531472E-16  9.05014456E-17 -3.93829578E-17  4.99672895E-16  5.04617079E-16
  2.76833353E-16 -1.98192128E-03  3.94941864E-03  1.68585785E-15  7.19525030E-04
 -9.63580477E-17  1.12678311E-03 -1.30193683E-16 -1.86198936E-03  2.23038553E-16
  8.02856016E-17  2.12359211E-03  1.54195905E-16  1.82792644E-03  1.93930454E-03
  2.02602410E-16  1.51529475E-16  3.59592437E-04 -1.91622489E-16 -2.46927959E-04
 -2.29608062E-17  3.77134448E-16 -5.80928105E-16  1.04459599E-15 -1.34973265E-16
 -8.68789622E-16  6.10297650E-03  4.37870435E-03  2.17382415E-15  4.14828316E-04
 -9.99649601E-16 -1.15248409E-03  1.42428466E-16 -4.46761578E-04  1.16281611E-16
 -4.22785291E-16 -1.24095139E-03  2.53912092E-16  8.71920842E-04  1.35797951E-04
  1.38188183E-17 -1.03635030E-16 -9.13502317E-04 -4.73706972E-16 -1.00745939E-03
  5.76802425E-03 -1.03399819E-03  6.23316849E-15  9.99679243E-02 -2.76132977E-16
 -1.45637643E-16 -1.25761604E-17 -5.63913996E-17  2.48558828E-17  5.21487866E-17
  2.56933887E-17 -1.11624220E-17 -2.10428509E-17  2.66228971E-17 -2.29340655E-17
 -8.21122352E-18 -3.31372894E-17 -3.38418094E-18 -8.03363905E-18 -2.16067607E-18
  2.29581686E-17  3.64326324E-18  1.39709124E-18 -2.13501764E-18  1.52960851E-17
 -2.01521059E-14 -1.21474810E-14 -1.85151578E-01 -3.03704780E-15 -3.14093719E-03
 -2.93728128E-16 -1.97517314E-16  3.58014101E-17 -9.50972251E-17 -4.12340197E-17
 -1.49651374E-17  2.42060777E-17  8.52199198E-17  6.39971571E-17 -5.20086417E-17
  2.81492279E-17  1.96889574E-17  2.01455285E-17 -2.04578879E-17  7.32221313E-18
  2.82246026E-17  2.94388276E-17  1.60771093E-17  8.55951304E-18 -1.72880743E-17
  1.00400594E-02  1.50231795E-01 -1.09949971E-14 -3.52120207E-03  2.48030506E-16
 -1.85342326E-17 -4.54970261E-17 -3.30104087E-17 -3.11996084E-17 -2.27103724E-17
  3.62074198E-17 -2.00434858E-17 -1.07637400E-17 -9.63048442E-18 -7.87861478E-18
  4.19427100E-18 -2.66100949E-17  8.10243229E-18 -8.90214360E-18  3.06389689E-18
 -5.83147683E-19 -4.38676836E-18  8.83393391E-18 -3.10309711E-18  1.83618940E-18
  6.55210828E-01  1.33122631E-03  2.25120702E-15  1.95920963E-03  1.51052790E-15
 -9.17019599E-17 -2.75578545E-17 -1.90011140E-17  5.26181697E-17  9.10318314E-19
  2.75562688E-17 -5.78942133E-17 -2.88720998E-17 -2.02351783E-17 -4.28854284E-17
 -8.35912819E-18  1.15160460E-17  1.18937852E-17 -1.68493509E-18 -2.75016399E-18
 -1.35130340E-18 -9.54935715E-18  1.41279009E-17  2.13738115E-18  6.28954419E-19
  1.19840890E-18  1.50290733E-20 -8.30541459E-19  8.63283125E-19  2.37391007E-19
  1.52583878E-16 -4.21670215E-06  3.38101295E-06  4.08451922E-16 -1.49498229E-06
 -2.14207463E-17 -7.33330983E-06  1.78158366E-16  4.76774748E-07  2.05239243E-18
  6.23535688E-16 -1.16374423E-06 -1.57148795E-16  3.95034850E-06 -9.80016330E-06
  1.50940428E-17 -2.92274780E-16  5.84996184E-06 -1.40680719E-16 -4.78895309E-06
 -5.62704734E-19  5.77321551E-20  5.77045587E-19 -6.78270012E-19  4.29419096E-19
 -2.40020609E-06 -2.49736333E-16  1.95276762E-16 -7.62957205E-06 -1.33370197E-16
  5.80271805E-07 -4.18484427E-16 -2.46623729E-06  4.91320860E-17 -4.70437485E-07
 -1.14056481E-05 -5.83083464E-17  3.14935114E-06  2.35444192E-16 -5.62836005E-16
 -4.19381488E-08  5.80287572E-06  3.51875380E-16  2.77938927E-06 -2.81734944E-16
 -2.17099256E-19  6.88226141E-20 -1.12905857E-18 -2.22409298E-19  1.99504001E-19
 -9.33081632E-14 -2.18252073E-05 -1.22106179E-04  8.88932005E-14 -7.28600163E-05
  7.17645748E-14  6.63915199E-05 -1.51683260E-13 -7.86739836E-05 -2.59980923E-14
  9.14255504E-14  1.21929888E-05 -6.51605465E-14  5.87212384E-05  5.46704576E-05
 -3.09266992E-14 -1.02681165E-13 -8.48089822E-05 -5.28194546E-14  1.55826395E-05
 -3.98984655E-19 -1.34892619E-19  6.55625837E-19 -3.37745583E-20  6.20722032E-18
 -7.34253972E-05  2.77501569E-14  1.55161361E-13  6.99803333E-05  9.27292622E-14
  5.64358431E-05 -8.43643467E-14 -1.19359067E-04  1.00043234E-13 -2.03643815E-05
  7.19363220E-05 -1.55490051E-14 -5.12734803E-05 -7.45664298E-14 -6.94692895E-14
 -2.43541905E-05 -8.08207641E-05  1.07777911E-13 -4.15946620E-05 -1.97268109E-14
 -3.09004942E-19  5.56089131E-21  3.33325308E-19 -2.77332389E-19  2.32529472E-19
 -1.93014121E-16 -5.01590933E-06 -3.96702109E-06  1.43962888E-16 -1.91504271E-05
 -4.25264902E-16 -1.33461435E-05 -9.47222729E-16 -1.47868779E-05 -1.04361140E-15
  2.17248204E-16  1.70898023E-05 -3.85036586E-16 -7.49762525E-06 -1.07633699E-06
  7.27112329E-17 -1.75103876E-16  4.27802364E-06 -5.48660640E-17 -1.45786353E-05
 -1.62643260E-18  9.10280716E-20  9.31531382E-19 -1.46496417E-18  7.77458998E-21
 -9.55684240E-07 -2.25672066E-16 -4.91896322E-16  2.14572770E-06 -8.34413530E-16
  1.76805713E-05 -2.72632630E-16  1.51174750E-05 -6.97003610E-16  2.76088287E-05
  4.08844467E-07  6.47364312E-16  6.00418561E-06 -5.05004242E-17  1.48139444E-16
 -4.31424734E-06 -2.59422939E-06 -6.73970489E-17 -2.55199118E-06 -4.35211794E-16
 -2.27675383E-19  5.38609208E-20  7.95018006E-19 -2.84216604E-19  5.14760155E-19
  1.07843288E-15 -5.63080383E-06  2.88334097E-06 -1.23684531E-15 -1.60673002E-05
  1.87895278E-15 -5.94597253E-07 -2.44726123E-15 -9.50309826E-06  1.96737966E-15
 -1.47999337E-15 -9.17436662E-06  9.89910497E-17 -1.58628248E-05 -1.26280191E-05
 -4.75465527E-16 -5.53902745E-16 -7.59249814E-06 -3.71311806E-16 -9.00181433E-06
  3.55478581E-19 -1.52964164E-20  8.19057532E-19  4.46827552E-19 -6.33451334E-19
  9.36901953E-06  6.77524138E-16 -5.89001350E-16 -1.06484541E-05  1.94714102E-15
  1.43975555E-05  1.91926209E-16 -1.85906106E-05  1.03336831E-15  1.50352790E-05
 -1.24354215E-05  1.17211121E-15  1.25264800E-06  2.10637379E-15  1.69111699E-15
 -3.41352190E-06 -3.46011699E-06  7.82340179E-16 -2.38812079E-06  1.16965367E-15
 -1.29154382E-21  1.60784375E-19  2.92843111E-18  1.50756932E-19  5.77147562E-18
 -6.02127613E-05 -1.73211661E-15  1.57493216E-14  6.89431018E-05 -2.22925238E-14
 -1.51868033E-04  7.11047059E-16 -9.76208986E-05  3.15421378E-14  1.01994522E-04
  3.52907847E-05 -3.70826058E-15 -6.57364634E-05  4.98193819E-16 -6.48630035E-15
 -3.15807058E-05 -9.66291240E-05  2.05552115E-14 -6.55976869E-05  4.81778816E-16
 -1.52087171E-18  1.46297826E-19  1.54750512E-18 -8.56110912E-19 -1.93311617E-19
 -1.06224377E-14  9.72892428E-06 -8.96546665E-05  1.21180968E-14  1.25743048E-04
 -2.69039648E-14 -3.58136498E-06 -1.72168891E-14 -1.78891719E-04  1.79887114E-14
  6.21582513E-15  2.10366362E-05 -1.15970484E-14 -2.61448386E-06  3.68388333E-05
 -5.57263519E-15 -1.70439568E-14 -1.16657372E-04 -1.15572237E-14 -2.51377418E-06
 -4.39012408E-18 -1.80809850E-19 -1.21521216E-17 -7.50927219E-18  1.23108010E-16
 -1.34112967E-03 -2.49723062E-16 -4.73262371E-16  7.14199755E-04 -7.61865454E-17
  5.32529637E-05 -2.62041720E-16 -3.07440535E-03 -9.73164200E-17  3.17591110E-04
  1.26737808E-04  1.58465270E-16 -9.13138113E-04  2.97861375E-16 -1.85477532E-16
 -6.24344335E-04 -1.30385151E-03  2.95821842E-17 -7.40726816E-04  1.42536971E-16
  1.04490922E-17  9.11427791E-18  2.92654885E-17  2.13330459E-18  2.91325159E-17
  3.37377608E-16 -9.94836974E-04 -6.59907901E-03 -2.71177330E-15  2.98093803E-05
  4.31266958E-16  1.78237853E-03 -3.82238742E-16 -6.99834519E-03  3.34704510E-16
 -7.17553442E-16  1.21751073E-03  1.76796710E-16  1.75826819E-03  1.90951742E-03
 -3.03990233E-17 -2.65682486E-17 -4.81629635E-03  5.57644039E-16  2.30606361E-05
  5.09523014E-17 -4.19936459E-18  3.60597377E-17  4.95675183E-17 -4.66743284E-16
  5.40502301E-03  9.24573917E-16  2.56774205E-15 -5.43434412E-03  2.23590819E-15
  3.58715389E-03 -1.35469177E-15  7.28292420E-03 -5.09529720E-16 -2.58295567E-03
 -3.83897123E-03  4.06987683E-16  3.95268009E-03 -1.43615339E-15  2.65377855E-16
  1.76206021E-03  5.86617531E-03 -6.95421795E-17  3.32760786E-03 -1.75441783E-15
  2.27680280E-17 -4.52094125E-18  1.78146245E-17  4.18738526E-17  4.58643991E-18
  2.02419431E-16  1.04894724E-06 -6.88825721E-05 -2.37658565E-16 -5.21219484E-04
  2.31356254E-16 -2.98900253E-04  2.14878774E-16  6.25671448E-04 -4.04833207E-16
  4.38841633E-18  5.73286664E-04  1.37453876E-16  5.51440619E-04  3.33907527E-04
  2.17542710E-16  3.56813852E-16  9.12342015E-04  6.15467867E-17  1.11722989E-05
 -8.76102476E-18 -2.89191854E-18 -3.94306263E-17 -3.86080862E-18 -5.55168588E-17
 -1.19489573E-16  6.67474057E-04 -4.99000123E-03 -1.84695464E-15  4.17849618E-03
 -3.38684801E-15  1.47642081E-03 -5.58716583E-17 -6.69258613E-03  7.27064730E-17
 -3.31383647E-17  7.57983211E-04 -1.53151969E-16  7.71848864E-04  3.12998652E-03
 -1.84835943E-16 -2.58056757E-16 -4.86865797E-03  5.75508951E-16  3.19234555E-04
  6.61136146E-17 -5.10730773E-19  5.42266899E-19  7.06471651E-17 -6.32412959E-17
  8.28899635E-04 -4.96542074E-17 -1.50222896E-16  1.60109097E-04 -4.22243868E-15
 -5.26377311E-03  2.69711295E-15  4.09205175E-04  4.45309887E-16  4.04601063E-03
 -7.78520854E-04 -3.67540389E-17 -6.18603349E-04 -1.51225557E-16  2.94047893E-17
 -4.20722869E-04 -9.19026917E-04 -1.69551755E-16 -1.12702676E-03  6.18487733E-16
 -9.16623597E-18  4.82045546E-18  1.26242741E-17 -2.22473308E-17 -3.24021042E-17
  9.44093887E-05 -5.80615066E-17 -4.03626859E-16  9.45343686E-04 -3.52341783E-15
 -4.51766651E-03  2.04026106E-15 -1.28039958E-03  2.94256327E-16  1.42236908E-03
  8.54290749E-04  4.08706561E-17 -7.77572765E-04  1.84578900E-16  2.18464506E-16
  7.62957778E-04 -1.20470114E-03  1.27607631E-16 -1.73696234E-04  1.02258587E-16
 -4.37487365E-18  2.45736033E-18 -1.00395465E-16  1.37934922E-17 -6.99217539E-17
 -1.40083423E-16  1.29606920E-03  2.13429322E-03  2.10814462E-16  7.86641639E-03
 -8.24096678E-15 -3.61776333E-03 -2.02200998E-16 -3.05573459E-03 -4.95559837E-16
  2.05379422E-16  4.75775529E-04 -4.89768925E-16 -2.43252209E-03 -2.16516917E-03
  1.02610268E-16 -1.16055876E-16  1.06720206E-04 -2.80858142E-16 -4.84147140E-04
  1.01092646E-16 -2.14626626E-17 -1.91431292E-17  7.08706925E-17 -3.73116407E-17
  5.25662640E-04  1.60636700E-16 -2.57587372E-16  1.88237589E-04  3.93252629E-15
  5.79089726E-03 -2.36741439E-15 -8.14781365E-04 -1.75848626E-16 -2.72892264E-03
  1.52497661E-03 -1.08112910E-16 -1.44883525E-04  1.61001467E-16  1.78627986E-16
  4.93841678E-05 -4.36317744E-04 -1.06903144E-16  8.07103339E-06  1.38977946E-16
  1.14887177E-16 -7.59585979E-18  1.47566012E-17  8.29391144E-17  6.10287658E-17
 -3.05505684E-04 -1.73263376E-16  2.67709810E-16 -2.88705963E-04 -2.08462845E-15
 -2.78484101E-03  9.71158964E-16  1.25451691E-03  1.10955026E-16  6.09252621E-04
 -2.37453351E-03  2.51660390E-16  8.96953415E-04 -9.71883211E-17  8.86642389E-18
 -3.06485861E-03  2.71959993E-03  1.76626675E-16  7.49132796E-04 -3.68555244E-16
 -7.77918071E-17  6.59439983E-18 -2.36123756E-17  1.29215505E-17 -1.39515042E-17
  1.26216939E-16  2.22993231E-04  5.38569322E-04  2.63367947E-16  1.17796206E-03
 -1.51403747E-15 -1.59407557E-03 -1.70394448E-16 -1.63140626E-03 -1.15644332E-16
 -2.84724463E-16 -2.79328725E-03 -1.77107501E-16 -1.31044407E-03  2.26670373E-03
 -2.33991598E-16 -2.79107845E-16  2.75785288E-03 -7.76858910E-16 -7.62026405E-04
 -5.33063909E-16  3.06331222E-18  1.35355214E-16 -6.80008407E-16 -2.96756269E-17
  8.24147436E-17  1.14704649E-03  6.55741588E-04  3.26650921E-16 -2.12388052E-03
  2.05792936E-15  8.75326779E-04  7.78949818E-17  2.64847543E-04  3.03286845E-16
  3.62759835E-16  9.24061806E-04  5.27775753E-17 -1.48370046E-04  1.11686537E-04
  2.22188228E-16  3.52266778E-16 -5.54116400E-04  5.45530606E-16  3.80073617E-04
  4.42097825E-16  3.39324100E-18 -1.54847709E-16  4.28479696E-16 -6.98306750E-17
 -2.88391980E-16  9.11192486E-04 -1.45935941E-03 -5.87825599E-16  7.20010843E-04
 -6.95880500E-18  1.65153569E-03  2.13796021E-16 -2.22401685E-04 -5.38443848E-16
  1.18823442E-16  1.34719768E-03 -1.99150720E-16  2.43075027E-04 -3.43373428E-03
 -2.49081913E-16 -5.38478363E-16  2.14854873E-03  2.71764104E-16  1.33256776E-03
  1.19486378E-16 -9.76969776E-18  1.82852236E-16  2.08481632E-16  6.86404138E-17
 -1.87713597E-04 -2.04180082E-16 -3.76636520E-16  1.28842825E-03 -1.74117255E-17
  1.97099310E-04 -4.44900838E-16  2.34333960E-04  5.61439581E-17 -2.82989298E-03
 -7.28610359E-04  2.65000618E-16 -1.93349259E-03  1.09913455E-15  1.38068698E-16
 -3.54398770E-03 -4.39523399E-03 -2.69742972E-16 -3.09854178E-03  1.49427536E-15
 -1.44241520E-16 -2.06057917E-17 -1.83443311E-17 -1.37474511E-16 -3.10367985E-17
 -1.30249505E-16  8.12234478E-04 -1.79511546E-03 -7.44516004E-16  9.21354565E-04
 -7.77915456E-16 -5.63159754E-05  1.28277365E-16 -6.23675633E-06  5.95460465E-18
  1.24180573E-16  4.67104338E-04  2.54755709E-16 -1.54974313E-04 -2.29744120E-03
 -2.89013481E-17 -8.87743703E-18  1.12952176E-03  3.51705985E-16  7.90098547E-04
  1.49540432E-15 -4.51717822E-17 -3.20896157E-16  2.03576565E-15 -5.86559434E-17
  5.04304004E-17 -6.48132613E-04  1.17098279E-03  7.44546326E-16  8.45142661E-04
 -8.20245225E-16 -6.78038007E-06 -8.97470721E-17 -6.87341854E-04 -8.56125289E-17
  8.02637331E-17  3.18085350E-03 -2.09649484E-16  1.06884214E-03  1.61681244E-03
 -4.27536042E-16 -2.57269557E-16 -5.02418369E-03  2.21772665E-16 -6.78150454E-04
  8.63074903E-17  1.54607757E-17 -2.12636235E-16 -2.86488864E-16 -2.60349705E-16
  1.11495333E-03 -1.89461972E-16 -2.58627440E-15  5.68947158E-03  1.49645017E-15
  1.27301244E-03 -7.26656402E-16 -6.63382615E-04  3.75494537E-16 -5.66432998E-04
 -1.27873785E-03  1.31005160E-16 -6.45411940E-05 -1.07371320E-16 -3.05414757E-16
 -2.02184857E-03  2.38008302E-03  6.03806384E-16  1.46313187E-03 -6.42419238E-16
  2.50525588E-02 -1.38513630E-03  2.76969282E-15  4.13169233E-02 -3.20005385E-15
 -2.03734624E-17  6.37772826E-17 -1.17523695E-17  9.19093278E-17 -4.51258511E-17
  1.76406670E-17  8.24770644E-18 -3.52552860E-18  4.82266844E-17 -8.13152681E-18
 -2.69845754E-17 -1.32756858E-16 -1.36514476E-17 -3.96085420E-17 -4.56441944E-17
  1.25517957E-17  3.09629654E-17  2.11555988E-16  3.64480710E-17  2.67334091E-17
  9.10432705E-16  2.77527539E-18 -8.79088361E-16  5.44207034E-16 -4.84078691E-16
 -1.43029757E-15  7.02536232E-03  1.54116466E-03  1.30947503E-15 -5.84311074E-04
  1.52102021E-15  2.62772999E-03  9.35168531E-17 -1.09575514E-03 -1.10927247E-16
 -4.97942288E-17  1.08633787E-03  2.10833380E-17 -7.33805507E-05 -4.34488817E-04
 -1.73428020E-16  1.78113671E-16 -9.86406367E-05 -3.12244241E-16 -6.95140995E-04
 -1.15448018E-16  2.14743545E-17 -9.67646144E-16 -2.64708515E-16 -3.38805861E-16
  1.00740598E-03  7.50547510E-17  8.98081584E-16 -1.33078804E-03 -5.56124826E-16
 -6.47795247E-04  4.45326582E-16  5.26963068E-04 -2.69460413E-16 -4.04123556E-04
  1.86415291E-04  9.66848707E-17 -1.45938443E-03  6.15259067E-16  1.12041285E-16
  3.88960163E-04 -2.19102307E-03  2.47101667E-17 -5.35589041E-04  2.17404662E-16
  8.94743816E-16 -1.25917734E-17 -1.71807642E-15  5.11569541E-16 -1.01409846E-15
  5.97002356E-03  1.50376086E-15 -6.54601917E-16  2.67614914E-03 -3.68001529E-16
 -7.31000357E-04  3.79920048E-16  9.95036307E-04  8.35497022E-17  1.85716565E-05
 -1.13416067E-03  1.21298100E-16 -4.89127694E-04  1.34774684E-16 -5.22043573E-17
  1.21775264E-03 -1.02949592E-03 -1.48786196E-16 -4.53652867E-04  1.56787197E-16
 -1.39395183E-14 -5.51607722E-15 -1.86052012E-01  3.59142565E-15 -3.83238410E-02
 -3.16987159E-15 -1.17821774E-15  1.33480288E-16 -3.78565562E-16 -1.12431254E-16
 -1.12880000E-16 -5.56680148E-17  6.17256232E-17  4.63582597E-17 -1.28747173E-16
  4.75872972E-18 -3.03280961E-17  3.81971971E-18 -4.18436618E-17 -1.80438303E-17
 -7.51155731E-18  1.56628424E-17  2.58616404E-17  2.64475215E-17 -2.31167895E-17
  4.95835353E-01 -5.48912611E-03 -9.27043536E-15  1.68376951E-01  6.11725265E-16
 -2.84310192E-16  3.04742802E-17  2.05858123E-17  1.03580386E-16  7.81076069E-17
  2.23887982E-17 -8.51152846E-17 -4.70736102E-17  2.64210416E-17 -6.45401087E-17
 -3.07750945E-17 -5.28252334E-17  3.84705032E-18 -7.80097781E-18  1.03172963E-17
  3.53889945E-17 -2.66747520E-17  2.67178000E-17 -5.03677581E-20  1.03737957E-17
  2.65792392E-14  1.55843451E-14  4.27755599E-03  5.19433874E-15  1.47792909E-03
  5.52260223E-17 -1.84020302E-17 -4.08664229E-18 -3.22252348E-17 -1.99689648E-18
  1.34800923E-17 -9.21761139E-18 -1.67694844E-17  9.47220978E-18  1.40327454E-17
  4.28237053E-18 -1.36522436E-17 -1.88784766E-18  5.99676726E-18  8.29255240E-18
  8.54236053E-18 -7.89079477E-18 -5.14726253E-18  2.91701637E-18 -6.53697223E-18
  1.22298695E-14 -2.50802405E-14 -4.31059124E-01 -3.06210157E-15 -2.07355588E-02
 -1.61050484E-15 -6.31504714E-16  8.52043032E-17 -2.00294856E-16 -8.77037077E-17
 -7.76768280E-17  2.85828458E-18  1.07771103E-16  7.10885923E-17 -9.48647918E-17
 -1.29804215E-18  1.24129937E-17  1.41468591E-17 -3.24171539E-17 -2.05066017E-17
  2.36926442E-17  2.94151726E-17  2.20054457E-17  1.26871411E-17 -2.15066270E-17
  8.36377277E-19  1.21890674E-18  1.31500372E-19 -5.77389796E-19  6.63569661E-19
 -4.47180522E-06  6.04995935E-17  1.92969930E-16  9.11761786E-07  1.54323189E-16
  2.27179433E-06  7.26484741E-17 -5.06671953E-06  1.08148443E-16 -8.21135527E-07
 -3.42058208E-06  7.66717697E-17  1.01525684E-06 -2.90919758E-16  1.60709690E-16
  4.81959053E-07 -1.71444145E-08  7.37333497E-17 -2.94488135E-06  1.42083795E-16
 -6.51681681E-19 -1.15924533E-18 -3.28004524E-19  4.41282395E-19  3.08496054E-19
 -2.54166396E-16 -7.12695298E-07 -3.55217149E-06  6.46820845E-17 -1.70860901E-06
  1.25513841E-16 -1.01253801E-06 -2.52624986E-16 -1.39430523E-06 -2.51404258E-17
 -1.70586114E-16 -1.15606087E-06  6.05820828E-17  5.74188706E-06 -2.09281822E-06
  2.48840742E-17 -4.20663616E-18 -1.18143451E-06 -1.71773515E-16 -1.79331276E-06
  4.88272501E-19  9.28427091E-19 -3.95076318E-19 -3.40392443E-19 -7.30674892E-19
  1.30359068E-05  5.74562591E-15  2.84613473E-14 -1.26272681E-05  1.88856993E-14
 -1.25417429E-05 -1.61858577E-14  2.24532753E-05  1.97264063E-14  9.45555581E-07
 -1.30222868E-05 -1.23167310E-15  9.32695980E-06 -1.17225544E-14 -1.16056079E-14
  5.07832773E-06  1.57000632E-05  2.16626971E-14  8.28339649E-06 -2.97037303E-15
  1.72542243E-20 -1.09239928E-19  1.67608534E-19  2.73486859E-19 -6.66426581E-19
 -1.66403088E-14  4.43206829E-06  2.24090339E-05  1.61221682E-14  1.45894716E-05
  1.56432904E-14 -1.28426723E-05 -2.85039324E-14  1.53331792E-05 -1.58931017E-15
  1.66482912E-14 -9.51415864E-07 -1.19137334E-14 -9.44478135E-06 -9.27753756E-06
 -6.38004545E-15 -1.98874504E-14  1.70016302E-05 -1.04798452E-14 -2.52410142E-06
  1.07912141E-19 -2.47868283E-19 -3.11338770E-20  3.94948464E-20 -9.91334507E-19
  5.42227292E-06  6.00805292E-16  1.10663486E-16 -2.98671995E-06  2.12458621E-15
  5.48362309E-05  1.09466473E-15  1.45186129E-05  1.52729995E-15  7.79891799E-05
 -7.70090432E-06 -9.28766133E-16  1.27852619E-05  1.28502783E-15  6.66025182E-16
 -1.44178812E-05 -1.17743474E-05 -5.25434116E-17 -1.01855653E-05  1.49983217E-15
  2.07099027E-19 -5.68181455E-19 -4.49068036E-19  1.70884533E-19  9.32079582E-19
  9.10920165E-17 -1.74781453E-05 -6.80593249E-07  1.28265974E-17 -6.02723106E-05
  1.69589004E-15 -3.36876905E-05  7.67017591E-16 -4.37926994E-05  2.46315550E-15
 -1.24159304E-16  2.61971541E-05  4.24251126E-16 -4.02561958E-05 -2.14635438E-05
 -4.36167715E-16 -3.25539976E-16  2.39173093E-06 -3.26505334E-16 -4.45405195E-05
  4.10727210E-19  2.05054204E-19 -1.89234759E-19  7.05716921E-20 -4.69361247E-18
  5.31219779E-05 -4.27876658E-15  1.92309502E-15 -5.61862181E-05 -1.23810439E-14
  9.50469302E-05 -2.38050824E-15 -7.00391367E-05 -8.18316585E-15  1.23940897E-04
 -6.94707844E-05 -3.68354909E-15  1.89606996E-05 -1.22635694E-14 -8.80398920E-15
 -2.51372212E-05 -2.03400183E-05 -4.38835606E-15 -1.39499685E-05 -7.97110307E-15
 -3.70041044E-19 -9.04053144E-19  2.66624146E-19  5.66584431E-19  1.65408671E-18
 -6.64463564E-15 -3.38221957E-05  1.48869236E-05  7.04707359E-15 -9.79131411E-05
 -1.19345398E-14 -1.78618799E-05  8.81626629E-15 -6.44033186E-05 -1.56375674E-14
  8.69798629E-15 -2.98847612E-05 -2.38779367E-15 -9.64388471E-05 -6.94116094E-05
  3.17110986E-15  2.58775678E-15 -3.51023768E-05  1.74902191E-15 -6.24658762E-05
  6.24734920E-19 -4.78096098E-19  3.90250073E-20  3.91155384E-19  1.86650011E-19
 -2.07275564E-15 -1.81417698E-06  1.71295853E-05  2.35932182E-15 -2.41349247E-05
 -5.16862948E-15  7.46744651E-07 -3.30404020E-15  3.43923557E-05  3.47802864E-15
  1.22679083E-15 -3.90483026E-06 -2.25577082E-15  4.18736227E-07 -7.07255667E-06
 -1.06387463E-15 -3.27738064E-15  2.24325228E-05 -2.25392638E-15  4.16182448E-07
  7.66821179E-19 -1.30819314E-20 -2.44254263E-19  4.75278211E-20 -1.12585709E-18
  1.15871199E-05 -3.09453121E-16  2.99911105E-15 -1.31495812E-05 -4.18664270E-15
  2.90348535E-05  1.17060598E-16  1.87413698E-05  6.02230132E-15 -1.97621977E-05
 -6.79819958E-06 -6.73500192E-16  1.26825753E-05  8.53892936E-17 -1.22545144E-15
  6.03786153E-06  1.85057484E-05  3.93382694E-15  1.27055175E-05  7.39018815E-17
  1.34030120E-17 -4.92706031E-19 -4.32988082E-18  4.75537753E-20  6.15447948E-17
  1.41443020E-16 -7.65137818E-04  5.95635801E-04  4.68592750E-16 -2.58710267E-03
  1.62642642E-15 -4.92644253E-04 -6.87889372E-17 -1.02163583E-03 -2.00061903E-16
 -1.48122126E-16 -1.46400995E-03 -3.47787632E-16 -2.40336602E-03 -2.05953619E-03
 -2.18379222E-16 -1.91178217E-16 -7.85495736E-04 -6.24520183E-16 -1.42395358E-03
  1.80127374E-17  8.17986478E-18 -6.52469706E-18  2.68616510E-19 -1.31044619E-16
  1.45671800E-03  4.00995167E-16  7.00798310E-16 -1.49077283E-03  2.03965227E-15
  2.33985543E-03 -8.93785426E-16  3.20537788E-04  8.11738022E-17  1.96064241E-03
 -1.53859297E-03  3.12050682E-16  9.06996978E-04 -5.60217486E-16  2.82484917E-17
  7.25087324E-05  9.02192753E-04 -9.42334482E-17 -2.51703484E-04  1.40872737E-16
 -3.03515785E-18  6.63838275E-18  1.14875283E-17  7.65608530E-18  1.54500722E-17
  1.20235096E-16 -4.28797704E-04 -1.51240524E-03 -5.51430380E-16 -4.31261566E-04
  3.65920348E-16  4.51862991E-04 -2.84191659E-16 -2.14641043E-03 -2.01628645E-17
 -1.89943817E-16 -2.16283509E-05 -1.63424305E-16 -6.57510832E-04  7.33290968E-05
 -1.18499058E-16 -1.17915097E-16 -1.54470760E-03 -5.28761188E-17 -4.97155607E-04
  2.71809546E-18  1.26286118E-18  1.40396763E-17 -3.72067802E-18  2.32951656E-16
 -2.65998043E-03 -9.20874819E-16 -1.20163211E-15  2.72908296E-03 -2.88601444E-15
 -3.09253581E-03  1.07874404E-15  3.31347387E-03 -4.07652911E-16 -3.42110384E-03
  2.56584310E-03 -4.59747542E-16 -5.49690777E-04  2.75616309E-16 -1.93728666E-18
  7.44412366E-04  6.27670035E-04 -1.20715230E-16 -1.22729861E-04  5.84765041E-17
 -8.87703388E-18  4.95938767E-18  3.82368869E-18 -2.92862974E-18  6.41200643E-17
 -5.67157764E-04 -3.48517889E-16 -1.04250988E-16  4.92679886E-04 -2.25248862E-15
 -2.28475787E-03  8.39336916E-16  2.39020901E-03 -1.89460712E-16 -4.30073888E-03
  1.17501267E-03 -3.24815480E-16 -2.60613362E-05  3.78139456E-16  6.96742165E-17
  5.62168372E-04  9.77883983E-04  9.68035263E-17  1.46745119E-03 -7.15039940E-16
 -1.06645984E-17 -1.28924328E-18  2.55416931E-17  8.73324461E-18  1.00010480E-16
  2.04653447E-16 -1.82864813E-03  9.50044819E-04  9.34721566E-16 -4.86222677E-03
  3.33681425E-15 -7.20250922E-04 -8.84262888E-17 -2.19725353E-03 -7.94999977E-17
 -1.23148752E-17 -1.01977372E-04 -3.95798213E-16 -2.28148906E-03 -1.55668985E-03
 -1.47816925E-16 -1.40217308E-16 -2.10204525E-04 -5.91475579E-16 -1.21388243E-03
 -2.12741238E-17 -1.18100701E-17  5.73208585E-18  1.38630659E-17 -5.39198146E-17
 -7.59332405E-17  1.18474394E-04 -2.34014241E-04 -3.82470470E-16  2.50513035E-03
 -8.38546757E-16  2.42813322E-03  7.50404666E-18  2.66856523E-03 -4.20242355E-16
  1.87980173E-16  7.48763320E-04 -4.51754465E-17  3.59201646E-04  1.45652345E-03
  3.58833121E-17  9.89203623E-17  6.83240816E-04  4.77789630E-16  1.11414021E-03
 -3.08700442E-17 -1.70658353E-17  1.87617981E-17 -1.57174765E-17 -5.18547647E-17
  3.23926742E-04  3.97866145E-17  2.24039721E-16 -3.65076595E-04  2.17755435E-15
  3.02953813E-03 -1.25641891E-15 -7.50153049E-04 -3.06491352E-16  7.23449752E-04
 -1.26893484E-04  1.18732780E-16 -8.48275966E-05 -3.74920909E-16 -1.02541901E-16
  4.38858657E-05  2.86405719E-05 -1.13682188E-16 -5.61591432E-04  2.17114898E-16
  3.46985812E-17  1.60238053E-17  2.53915964E-17 -1.75443341E-17  9.58309934E-17
  1.56756402E-16 -1.96399793E-03  2.15161965E-03  1.17155758E-15 -1.28015729E-03
  4.89420546E-16  1.38965595E-04 -1.37856831E-16 -2.75577788E-03 -2.18622576E-16
 -1.01014749E-16  5.89791990E-05 -3.57495558E-16 -2.36805478E-03 -8.78943283E-04
 -1.21463513E-16 -1.09342207E-16 -1.67612097E-04  6.94869750E-17  3.65879707E-05
  6.50562429E-17  2.66441971E-17  7.20562406E-17 -6.25817110E-17  2.06359138E-17
  1.52900426E-16 -3.20918249E-04  1.13405879E-03  5.64026506E-16  1.56270092E-04
  7.08149620E-16  1.22623288E-03 -1.72778046E-16 -4.87856556E-05  1.64133722E-16
 -3.10020920E-16 -1.09805541E-03  2.38893223E-16  8.56098983E-04  9.71521090E-04
  3.21140083E-17 -7.49665909E-17 -3.95091771E-04  5.48411958E-16  1.03204791E-03
 -1.49171271E-17  5.72694837E-18 -7.25032193E-17  4.29032956E-17 -8.77700963E-17
  8.28422638E-04  7.25065780E-17  7.03375118E-17 -1.79877084E-04  1.91165465E-15
  1.86725246E-03 -7.77405081E-16  7.91883660E-04  6.08828560E-17  2.00223405E-03
 -1.74882694E-04  2.15372113E-16  2.05731509E-04  1.37362023E-17 -1.16114833E-16
 -1.37566958E-03 -1.05022794E-03  1.31467883E-16  2.45086088E-04 -1.68332348E-16
  6.11820715E-18 -4.92498347E-18 -2.69912873E-16 -1.39254084E-18  6.69429086E-18
  1.76532850E-03  5.09071320E-16  9.68776809E-16 -2.30257350E-03  1.69572578E-15
  2.03134281E-03 -6.58736616E-16 -2.77981373E-04 -6.70636213E-17  3.09662506E-03
  2.38261341E-04 -8.41276933E-17 -2.36063399E-03  2.49193325E-16 -1.88247725E-16
 -8.92296438E-04  3.40788352E-04 -5.01307187E-17  4.40529199E-04 -3.10545625E-16
  7.27709680E-17  5.98122390E-17  2.23486379E-16 -1.31015005E-16 -3.70616078E-17
  4.24448676E-04  2.36320807E-17  7.73254609E-17 -5.28879889E-05 -1.51143626E-15
 -1.89212396E-03  9.01713082E-16  1.93159076E-03 -1.46684962E-16 -1.61252688E-03
  2.98198655E-03 -7.13628375E-16 -1.13383347E-03  6.55894100E-16  8.75114305E-17
 -9.54322824E-05 -6.16078802E-04  2.88237073E-16  1.00862705E-03 -5.75290814E-16
  7.35144685E-17  1.26678691E-16  1.71342069E-16 -5.85663289E-17 -1.54319716E-16
  5.88672559E-17  6.13522352E-04 -1.11655489E-03 -8.14355196E-16  1.82967236E-03
 -9.79810097E-16  8.21670850E-05 -4.17605568E-16  1.32717405E-03  1.91672457E-16
 -2.15601671E-16 -1.99842239E-04 -1.38494290E-16  2.44699473E-04  7.86961110E-04
  1.13647262E-16  3.35284281E-16  1.41250411E-03 -3.79770082E-16 -1.37699768E-04
  7.10558151E-18 -4.74188512E-17 -2.56538713E-17 -5.05013510E-17  1.68759777E-16
 -1.67737992E-03 -1.99065588E-16 -2.94875601E-16  1.11136026E-03  2.20942723E-16
  1.35867323E-04 -1.79651746E-16  3.42748407E-04  4.33123447E-17 -2.82149442E-05
 -1.58246516E-03  2.43177053E-16  1.70184586E-03 -3.58866037E-16  1.87108009E-16
  1.03630002E-03 -1.41583104E-03  3.14906841E-17  1.06577428E-04  1.90523884E-17
 -1.00962384E-16 -7.55392216E-17  1.20726471E-15  3.00334702E-18 -7.76775050E-16
 -2.25022118E-05 -1.69686153E-16 -4.74895882E-16  9.09296442E-04  7.13812741E-16
  6.32454016E-04 -1.72805381E-16  1.75341186E-03 -5.11664411E-17  1.48547363E-03
  7.66262462E-04  1.48738331E-17  1.18887919E-03 -2.27925973E-16  2.22023983E-16
 -1.30348381E-04 -7.64023259E-05  2.13025106E-16  1.37054776E-03 -7.65231406E-16
  1.13217412E-16  4.83154685E-17 -1.11220803E-16 -2.19837055E-16  3.25148602E-16
  2.13186592E-16 -9.49121348E-04 -2.85954234E-04 -3.86413311E-16  5.39680374E-04
 -9.97926750E-16 -5.97004620E-04  7.06024806E-17  4.44474188E-04 -3.43957342E-16
  3.57681605E-16  1.22395920E-03 -5.58186209E-16 -8.51746538E-04  1.40327497E-03
 -3.89643085E-17  1.81209201E-17  5.14190269E-05 -1.41508214E-16 -1.05858055E-04
  3.66469072E-15  5.50856463E-15  2.86352103E-02 -7.42796022E-16 -2.04726583E-02
 -1.56569880E-15 -5.42183116E-16  6.26915829E-17 -2.13325612E-16 -2.06036108E-17
 -3.42178552E-17 -5.74533064E-17 -1.25630038E-16 -1.80059176E-17 -3.90869601E-17
 -5.56698838E-17  5.70951104E-19 -8.80639741E-17 -3.70315656E-17  2.40112456E-17
  3.94546103E-18  1.82639169E-17 -2.26575516E-18 -6.65235615E-17  1.77529584E-17
 -2.98773028E-17 -4.97718129E-17  3.61132045E-16 -3.28044101E-16  1.85126177E-16
 -1.16327511E-03 -3.70790855E-16  1.31542627E-16 -6.94450742E-04  8.60564975E-16
  8.31329115E-04 -3.78106399E-16 -5.85873443E-04  1.51836927E-16  1.00635805E-03
 -9.83855319E-04  5.30070052E-16  1.64091150E-03 -5.78679205E-16  1.90672107E-16
  4.41500886E-04 -1.93325920E-04 -3.78613613E-17 -6.80365773E-04  3.63951992E-16
 -2.54741353E-16 -2.51580046E-16 -2.71738756E-16 -1.03670500E-16  2.00474583E-16
 -1.96862472E-16 -6.41953783E-04  2.22281650E-03  1.05233505E-15 -1.47773357E-04
  7.30277211E-16  1.22173501E-03 -1.50929422E-16 -7.11144867E-04 -1.12555212E-16
 -1.33008964E-16 -5.35841824E-07 -2.75642244E-16 -1.34080072E-03  6.98286346E-04
 -1.02115409E-16 -1.44098852E-16  3.54914778E-04  1.44127430E-15  2.59110125E-03
 -3.81251983E-16 -4.30188870E-16  2.33154315E-16 -3.40089007E-16  1.19055148E-16
 -3.80625016E-16 -1.57416754E-04  3.18702913E-05 -1.24200329E-16 -4.43460643E-04
  1.92734524E-16 -8.06609535E-04 -9.91331579E-17 -1.45730206E-04  2.74146302E-16
 -5.00440149E-16 -2.42642477E-03  6.78764857E-16  1.40826627E-03 -1.46754055E-03
  9.17512862E-18 -8.32620997E-17 -6.45646597E-04  7.75515209E-17 -4.09032058E-05
 -7.45035649E-02 -8.25188789E-02  4.88966563E-15 -1.42071220E-02  9.32446529E-17
  4.12182891E-17  1.05288370E-17 -7.74394929E-18 -2.51868832E-17  4.08337193E-18
 -3.24909844E-17  9.71290530E-18  1.88443024E-17  9.66684957E-18  1.44085648E-17
  1.52190787E-17  3.38675376E-17 -1.66377641E-17 -1.08497647E-17  1.72741720E-17
  3.53924360E-18  1.40044058E-18 -3.06902790E-18  1.45911025E-18 -2.41310270E-17
 -1.48820877E-14 -7.71459489E-15  5.58044395E-02  1.15654915E-15  2.37413884E-02
  1.81789497E-15  6.18324520E-16 -7.20308410E-17  1.65256108E-16  6.05256697E-17
  5.49329239E-17  3.38218273E-17 -2.16571684E-17 -2.20736050E-19  5.83962601E-17
  5.10327663E-18  1.23983754E-17 -8.10973313E-18  1.70763809E-17  1.85550404E-17
 -1.30275688E-18 -1.05585533E-17 -4.00258856E-18 -6.87048326E-18  1.53883379E-18
  4.95300703E-01  2.01811477E-01 -4.84860039E-15 -7.77694690E-02 -3.52236261E-16
  3.62551238E-17 -5.27540527E-17 -5.64532584E-17  2.23321878E-17 -4.07171007E-17
  2.85392698E-17 -2.42808996E-17 -5.28202458E-17 -3.87355025E-17 -2.32631691E-17
  2.97827509E-17  3.85108332E-18  3.49493850E-17 -2.18102897E-17 -3.77537945E-18
 -2.90390711E-17  6.42461828E-18  2.35920737E-17 -4.06145426E-18 -7.38914095E-18
 -3.80935371E-02  4.30256112E-01 -4.92384827E-15 -5.88535864E-02  4.14592908E-16
  2.65955062E-17 -8.01504701E-17 -4.99756059E-17 -5.43320532E-17 -3.28935560E-17
  3.57723000E-17 -3.84416550E-18 -2.79883546E-17 -2.77070838E-17  9.51650060E-18
  2.35792198E-18 -1.90524113E-17  1.26450384E-17  9.23408812E-18  1.03290005E-18
 -9.80476366E-18  1.38869465E-18  1.32893781E-17 -5.61803517E-18  9.70555882E-18
 -1.09321367E-20  8.68854612E-19  6.17917137E-19 -4.67242719E-19  2.60350282E-18
 -2.75410130E-05  9.89217336E-16  8.58555296E-16 -7.62475683E-06  1.17126126E-15
  1.44159709E-05  5.17786602E-16 -3.81932167E-05  1.06889166E-15 -5.96797565E-06
 -3.18825239E-05  1.62190106E-16 -2.92969959E-06 -1.80124090E-15  1.32899033E-15
 -1.87852927E-06 -1.94814603E-06  5.05314006E-17 -2.38536364E-07  1.09975665E-15
  5.90813223E-20 -1.01759708E-18 -4.65062572E-19  2.41750505E-19  8.07359646E-19
 -1.50833786E-15 -1.69212255E-05 -1.50629017E-05 -4.52965887E-16 -1.91691422E-05
  7.35591363E-16 -8.64423217E-06 -2.18562884E-15 -1.81586234E-05 -4.07395354E-16
 -1.78408261E-15 -2.88435013E-06 -1.78174507E-16  3.17889091E-05 -2.24313947E-05
 -8.92444613E-17 -9.35725603E-17 -1.05232527E-06 -1.50895905E-17 -1.83129775E-05
 -1.50870396E-19  3.39893153E-19 -5.12395776E-19 -4.91370482E-19 -1.63550955E-18
  2.83457883E-05  1.16198081E-14  6.58584240E-14 -2.87910407E-05  4.32899527E-14
 -2.19573922E-05 -3.24186180E-14  5.29770972E-05  4.58267848E-14  1.06225513E-05
 -3.07974964E-05 -1.15173996E-14  2.24688107E-05 -2.77974388E-14 -3.12768250E-14
  9.48642039E-06  3.44155623E-05  4.44217593E-14  1.75179438E-05 -5.12688454E-15
  2.41300772E-19 -4.87233322E-19  2.74989140E-19  1.00261280E-19 -6.70116169E-19
 -3.62258264E-14  9.12165687E-06  5.18588421E-05  3.68229556E-14  3.40711807E-05
  2.80428939E-14 -2.53805150E-05 -6.68626670E-14  3.60820027E-05 -1.32330961E-14
  3.93443338E-14 -9.33264543E-06 -2.84835188E-14 -2.19465935E-05 -2.47305284E-05
 -1.20989291E-14 -4.37700113E-14  3.48037426E-05 -2.22917842E-14 -3.98611366E-06
 -1.98677087E-19  1.03353888E-19  3.66849708E-20  3.06677699E-19 -4.15933576E-18
  5.47323657E-05 -3.65130206E-16 -6.06323512E-16 -6.23739678E-05 -2.30924016E-15
 -8.30627388E-05 -3.39164020E-15 -1.37915850E-04 -1.90439763E-15 -1.26733569E-04
 -5.47010468E-05  5.06412681E-15 -2.81714978E-05 -3.88025711E-16  9.55538948E-16
  2.12826424E-05  2.29458922E-05  2.38935741E-15  1.46201516E-05 -2.47197575E-15
  1.39125846E-19  2.42108464E-19 -7.31991632E-19  2.35576589E-19 -7.29095374E-19
  1.94150693E-15  1.07254274E-05  2.27790078E-05 -2.21705276E-15  6.25835695E-05
 -3.18266763E-15  9.21442444E-05 -4.67801798E-15  5.48235572E-05 -4.68961116E-15
 -1.96384477E-15 -1.41584977E-04 -9.67518304E-16  6.04386646E-06 -3.00877323E-05
  8.20055734E-16  9.39940793E-16 -6.37213872E-05  6.32210938E-16  6.64134323E-05
  8.50512531E-20  5.62237084E-19 -1.66022652E-19  4.40215976E-19 -2.18678541E-18
  1.75671094E-05 -3.65952111E-15  1.39752857E-16 -1.49109403E-05 -1.21715085E-14
  9.79724805E-05 -6.47413897E-15  5.33384673E-06 -8.70575250E-15  1.36932359E-04
 -2.61592820E-05  4.75863109E-15  2.58922507E-05 -9.47227180E-15 -4.83549647E-15
 -2.67518948E-05 -2.47221502E-05  1.64475510E-16 -1.40007550E-05 -9.37344392E-15
  8.89483037E-20 -6.05866089E-19  4.88707255E-19  5.68211936E-19  1.09988594E-18
 -2.16728533E-15 -2.92903195E-05  1.89753835E-08  1.83707639E-15 -9.85942864E-05
 -1.21790862E-14 -5.28712357E-05 -5.23849473E-16 -7.06034047E-05 -1.70487421E-14
  3.22723804E-15  4.10133681E-05 -3.19578129E-15 -7.48107570E-05 -3.72458447E-05
  3.34968379E-15  3.14665982E-15  2.41562458E-06  1.73988080E-15 -7.57001997E-05
  7.59329407E-19  6.65498345E-19  4.11946690E-19  1.09996646E-18 -1.59238894E-19
 -4.28686305E-15 -3.81903121E-06  3.54949027E-05  4.89063533E-15 -4.95657076E-05
 -1.07151396E-14  1.29778384E-06 -6.91415300E-15  7.04469049E-05  7.09639729E-15
  2.50997911E-15 -8.19588908E-06 -4.65792489E-15  7.34704326E-07 -1.45730319E-05
 -2.21677459E-15 -6.79428728E-15  4.61034921E-05 -4.63510270E-15  8.18774645E-07
  2.48528648E-19  1.20912742E-18 -1.22283953E-19  8.45073210E-19 -3.08469821E-18
  2.39405762E-05 -6.52888541E-16  6.17869922E-15 -2.72554996E-05 -8.53571991E-15
  5.99102026E-05  2.16940779E-16  3.86587191E-05  1.22464158E-14 -3.98526662E-05
 -1.40426360E-05 -1.44975545E-15  2.60245115E-05  1.39520820E-16 -2.53281095E-15
  1.24548688E-05  3.80879497E-05  8.00680733E-15  2.59426134E-05  1.49203626E-16
  6.96693246E-19 -3.75124634E-18 -1.04736949E-17  5.06998043E-18  1.05962065E-16
  5.87370410E-16 -1.90257301E-03  1.02346944E-04  2.03675822E-16 -5.05845648E-03
  1.91596362E-15 -3.89655694E-03 -5.18955409E-17 -3.03750417E-03  1.63524761E-16
  5.42785008E-16  3.23149556E-03 -4.84849361E-16 -1.89890474E-03 -1.67115341E-03
  4.17187840E-17  1.98795546E-16  1.58555436E-03 -2.23693763E-15 -3.92872909E-03
  1.48854353E-17 -2.87862634E-17 -9.28789079E-19  1.27225521E-17 -1.48924045E-16
  2.04411705E-03  4.99765872E-16  1.59822753E-15 -3.42038749E-03  5.46559519E-16
  1.00849185E-03 -5.77327951E-16 -8.63069410E-04  6.66706329E-17 -1.13563985E-03
 -3.41460117E-03  7.07135467E-16  1.07793725E-03 -5.43828890E-16  1.35423238E-16
  5.88558232E-04  1.74870228E-03  1.32231462E-16  1.27224849E-03 -7.80511619E-16
  2.33295489E-17  6.24175146E-18  2.24254510E-17  7.32145526E-18  3.42206863E-17
  1.87020279E-16 -7.58525591E-04 -3.60227084E-03 -1.13010402E-15 -1.19995459E-03
  7.96536716E-16 -3.18481994E-04 -7.40787856E-17 -5.01494923E-03  5.66057889E-16
  8.63034907E-17  2.33311872E-03 -1.89463574E-16 -5.97630227E-04  1.20106813E-03
 -8.05216163E-17  2.14491840E-18 -2.16934580E-03 -5.66444985E-16 -1.52912680E-03
  6.52425683E-18  6.28896890E-18  1.83166076E-17  2.11978377E-18  2.63738089E-17
  6.49865710E-04 -9.79634913E-17  3.14405185E-16 -1.13525287E-03 -7.48638824E-15
 -7.66155557E-03  2.68540362E-15 -4.64535634E-03 -2.49005421E-16 -9.85100165E-03
 -4.86618880E-04  1.04429363E-16 -2.01139183E-03  8.07394586E-16  1.65821208E-16
  1.64518594E-03  1.63456933E-03  1.35012458E-16  3.67152701E-04 -4.11423327E-16
  3.60108477E-19  2.50272935E-17  1.27976895E-17 -4.63249888E-18 -8.95524557E-17
  5.95939998E-04 -2.20290593E-16 -7.42413046E-17  6.84906054E-04  7.86004889E-16
  9.64733775E-04 -1.78000302E-16  6.40199254E-03 -3.61420769E-16 -1.29316258E-03
  2.08165215E-03 -5.37087632E-16  1.28849916E-03 -1.78550893E-16  5.96939189E-17
  3.85903369E-04  2.32894835E-03 -4.34124596E-16  6.42181321E-04 -1.53729262E-17
 -9.54440625E-18  4.91032032E-17  5.00144687E-17  2.55909096E-17  3.59786599E-17
 -9.21062790E-17 -7.65869989E-04 -2.89883717E-05  6.97439848E-16 -3.67218135E-03
  3.85361466E-15  1.99931925E-03  1.97059681E-16  1.16593332E-03 -4.49032730E-16
  2.45950740E-17 -1.63853238E-03 -5.76663439E-16 -3.78082297E-03 -7.66323791E-04
 -3.80061713E-16 -3.65097282E-16 -7.18504242E-04 -1.46477669E-16 -2.35917078E-04
  1.24778741E-17  6.48866655E-18 -3.45886724E-17 -1.05427501E-19  3.27563665E-17
  2.80502296E-16 -3.40678922E-05 -8.96660021E-04 -3.82827155E-16 -3.44999964E-03
  9.04433792E-16 -3.73536746E-03  1.78488417E-16 -2.98444639E-04  1.63793152E-16
  1.12406447E-15  6.43589500E-03 -7.86651253E-16 -1.28924442E-03  1.88761246E-03
  6.67974998E-17  2.03456802E-16  2.61821870E-03 -8.29979544E-16 -8.46420038E-04
 -5.43891823E-17  3.48611404E-17 -8.04716812E-18 -6.08624614E-18 -6.97515757E-17
  1.10557293E-03  5.69744386E-16  2.63674763E-16 -1.04914703E-03  9.31130773E-16
  2.12540046E-03 -1.07549162E-15 -3.73829574E-03 -1.66460639E-16 -3.70100696E-03
 -4.33609702E-04  1.73762269E-16 -7.60044320E-04 -1.87107930E-16  1.50239788E-16
  8.98398104E-04  9.68899315E-05 -7.89597487E-17 -1.23448924E-04 -5.36145658E-17
 -4.80450729E-17  6.34844338E-17  4.29468804E-17  2.45630587E-17  1.81848099E-17
 -2.12048139E-16  3.97149033E-04  3.74101084E-04  3.61421549E-16 -2.23793991E-05
 -1.71017972E-15 -2.06893371E-03  4.66781405E-16 -1.39059740E-03 -9.95117513E-17
  2.06227150E-16  5.76909908E-04 -6.82052958E-16 -4.45176888E-03 -8.91333881E-05
 -3.92185016E-16 -2.17179644E-16 -4.50934854E-04  8.62226527E-16  1.48083208E-03
 -3.62396344E-17  1.47252687E-16  3.85027580E-17  4.45072857E-17 -1.28578178E-17
  4.83295415E-16  5.52450353E-04  1.94958709E-04  3.64147103E-16 -2.02376388E-03
  9.94308868E-16 -2.00603762E-03 -4.12137568E-16 -1.17715517E-03  4.15422899E-16
 -3.06079670E-16  2.68958896E-05  4.14563984E-16  2.56256550E-03  2.24774038E-03
  3.52680449E-16 -3.64147396E-17 -2.40067364E-04  9.11294839E-16  1.63788805E-03
  2.50450525E-17 -6.96451367E-17 -6.60065660E-17 -4.08588855E-17  1.26564742E-17
  1.20082231E-03 -2.24620416E-17  6.10923780E-16 -1.21179715E-03  1.45927299E-15
  1.24440330E-03 -7.44869224E-16 -1.39690333E-03  2.41411360E-16  2.32477908E-04
 -1.82916447E-03  7.26986011E-16  5.75217959E-04  1.16485059E-16 -2.07916775E-16
 -2.37545234E-03 -2.64051667E-03  4.68230737E-16  1.57307290E-03 -1.00309600E-15
  1.48787075E-18  1.11639149E-16 -7.85859643E-16  8.34514191E-17  6.75412155E-17
  5.05201436E-03  1.20449865E-15  1.18760608E-15 -2.84011004E-03 -1.93730464E-15
 -2.17910464E-03  1.04729175E-15 -2.69830756E-03  1.24500366E-16 -6.09193994E-04
  2.39437818E-03 -1.39788797E-16  8.00543331E-04  1.66759233E-16  1.98183110E-17
 -9.49493489E-04  9.67648820E-04 -3.27049003E-16 -2.60822721E-04  1.85952595E-16
 -1.21556754E-16  3.87523474E-16  3.27396508E-16  6.71194112E-18  9.46550809E-17
 -1.71671681E-03  9.61257892E-17  4.93023398E-16 -8.57519731E-04  2.65277864E-16
  2.73120893E-04 -2.66453183E-16  1.74438515E-03 -2.51837723E-16  1.46570409E-04
  9.30746814E-04 -4.49393032E-16 -2.20204166E-03  5.87007232E-16  2.70815664E-16
  5.28434842E-04 -2.20725866E-03  7.01519208E-16  1.82345283E-03 -1.14578386E-15
  1.03072699E-16  1.81804103E-16  3.05629305E-16  5.82283083E-17 -3.25233875E-16
  7.74771192E-16  2.07951333E-04 -1.28457170E-03 -2.80209395E-16  2.07304332E-04
 -9.44697614E-16 -1.32770006E-03 -5.72704916E-16  3.36246865E-04 -3.31128133E-16
  7.25729650E-16  8.45544974E-05 -2.81886203E-16 -1.68399698E-03  8.00441579E-04
  1.29042995E-16  7.27610266E-16  2.87216613E-03 -1.24875435E-15 -8.68324490E-04
 -1.38160228E-16  2.11205824E-16 -4.88014627E-17  8.14234909E-17 -2.25077559E-16
  1.06326220E-03  5.35703818E-16  3.99386499E-17  7.87799125E-04  2.08312669E-15
  2.18535779E-03 -9.90249274E-16  6.29089430E-04 -2.95176041E-16  2.82116159E-03
  2.20196987E-03 -3.15423918E-17  5.65698273E-03 -9.36426319E-16  2.35558616E-16
 -9.68850266E-04 -2.51834391E-03 -1.50462705E-16 -4.58250355E-04  4.93360910E-16
 -1.31554201E-16 -1.09809642E-17  2.82667046E-15 -8.63177786E-17 -2.23250350E-15
  5.54714767E-04 -1.72818354E-17  1.43189459E-16 -8.36100131E-04  4.25778101E-16
  6.56841715E-04  1.13055615E-16 -1.60262623E-03 -6.33781943E-17  8.75584196E-04
 -1.47116304E-03  3.36265192E-16  1.75549007E-03 -4.41519975E-16  5.20551345E-16
 -4.18671975E-05 -6.05439172E-04  6.33343187E-16  4.07806904E-03 -2.41724893E-15
 -3.17848195E-16  7.96063801E-16 -7.52132212E-16  7.38783440E-17  9.54850270E-16
  3.82494708E-16 -3.55716665E-03  5.25183305E-04 -4.32994497E-17  1.45249655E-03
 -8.68082339E-16  1.45927693E-03  4.77395385E-16  8.11381882E-04 -4.14635269E-16
  3.79022743E-16  3.32931372E-04 -7.00971352E-16 -1.86216773E-03  1.34718818E-03
 -1.08638232E-16 -4.10469884E-17 -5.39762074E-04 -1.23461492E-15 -1.71523401E-03
  7.13683632E-15  9.50681717E-15  6.97630632E-02 -4.79451682E-16 -5.98351678E-02
 -4.78761656E-15 -1.69427760E-15  1.43571722E-16 -4.60240647E-16 -8.64726624E-17
 -1.91727566E-16 -1.09958535E-16 -5.24084613E-17 -6.84655377E-17 -1.32920753E-16
  5.39097192E-17 -5.54991170E-17 -8.26114553E-17 -2.54620370E-17 -7.34475948E-17
 -8.51986961E-17  4.98014031E-17 -3.64952033E-17 -2.06279798E-16 -1.18233766E-17
 -8.90388424E-16  1.20729464E-15  2.19504579E-16 -2.41303559E-17  4.64425131E-16
 -1.70383512E-03 -1.11690805E-15  6.53244505E-16 -2.30116177E-03 -1.84216212E-16
 -4.01708972E-04  3.20889416E-16 -5.60380417E-04  3.40909670E-16  3.96999153E-05
 -1.70706517E-03  4.46808622E-16  3.01709712E-04 -6.30942245E-16  5.01778203E-17
  1.18616532E-03 -1.64549950E-04 -2.71823726E-17 -1.72948081E-04 -1.09648515E-16
 -7.10126109E-16  2.54983509E-16 -6.17823827E-16 -1.81385285E-16  7.16161931E-16
 -1.03508215E-16 -3.09889289E-03  3.75629484E-03  1.60685191E-15  6.00523142E-04
  8.83975389E-16  2.31986852E-03 -3.92599327E-16 -2.78722055E-03  2.46230185E-16
 -3.08334943E-16  8.07114062E-04  5.51973384E-16  3.04342535E-03 -4.01792327E-04
  4.64640882E-16  1.76725179E-16  2.12111678E-03 -1.70968259E-16 -2.66407785E-04
 -1.81508124E-15  1.42929893E-15  1.40893451E-16 -1.19270304E-16  2.96862128E-16
 -1.03542862E-15  9.02549684E-04  9.83289883E-04 -4.08941229E-16  1.85629312E-04
 -1.48232208E-15 -3.51882566E-03 -2.01089590E-16 -5.06663911E-04  5.45603413E-16
 -6.76413311E-16 -1.87233765E-03  1.09341152E-15  3.74526800E-03 -6.94078995E-04
  1.40388942E-16  2.68418965E-17 -1.21755736E-04  8.82949753E-16  1.34653917E-03
 -1.83766097E-01  4.05070424E-02  8.32349971E-15 -2.12974497E-02 -7.32973586E-16
  7.39151827E-17 -1.79139310E-18 -3.84927644E-17 -1.54222817E-17 -2.32814640E-17
 -2.25462977E-18  5.27534904E-17  4.14053167E-17  2.56763205E-17  2.90461217E-17
  2.50891830E-17  6.39692940E-18 -6.03068144E-18 -6.39385898E-17 -1.40728425E-18
 -1.98185300E-17  1.36013126E-17 -1.58369001E-17 -1.93512582E-17 -4.48335233E-18
 -8.43564531E-15 -1.76328623E-14  1.21184125E-01 -3.72499855E-15  5.75862772E-02
  4.53974354E-15  1.57838058E-15 -1.57801346E-16  4.65024035E-16  1.24576079E-16
  1.32206519E-16  1.05657934E-16 -1.75564348E-17  2.95764166E-18  1.29294601E-16
  4.63304662E-17  5.01626331E-17  2.78855018E-17  3.66407187E-17  5.13495754E-17
  1.11367686E-17  1.13158139E-18  5.85244360E-18 -2.59110333E-17  1.01604999E-17
 -1.56010731E-01  5.92499132E-01 -2.81575756E-15  2.94136382E-02 -9.46921039E-16
  1.62219066E-17  1.85241623E-17  1.48402485E-18  2.30510350E-17 -1.24607296E-17
  4.05616422E-17  9.93978940E-18  4.51294631E-17  5.85601865E-18 -2.75099319E-17
 -7.03585102E-18 -3.32561873E-17  5.47276420E-18 -4.27363243E-17 -1.00220051E-17
 -1.00437042E-17  4.23204568E-18  1.70451280E-17 -1.57698882E-17  3.53693781E-18
 -9.81183067E-02 -1.73173672E-01  9.73523267E-15 -1.44391730E-01  4.08927771E-15
  1.06762655E-16 -6.06791770E-17 -5.68470646E-17 -6.45159568E-17 -4.33373939E-17
 -2.31516344E-17 -7.51990314E-18 -4.73540584E-17 -8.31544494E-18  7.91173226E-18
  1.61654444E-17  3.01132364E-17  9.78673934E-18  1.78880401E-17 -6.82182803E-18
 -1.95411421E-17  1.29033888E-17 -4.81231388E-18  3.52388452E-18 -3.86424315E-18
 -5.15414407E-19  6.14716149E-19  7.83842821E-20  1.96899422E-19 -2.27239859E-19
  1.17028286E-06  1.98268499E-17 -1.00176113E-16  1.01061926E-06 -5.14079983E-17
  1.81627507E-06 -1.25029052E-16  2.06055031E-06  2.07733452E-17  3.10902368E-06
  1.11051762E-06 -8.48734198E-17  1.60582630E-06 -1.61957556E-17 -1.09876945E-16
 -8.96410814E-07 -2.28572980E-06 -1.23692562E-16  3.36836718E-06 -5.08362535E-17
  2.86143246E-19 -5.59781238E-19  4.23917958E-20 -7.92520855E-20 -8.21462955E-20
  7.33815143E-17 -2.44463414E-07  1.82776630E-06  6.13651229E-17  1.15390263E-06
  9.97917459E-17  2.28207771E-06  1.31258312E-16 -1.98889007E-07  1.80275282E-16
  7.44542839E-17  1.51304218E-06  9.24971192E-17  1.93218717E-07  2.12366569E-06
 -5.03161277E-17 -1.27904282E-16  2.20947884E-06  1.89849139E-16  1.05121014E-06
 -4.01557194E-19  5.23253818E-19  1.35057605E-19  1.41759997E-21 -6.37849435E-20
  8.43188683E-07  4.37796736E-16  1.79860446E-15 -7.11369995E-07  1.25272390E-15
 -1.09182718E-06 -1.01276265E-15  1.32278800E-06  1.17077149E-15 -3.85833266E-07
 -6.68250518E-07  2.37713903E-16  5.47477671E-07 -4.80387069E-16 -3.60187557E-16
  3.84840216E-07  7.86553588E-07  1.49588940E-15  7.90466155E-07 -1.55304141E-16
 -2.56931077E-20  3.06599569E-20  1.65237670E-19 -8.93047624E-20 -8.45355140E-20
 -1.08035092E-15  3.41381693E-07  1.42394200E-06  9.09877409E-16  9.63336736E-07
  1.35633822E-15 -8.12282376E-07 -1.67799026E-15  9.00549677E-07  4.47662449E-16
  8.62174878E-16  1.84755001E-07 -7.05106751E-16 -3.88631635E-07 -2.97280395E-07
 -4.86453733E-16 -1.00333066E-15  1.17202584E-06 -9.83299804E-16 -1.39244521E-07
 -2.63955757E-20 -4.75009713E-20  2.73679847E-20  2.00077958E-20 -2.14568161E-19
  8.27073238E-07  2.64672506E-17 -7.62272709E-17 -1.72232543E-07  1.73122743E-16
  7.12729757E-06  1.36233622E-16  3.20994535E-07  1.92190663E-16  9.03378403E-06
 -2.42034519E-06 -5.75977094E-17  2.26799199E-06 -1.19170230E-17  5.85761960E-17
 -3.54358064E-07  1.49389859E-06 -3.16717442E-18 -4.96640539E-06  1.27672155E-16
  5.14355193E-20 -5.25790562E-19 -9.10365876E-20 -1.44627341E-20  2.05481541E-19
  2.02315828E-17 -8.01477545E-07  2.29341480E-06  5.66367561E-19 -5.13103005E-06
  2.37948010E-16 -4.28976319E-06  2.65572963E-17 -5.66917704E-06  3.02368587E-16
 -8.30281359E-17  1.71045237E-06  7.90567685E-17 -1.12607265E-07 -1.95068648E-06
 -8.08443933E-18  5.43405912E-17  1.02079050E-07 -1.66636324E-16 -3.90626777E-06
 -4.49564485E-20  6.49334694E-20 -3.32856007E-20 -1.83558886E-20 -4.34236270E-19
  4.65629469E-06 -1.44992784E-16  1.68403355E-16 -2.85720958E-06 -1.13586081E-15
  8.48710111E-06 -3.50095087E-16 -3.34169079E-06 -6.84429924E-16  1.16649793E-05
 -2.05768036E-06 -5.55949003E-16  1.94880568E-06 -9.35513249E-16 -8.35431721E-16
 -2.34304930E-06 -8.90434933E-07 -4.64502676E-16 -3.57110794E-06 -6.66396258E-16
  1.84924091E-19 -4.34450829E-19 -6.25450052E-20 -1.26287361E-20  2.46596851E-19
 -5.75834533E-16 -1.11253650E-06  1.24826661E-06  3.51858649E-16 -8.88937671E-06
 -1.05575797E-15 -2.64984334E-06  4.13287444E-16 -5.27399464E-06 -1.45747955E-15
  2.49872462E-16 -4.43638484E-06 -2.43410798E-16 -7.31467104E-06 -6.52804486E-06
  2.91196063E-16  1.07934960E-16 -3.67442771E-06  4.52300635E-16 -5.16644062E-06
 -9.26278399E-20 -6.85001849E-19 -6.61691724E-20  7.21632341E-20  1.07342327E-20
 -1.32633554E-16 -5.43130911E-08  1.00464010E-06  1.47564901E-16 -1.47926076E-06
 -3.16417948E-16  1.02440213E-07 -2.31821204E-16  2.36356953E-06  3.39323314E-16
  6.84927522E-17 -1.21819624E-07 -1.52884647E-16  1.63804213E-07 -3.63507074E-07
 -8.36740200E-17 -2.43464635E-16  1.55214283E-06 -1.75679173E-16  9.16569025E-08
 -2.80710596E-19 -4.65696302E-19 -3.36081453E-20  1.74438441E-19 -4.66300580E-20
  6.70170965E-07 -6.87708649E-18  1.57781809E-16 -7.39973898E-07 -2.28546423E-16
  1.58828318E-06  1.67668709E-17  1.20241995E-06  3.76249134E-16 -1.80409205E-06
 -3.39148172E-07 -1.56524346E-17  7.84680475E-07  2.90042618E-17 -5.45646561E-17
  4.38965796E-07  1.26444530E-06  2.49968814E-16  9.26212246E-07  1.61940117E-17
 -1.73345900E-17 -9.64668912E-18  2.41676046E-18  8.91684450E-18 -2.19557284E-18
  1.66750979E-17  3.95228393E-06  5.87463592E-05  1.21579947E-16 -2.38555458E-04
  3.79045079E-16  4.29211889E-05  1.16636742E-16 -5.79967536E-05  2.92482482E-16
  8.40413751E-17 -1.30139687E-04  3.28539409E-17 -2.17007219E-04 -1.20654254E-04
 -9.46635909E-17 -9.45686797E-17  1.39704403E-05 -9.07423879E-17 -8.48603641E-05
 -7.64609454E-18  1.74275414E-17  4.95788631E-18  9.81246813E-18 -3.30189992E-17
  1.97957827E-04  5.61444194E-17 -1.09580446E-16 -1.39307398E-05  3.85515777E-16
  3.67965692E-04 -3.27524973E-17  1.04600373E-04 -1.08936521E-16  3.93286783E-04
 -6.15680097E-05 -4.66544503E-18  1.71537211E-04 -1.39895916E-16  6.72010648E-17
 -2.27201846E-05  2.65309203E-05 -1.84525023E-16 -7.12613164E-07  4.84021937E-17
  8.02898380E-18 -8.17637407E-18  2.78584748E-18 -6.45111153E-18  9.35412280E-18
  1.24045953E-16  8.50555649E-06 -1.87593209E-04 -1.99928529E-16 -7.75970186E-05
  2.42540612E-16 -1.51724356E-05  2.11932416E-16 -9.77930324E-05  6.67675519E-17
 -1.13972218E-16 -5.02138280E-05  1.42784875E-16 -8.61776707E-05 -3.21081921E-05
  8.14482478E-18  1.30262911E-16 -1.12763617E-04  1.00964791E-16 -3.85669646E-05
 -2.01492170E-18 -6.01013280E-19 -1.37624569E-18  1.85112573E-18  3.36422099E-17
 -2.11543029E-04  5.38979677E-17  2.30387490E-17  3.18465282E-05  1.58839509E-16
 -1.25369644E-04  2.39802044E-16 -8.28139565E-05  2.34937154E-16 -2.32476660E-04
 -2.76999021E-04 -2.12633676E-16 -1.27329278E-07  1.59439947E-16  3.84299707E-17
  1.23607304E-04  8.44033428E-05 -4.91065017E-17 -2.62613045E-06  1.69862659E-16
  7.46851226E-18 -5.20397185E-18 -5.62273005E-18  2.41269535E-18  2.29775560E-17
 -1.34896265E-04 -7.74071136E-17 -1.22425107E-16 -8.83486307E-05 -4.25351598E-16
 -5.36208824E-04  1.95215782E-16  1.72617409E-05 -2.60644415E-16 -7.59894241E-04
  1.79320925E-06  9.74630929E-17 -2.17589255E-04  2.82979231E-16  1.11550576E-16
  9.55003929E-05  8.53644845E-05 -9.38990779E-17  1.42824647E-04 -9.67569581E-17
  1.78311390E-17 -9.19258201E-19 -1.49705373E-17  6.32524887E-18  6.69498872E-18
  2.39221412E-17  1.71231603E-04  1.29220057E-04  9.63948009E-19 -4.47685914E-04
  1.13752175E-16 -4.01601456E-04 -1.69254009E-16 -2.08909397E-04  1.53182535E-16
 -1.46816956E-16 -7.29646899E-05 -2.70310654E-17 -1.23403866E-04 -1.22425881E-04
 -6.72959694E-17 -1.11496314E-16 -9.47379248E-05 -1.40436791E-17 -1.12170142E-04
  2.78131077E-17 -2.76275541E-17 -6.43904997E-18 -1.93237509E-17  7.77022747E-18
 -1.91968646E-16 -6.63191382E-05 -5.78522079E-04 -1.51753312E-16  2.06799053E-04
  5.59181326E-18  1.67644480E-04  2.21929311E-16  4.79346985E-04  2.12631581E-16
  7.92782910E-17  8.54630059E-05 -4.89419563E-17 -5.70431728E-05  4.34537275E-05
 -2.56639518E-17 -1.01891241E-16  7.84014430E-06  2.94871141E-17  7.28423814E-05
  3.35486929E-17 -1.32948007E-17 -2.56895432E-17  3.38444819E-18 -3.38648157E-19
  1.91054434E-04  1.25311509E-16  9.86707546E-17 -2.19355070E-05  5.21219884E-16
  3.78512978E-04 -1.84026308E-16 -9.21289486E-05 -2.24123746E-17  2.70237718E-04
 -5.73119642E-05 -8.70762792E-17  1.23897822E-04 -1.19633514E-16 -7.60244230E-17
  7.73659337E-06  4.16576981E-05 -7.99929467E-17 -1.40622346E-04  9.88389129E-17
 -5.22025771E-17  1.62710047E-17  2.05705400E-17  3.17687917E-17 -2.30697852E-17
 -3.37300792E-17  5.17062096E-05  8.38617468E-05 -4.10458150E-18 -1.49739829E-04
  1.63560890E-16 -2.79841442E-04 -5.16782036E-17 -1.86007218E-04  3.52168909E-17
 -9.04330540E-17 -7.28910240E-06 -1.15543441E-16 -1.45734318E-04 -7.71038531E-05
 -2.33594388E-17 -7.45226809E-17 -9.34040493E-05  7.71504350E-17 -3.17299836E-05
 -2.45283348E-17  5.75728489E-19 -3.60544126E-17  5.01619659E-17 -2.60721654E-17
  6.58757426E-17 -1.46814936E-04  1.49671125E-04  1.33209311E-16  7.09521180E-05
  1.62803489E-17  2.69470768E-04  1.36015622E-16 -1.38361460E-05  1.93155341E-17
 -6.65020354E-17 -9.20863676E-05 -8.22971237E-17  8.67764862E-06  5.63989466E-05
  1.79237462E-17  1.16284511E-16 -2.54990420E-05  2.14889003E-17  9.19645521E-05
  4.18415155E-17 -3.25811541E-19  5.92246751E-17 -5.80408116E-17  8.65269822E-17
 -6.52480049E-04 -2.10630028E-16 -1.78706622E-16  2.47686472E-04  3.82204367E-16
  3.93784308E-04 -1.85662595E-16  2.28271084E-04  1.16535618E-17  2.07592669E-04
  4.25853523E-05 -4.69408328E-17  1.13003369E-04 -2.33796288E-16 -1.29422040E-17
 -1.36060051E-04 -2.51167914E-06  1.01113958E-17 -8.85939605E-05  5.90344046E-18
 -1.51826740E-18  6.69563211E-19 -7.96788171E-17  3.77957478E-17 -6.60696321E-18
  1.56071919E-04 -6.27002683E-17  2.42046893E-16 -2.82363199E-04 -7.49427386E-17
 -1.53558684E-05  2.18854887E-16 -1.38581942E-04 -5.55212122E-17  1.75664953E-05
 -3.45245354E-05 -1.28430550E-16 -4.56259331E-04  1.17863975E-16 -1.14084987E-16
  3.28310584E-05  2.47505665E-04 -8.22248301E-17 -2.12121487E-04  5.07237199E-17
  5.81841085E-18 -8.49642247E-17 -7.11153227E-17  7.99917803E-17  6.41850336E-17
 -7.59262744E-04 -4.19931864E-19 -8.55722530E-17  1.09971077E-04 -1.23561161E-16
 -1.64674901E-04  3.33159535E-17  1.47827499E-04  2.19741036E-17 -3.56449298E-04
 -7.37215580E-05  5.72020737E-17 -2.21671704E-04 -1.97525250E-17  8.26296412E-18
  5.18291995E-05 -7.94934494E-05  9.52140307E-17  1.71323654E-04 -3.33161048E-17
  3.68027912E-17  3.52902578E-17 -3.04136621E-17  6.68620766E-17 -1.61116335E-17
  1.02022454E-16  7.72550612E-05 -2.42082687E-04 -5.87396170E-17  1.68936746E-04
 -7.85564917E-17 -2.03577729E-05 -4.58269088E-17  1.99968760E-04 -9.60669231E-18
  4.17882316E-17  6.67078361E-05 -7.88068725E-17 -2.60297187E-05  1.02158101E-04
 -6.61577672E-17 -1.22338723E-16  1.03976156E-04 -1.05347639E-16 -1.23218548E-05
 -4.57925536E-17 -2.21483892E-17  1.53303579E-18  6.37840512E-17 -2.72463321E-17
 -2.33798972E-04 -1.15199122E-16 -1.53567451E-16  1.97253088E-04 -1.06470161E-16
 -1.29427180E-04  1.11484334E-16  3.95677643E-04 -8.67038309E-17 -1.43419265E-04
  4.65393673E-04  2.21368402E-17  3.64034835E-05 -3.37302366E-17 -7.50703302E-17
 -8.53845325E-05 -7.43830362E-05  7.05427691E-17  7.62794793E-05 -2.14315979E-16
  6.63697200E-17 -7.51356389E-17  6.63638424E-18 -5.68881985E-17  6.57739713E-17
 -9.47493106E-04 -2.42677564E-16 -3.48080629E-16  4.25347596E-04  2.67832558E-16
  3.09905616E-04 -3.67751848E-17  3.73204622E-04 -5.09279960E-18  1.26510066E-04
  1.12015138E-04  9.65648138E-17  2.12045265E-04 -1.82638945E-16  8.95237708E-17
 -5.98075834E-05  2.35778861E-05 -1.66294249E-16  3.50937168E-05 -4.79143837E-17
 -1.11793209E-17 -1.68523178E-16 -2.40351056E-16  1.49196031E-16  2.75618689E-17
  1.23440660E-16 -5.48758645E-05 -2.17769620E-04 -5.48312533E-17  4.71002846E-05
 -1.53714742E-16 -1.79703582E-04 -5.99740226E-17  9.32423279E-05 -1.74220118E-17
 -1.81378625E-17  1.51308323E-04  6.72967217E-17  5.94886705E-05  9.34146010E-05
 -6.46575011E-17  1.41938490E-17  1.41828090E-05  5.92310374E-17 -1.93842583E-05
  4.35274307E-15 -5.76577638E-15  1.10272424E-03  6.49735345E-17 -1.23045751E-03
 -4.48740926E-17 -4.90794474E-17 -1.28517254E-17 -3.79838533E-17 -1.25802749E-17
 -2.10362287E-19 -5.46645631E-18 -3.41376353E-17 -9.59613514E-18  7.52304285E-18
 -4.06980262E-18  8.44396849E-18 -4.64222810E-19  4.69951018E-18 -4.22919236E-18
 -9.84996490E-18  1.55397922E-18  3.00432466E-18 -9.21740894E-18  5.44588442E-18
  8.11260674E-17 -3.01878785E-16 -3.06791243E-16  1.38650989E-16  4.50824695E-17
  1.65071485E-05  7.99739690E-17 -1.39410814E-16  4.66344858E-05  3.27104419E-16
  3.28627678E-04 -1.33621297E-16 -5.31477131E-05  4.74301248E-17  3.60872195E-04
  7.76267000E-06  8.57396784E-17  4.36665193E-04 -9.77394552E-17 -2.23763854E-17
 -3.03453244E-05 -2.79163381E-05 -3.48617424E-17 -1.44932377E-04  9.83324373E-17
  9.53738276E-17 -2.62397881E-16 -5.08217950E-18 -5.07035390E-17  8.11051669E-17
  1.06911819E-16 -2.93330188E-04 -2.90688378E-05 -3.67309668E-17 -3.76458024E-07
  1.54779097E-16  2.84784056E-04  2.35808973E-17 -1.76167890E-05 -1.33918144E-17
  1.48498753E-16 -1.89062455E-04  1.92838473E-17  8.07868205E-05 -1.29492165E-04
 -2.79150650E-17  1.90905128E-18 -1.83823187E-05  1.98670947E-17  2.30095943E-04
  1.18329412E-16 -5.68155202E-16 -1.76282558E-16  8.39621732E-17  4.37450238E-17
 -1.17110641E-16 -6.81833856E-05  1.60405864E-04  1.20975342E-16 -1.40028984E-04
  1.69865188E-16  1.59594762E-04  1.30172587E-18 -9.60929037E-05 -9.61864675E-17
 -8.92544166E-17 -4.29370524E-04 -6.01479129E-17 -7.39344606E-05 -2.22157193E-04
  1.89579940E-17  6.48119337E-17 -1.37788799E-04 -7.07451393E-17  2.05773390E-05
 -6.62522754E-03 -6.39014783E-02 -4.56271715E-15 -1.29624974E-03  1.69536891E-16
 -1.13597422E-17  9.11650357E-18 -1.95641066E-17  2.97641922E-18 -7.13121199E-18
 -9.85563051E-18 -2.56846493E-18 -1.67159447E-17  3.44850604E-19  4.53756357E-18
  1.26414347E-18  1.78545612E-17 -4.15539180E-18  3.44519086E-18 -8.93284557E-18
 -1.10179818E-17  7.57035671E-18 -9.31252300E-18  1.04675866E-18  1.76028839E-18
  2.64407579E-14  6.09881009E-15  3.39054912E-03  4.45013754E-15  2.80160475E-03
  2.19945968E-16  9.37650841E-17 -1.50120221E-17  4.39750671E-17  2.20544629E-17
 -5.60308831E-18  1.04512023E-17  1.13045111E-19 -6.18651110E-18 -8.46790377E-18
 -7.90161707E-18  4.09318896E-19 -1.49876664E-17 -2.15024525E-20 -1.18659601E-17
 -1.03901923E-17 -3.18713874E-19 -7.99668935E-19 -2.32254580E-18  1.59097436E-18
 -4.70249578E-01  2.71430577E-02 -4.98229826E-15  4.21013515E-02  4.98270739E-15
  1.45475544E-19  5.67624183E-17  1.93387426E-18 -1.34449531E-17  3.13730802E-17
 -9.91414463E-18 -5.24635364E-18 -3.06520276E-17  1.77894474E-17 -7.52960599E-18
 -2.48002225E-17 -2.07186414E-17 -4.38744526E-18  2.02825545E-17  7.61558669E-18
  1.21689553E-17  5.23107934E-18 -4.87804525E-18 -1.28892671E-18  1.66424962E-17
  1.18171862E-03  5.21716060E-01 -2.23944859E-14 -2.64893508E-03 -2.57049444E-15
  3.44343782E-17  1.94063361E-17  2.36858656E-17  2.42507089E-17  1.23323340E-17
 -6.17905791E-18  2.60370027E-17  1.83454006E-17 -1.81029355E-17  1.25514932E-19
 -1.67833782E-17 -2.60282197E-18  2.26347373E-18  6.14939294E-18 -3.01988477E-18
 -3.75318298E-18 -8.58229083E-20  1.21591661E-17 -1.50604566E-18  1.40900756E-18
 -2.20264986E-19 -4.37278398E-19  4.93446336E-20  5.42933970E-19 -1.65984564E-19
 -3.57024611E-06  1.31323367E-15 -1.17174478E-15 -2.29250566E-06 -1.02458657E-15
 -3.70287884E-05 -1.02178399E-15 -3.58690706E-06  1.13189584E-15 -5.31812871E-05
  8.23514916E-06 -4.30080069E-15 -2.65481242E-05 -2.39812314E-15 -2.64345296E-15
 -7.29014233E-06 -3.21588360E-05 -3.60157555E-15  9.75529026E-05 -4.15676221E-16
 -1.01937965E-18  5.37729031E-19  7.01049000E-20  9.11835231E-19 -2.54825356E-19
 -1.93620255E-16 -2.33403035E-05  2.06457075E-05 -1.08367120E-16  1.75201845E-05
 -2.12483264E-15  1.84305431E-05 -1.83006237E-16 -2.00169986E-05 -3.03175531E-15
  5.05131278E-16  7.63379020E-05 -1.51122791E-15  4.21503950E-05  4.69544021E-05
 -3.96019886E-16 -1.78434042E-15  6.39754443E-05  5.49421541E-15  6.29589619E-06
  2.39116700E-19 -4.50094431E-19  1.58948821E-19 -1.78669720E-19  1.11089985E-19
  1.05130840E-07 -3.06011444E-15  4.88955510E-15 -2.71855084E-06  4.77857366E-15
 -2.94038901E-06 -1.17556359E-15  2.12393770E-06 -8.43651856E-16 -5.68550743E-07
 -1.66972849E-06  7.66414738E-15 -6.69965128E-07  4.41814611E-15  2.25105520E-15
 -2.66459531E-06 -5.01587346E-06  1.86549684E-15  5.17259669E-06  3.01294673E-17
 -1.31625611E-19 -4.02632311E-21  6.00828008E-20 -1.21081297E-19  1.78588821E-19
 -1.45760355E-16 -2.36258127E-06  3.94132005E-06  3.40095991E-15  3.77809618E-06
  3.81928045E-15 -1.01297846E-06 -2.70381561E-15 -7.28453727E-07  8.77198216E-16
  2.04089423E-15  5.86804257E-06  9.09578120E-16  3.85043355E-06  1.67437478E-06
  3.26070444E-15  6.05512967E-15  1.45129214E-06 -6.17146917E-15  3.43018178E-08
 -8.80596320E-20  7.29837817E-19 -2.24541959E-20  1.37489576E-19 -7.23569861E-19
  6.09449952E-06 -1.88151016E-16 -1.44802459E-15  2.18650858E-05 -5.15621668E-16
 -2.93528981E-05  9.19289949E-16  2.07342150E-05  1.13015373E-15 -4.15803810E-05
  4.20131935E-05  9.02616863E-16 -1.58386382E-05 -5.07149403E-15  6.03290579E-16
  2.95106853E-05  8.39242704E-05 -4.59554900E-16 -1.01457023E-04 -2.51711931E-17
 -2.53113915E-19  4.08823369E-19 -2.40728606E-19 -6.02045506E-20  3.47738344E-19
  2.34804853E-16  5.92760994E-06  4.08857036E-05  8.22945215E-16  1.36161322E-05
 -1.06945096E-15 -2.66526573E-05  8.96460325E-16 -3.18480615E-05 -1.38198195E-15
  1.60382940E-15 -2.81447819E-05 -5.02564547E-16  1.44430685E-04 -1.86996076E-05
  9.75939872E-16  2.85867608E-15  1.09793261E-05 -3.42977968E-15  2.26028757E-06
  2.67800511E-19  3.31102646E-19  1.13240360E-19 -2.58533347E-19  6.46360244E-19
 -8.31114775E-06  3.03316855E-15  1.34569897E-17 -1.70350690E-05 -1.40217943E-15
  2.83726702E-06 -2.52158038E-15 -6.22053693E-05  7.36815108E-16 -2.72416094E-05
 -5.28511502E-05 -9.39582195E-15 -1.09103858E-05  4.01259819E-15 -5.26070890E-15
  2.62155345E-05  3.49845520E-05 -4.37744660E-15 -4.85051370E-05  2.61060649E-16
 -4.88672037E-19 -1.20037874E-19 -1.11396543E-19  1.63120600E-19 -3.35070173E-19
  1.03474324E-15  2.40324586E-05 -8.53351236E-07  2.11654497E-15 -1.14879922E-05
 -3.51554329E-16 -1.95003409E-05  7.80242131E-15  6.50132862E-06  3.43541056E-15
  6.59564288E-15 -7.43523922E-05  1.38118130E-15  2.88638901E-05 -4.15453570E-05
 -3.32586144E-15 -4.48888857E-15 -3.51169856E-05  6.23567351E-15  1.79490360E-06
  1.52158900E-19  6.12136242E-19 -3.54243137E-19  3.27569091E-21 -4.37994691E-20
 -2.45203187E-16 -1.05440726E-06  2.75985707E-06  6.02689174E-16 -2.85992084E-06
 -7.23538408E-16 -1.29420673E-06 -5.16490046E-16  5.25322536E-06  2.02270600E-16
  1.79473777E-16 -2.83768387E-06 -5.53596422E-16 -1.05413684E-06 -1.39234298E-06
 -4.56414282E-16 -9.45486833E-16  6.14139759E-06 -5.48271338E-16  4.59912852E-08
  6.69035408E-19  4.09928757E-19 -4.61916900E-20  2.05255966E-19 -1.51202847E-19
  1.40074115E-06 -1.94918006E-16  4.97139370E-16 -3.38053664E-06 -4.92379059E-16
  4.05751947E-06 -2.24323517E-16  3.03111435E-06  9.14808720E-16 -1.16029422E-06
 -9.16357885E-07 -4.70129193E-16  3.12330758E-06 -1.66505652E-16 -2.27873290E-16
  2.53271078E-06  5.26706048E-06  1.10486816E-15  3.28293998E-06  7.82403934E-18
 -2.40628830E-17 -3.82096579E-18  1.78080270E-18  1.75631597E-17 -5.91296381E-18
  6.63163936E-17 -1.27277151E-04  3.52143812E-05  1.31552640E-16 -1.96105190E-04
  3.46292051E-16  6.26639378E-05  2.27684923E-16 -2.08612893E-04  3.08795960E-16
  1.52663318E-16  1.35479695E-04  1.82011801E-16  1.86083149E-04  5.78029692E-06
 -3.33610084E-17 -1.88858616E-17  1.83231473E-04 -1.05105398E-16 -1.08060466E-04
 -1.74101178E-17  1.02958615E-17  1.25157846E-17  1.09131074E-17  3.04274580E-17
 -3.50095286E-04  5.05491977E-18  7.72433547E-17 -1.29456208E-04 -9.59025083E-16
 -1.07900182E-03  4.93798504E-16 -5.82940682E-04  1.58981976E-16 -1.25988789E-03
 -6.92422218E-05 -1.45740650E-16 -9.00696051E-04  1.35027533E-16  2.18880594E-17
  1.36569532E-04  8.21011193E-06  6.74183862E-17  2.59381154E-04 -9.80126557E-17
  1.27674993E-18  9.37126825E-19  3.98252392E-18  1.11861617E-17 -1.74658015E-17
 -1.22835538E-16  5.35694290E-04 -2.57090646E-04 -3.13823794E-17 -5.57630180E-04
  5.41538462E-16 -1.11919078E-04  2.88212787E-17  6.15654540E-04  2.20003020E-16
 -3.46143428E-17 -5.94808999E-04  6.53117707E-17 -4.36616925E-04 -3.63014745E-04
 -1.18404195E-16 -1.64107086E-16  9.95188570E-05 -6.33509195E-17 -4.21030877E-05
 -1.80349223E-17  2.75233299E-18  9.67197531E-19  1.89687127E-17 -4.39860024E-17
  3.52139423E-04  1.80853881E-17 -2.08902047E-16  7.07809197E-04 -3.51566569E-16
 -7.31143903E-04  5.40030894E-16  1.56945354E-03  9.08248058E-17 -3.02941083E-04
  1.72854144E-03 -6.14909911E-16 -1.13958947E-04  2.42756712E-16 -4.25119341E-17
 -2.84953380E-04  1.49748256E-04 -1.22530264E-16  1.67940338E-04  1.40189398E-16
  3.09204510E-17 -3.27954107E-17 -2.73791836E-18 -1.03894571E-17 -6.43070638E-19
  1.40088456E-04 -1.21121515E-16  4.30086901E-17  5.94287676E-05  4.86401050E-16
  5.19564573E-04 -2.02255090E-16  5.83358202E-04 -7.37016527E-17  1.76271217E-03
  3.92819128E-04  1.70511639E-16  6.67681138E-04  4.43568738E-17 -4.72133869E-17
 -4.68212215E-04 -7.40219642E-04  1.05919510E-16 -2.33060832E-04  5.79187043E-17
  8.41257567E-18 -5.53634277E-18 -3.10013685E-17 -8.63964592E-18 -4.13801687E-17
 -3.36152438E-16  2.18427797E-03  1.62732579E-04 -1.40368912E-16 -1.23133500E-04
 -4.84220858E-16 -1.70553417E-03 -1.80647172E-16  1.11503562E-04  1.49200997E-16
 -6.01745389E-16 -2.50855106E-03  3.81097935E-16  8.10086592E-04 -1.08473089E-03
 -1.00277800E-16 -2.51642606E-16 -9.26678443E-04  3.70879053E-16  9.33829131E-05
  1.37783009E-17  1.64013719E-17  2.69116757E-18  2.92085657E-18 -2.26670681E-17
 -1.89116703E-16  1.40826948E-04 -2.93366341E-03 -1.08057138E-15 -4.06696987E-04
  7.27554105E-16  2.60832912E-04  4.28343286E-16  1.31397299E-03 -1.47048882E-17
  1.66821172E-16 -3.44879242E-05 -5.31830481E-16 -3.11366595E-03 -1.31331353E-05
 -3.75541693E-16 -3.12987114E-16 -6.36344602E-04  5.19403579E-17 -8.70775576E-05
  3.54529529E-18  3.60414697E-17 -3.03970907E-18  1.91297771E-17 -6.17737383E-17
  3.94561807E-04  2.78865629E-16 -1.05916292E-16  4.16899728E-04 -4.96023856E-16
 -5.60059861E-04  1.06203245E-16 -3.19116679E-04  3.41786168E-16 -2.31903518E-05
  8.04949660E-05 -4.34712674E-16  1.55669881E-05 -4.72479015E-17 -1.26443520E-16
  3.88548746E-04  9.92707383E-04 -2.98643598E-16 -5.31517700E-04  4.18173509E-16
  3.14739880E-17 -1.25029409E-17 -9.37893344E-18 -4.01480154E-17 -9.40823870E-18
 -4.75055633E-16  1.52216385E-03 -5.45572706E-04 -3.28415934E-16 -4.70661563E-04
 -1.17559667E-16 -1.28952163E-03 -6.21402732E-17  9.46401549E-04  1.20414004E-16
 -5.32307692E-16 -1.50077131E-03 -1.71036931E-16 -3.63799591E-05 -6.21539739E-04
 -7.89270125E-17 -3.52089935E-16 -1.23290804E-03  4.80426898E-16  1.79296829E-04
  4.62338527E-18  9.11543697E-18  3.15352448E-17 -1.53806650E-17  2.37154389E-17
  4.37985813E-18 -7.83939142E-04 -2.42798555E-04 -1.43133554E-16  3.14004011E-04
 -1.15681998E-17  7.62869007E-04  2.08747151E-16 -3.47148100E-04 -1.80100066E-16
  9.23049279E-17  9.90850602E-04 -4.07476273E-16 -4.17943232E-04 -1.73813564E-06
  2.52744730E-16  1.94016375E-16  4.77331163E-04 -1.36423775E-16  1.40602002E-04
 -2.18735410E-17  1.03608289E-17 -3.85182451E-17  2.42805435E-17  2.24765476E-16
 -2.57702984E-03 -2.01172281E-16 -7.54472111E-16  7.36233620E-04 -1.31333837E-17
  2.55938141E-04 -3.54188897E-17 -1.61343228E-04  2.86668250E-16 -4.47401156E-04
 -2.09617005E-04 -7.79423636E-17 -2.63646123E-05 -5.64443454E-16 -5.59318690E-17
  6.18753290E-04  7.09676374E-04 -2.98710893E-16 -4.63436052E-04  2.42218932E-16
  4.38322489E-17  3.21054001E-17  4.12597959E-17 -4.77803829E-17 -5.49138214E-17
  7.44497477E-04 -4.33887462E-17 -1.35378366E-17  2.87812973E-04 -2.80738238E-17
 -9.80651654E-05  1.11306684E-16  4.53635895E-05 -1.43723265E-16 -2.97094529E-04
  5.57315628E-04 -4.36036771E-16 -1.97007371E-04  1.20916846E-16 -2.56127456E-16
  5.00634122E-04  1.75153647E-03 -3.99013200E-16 -2.55120070E-03  1.26368679E-15
 -8.45388264E-18  2.95807819E-17  7.03757211E-17 -6.36299154E-17  2.78610728E-16
 -2.84335217E-03 -4.81422258E-16 -7.04716468E-16  6.30158944E-04 -2.39971253E-16
 -1.16042775E-04 -9.20675685E-17  1.31442142E-04  3.25180532E-16 -3.35432738E-04
 -1.23331958E-03  2.86570191E-16 -2.92194320E-04 -3.45011405E-16  2.06314817E-16
 -4.40565161E-04 -5.72172296E-04  1.83532114E-17  1.07054135E-03 -5.41874911E-16
  7.03177670E-18 -1.99183649E-17  3.94608337E-17 -5.52162165E-17 -1.14904301E-17
  6.20320170E-16  1.62944273E-04 -8.51409333E-04 -6.20172963E-16 -3.60795104E-04
  3.31231260E-16  1.62484630E-04  9.25389982E-17  6.57088923E-04  2.30672431E-16
  3.47944400E-16  5.49903111E-04 -2.50545255E-17 -8.66151819E-04  1.30628313E-04
 -4.52651521E-17  1.05876896E-16 -5.81989226E-04 -1.35024533E-16  2.67704019E-05
  3.28463540E-17  1.06461423E-17  7.51637079E-18 -4.27848343E-17  6.47691466E-17
 -4.94483672E-04 -6.83620300E-16 -1.34859514E-16  3.20921851E-04 -3.57119891E-16
 -2.61766337E-04  4.06951272E-16  7.12714876E-04 -2.43420970E-16 -1.42317107E-04
  1.49402075E-03  3.03393392E-17 -7.55281151E-05  1.54406363E-17 -8.67281881E-17
 -8.45670285E-04  1.47835023E-04  8.37432948E-17  2.28364868E-04 -5.61344736E-16
 -3.50455363E-17  5.58126191E-17  5.01599518E-17  2.08663897E-17  3.11485625E-16
 -3.81861530E-03 -5.02211839E-16 -1.06334140E-15  1.11929554E-03  5.93536254E-16
  6.84732830E-04 -4.34746068E-16  2.12740573E-04  3.26530391E-16 -9.98132424E-04
 -1.33959629E-04 -9.94406857E-17 -2.28144085E-04 -5.75672231E-16 -1.52735291E-16
  1.91924308E-05 -1.40087916E-04 -7.26401290E-17 -3.03719518E-04  1.91749628E-16
  6.11336968E-17  1.24775188E-16  1.49994293E-16 -1.22750770E-16 -2.15702787E-17
  4.56861973E-17  8.69110480E-04 -5.01425113E-04 -4.12886040E-16  4.21827994E-04
 -4.21052024E-16 -4.20646206E-04 -1.29121858E-16  2.81979082E-04  1.69131731E-16
  1.73474684E-16 -4.63809951E-05  3.50945983E-16  4.19482929E-04 -6.78638344E-04
  5.20668945E-18 -2.25261471E-16 -7.36915414E-06  1.25861648E-16  1.68276990E-06
  1.61999697E-15 -3.50006949E-15  1.00224890E-03 -7.53401759E-16 -8.77093554E-04
  1.07627580E-16 -2.51408701E-17 -1.71287947E-17 -5.98129373E-17  2.14065713E-18
 -1.89067918E-17 -8.65732258E-18 -2.46762409E-17 -5.26873078E-19  4.00957542E-17
  2.90136210E-18 -7.25529979E-18  3.42990976E-18  2.61750399E-17 -2.12741538E-17
  5.60761956E-18  3.60124858E-17  5.42821854E-19 -2.63968656E-17 -3.73137578E-18
  4.13185148E-17  2.63255555E-16  1.95967988E-16 -9.67506704E-17 -8.33279347E-17
  4.77047090E-04  3.21651561E-16 -4.25180325E-16  7.55218399E-04  5.74454006E-16
  5.69805599E-04 -4.28961942E-16 -8.31425736E-05  1.44642048E-16  5.01445662E-04
 -3.88906652E-04 -4.46381308E-17  6.29228817E-04 -1.98582425E-16  1.43719877E-16
  5.38957911E-05  4.01320858E-04 -8.83603388E-17 -4.20646453E-04  3.77889824E-16
 -5.37817055E-17  1.45681188E-16 -5.43355522E-19  3.97086194E-17  4.74011461E-17
  2.45953039E-16 -2.11079689E-03 -2.81854509E-04  2.79145592E-16 -1.26097765E-04
  6.73754530E-16  1.05139609E-03  2.02611338E-16 -5.70631414E-04  1.79434034E-16
  3.16870756E-16  1.89238858E-04  5.98180854E-16  1.42123038E-03 -3.30826924E-04
  1.60372903E-16  4.90414979E-16  2.60437427E-04 -6.75521389E-16 -3.96928224E-04
  2.36041115E-17  4.49230690E-16  1.10988721E-16 -4.81480972E-17  7.57244777E-18
  2.43853357E-16 -2.61347435E-04  7.46493780E-04  6.28127670E-16 -7.26381859E-04
  9.76468426E-16  1.24041564E-03  3.48983265E-17 -5.07589877E-04 -2.14213907E-16
  5.56560361E-17 -6.55372043E-04 -2.91458410E-16 -9.21333820E-04 -3.60493076E-04
  1.32974325E-16  2.93584815E-16 -4.50699960E-05 -3.17555977E-16 -1.51876494E-04
  8.96343880E-04  4.79547164E-02 -9.71009668E-16  1.45862768E-03  8.10888772E-16
  8.44257097E-18 -8.83903778E-19 -5.65255495E-18 -2.81895341E-18 -1.27676180E-18
 -5.40959263E-18 -2.36199927E-17 -1.53685183E-17 -7.03394011E-18 -1.15018537E-17
 -8.09954815E-18  6.39950944E-18 -3.64439495E-18  1.13409374E-17 -5.12038521E-20
  2.85936657E-19 -4.66776176E-19  7.78023203E-18 -8.52340135E-19 -1.37596517E-18
 -1.55981502E-14  4.41770663E-15 -1.64717777E-03  8.97882620E-16 -1.40738556E-03
 -3.84618816E-17 -2.22242438E-17  1.21152707E-17 -1.57257991E-17  7.79184303E-19
 -1.47123224E-17  7.97421827E-18  1.08364176E-17 -9.76901107E-18  7.46282768E-19
  6.89635826E-18  1.32014702E-17  1.80290366E-18 -2.06551368E-18  4.37345309E-18
  4.32686999E-18  8.48900911E-18 -3.58171193E-19 -9.81554306E-19 -8.49796047E-19
  5.12457489E-01 -8.60923538E-03 -5.03348432E-15 -3.53330847E-02  2.37901584E-15
  4.43508157E-17 -4.53199267E-17 -1.13556983E-17 -1.76774409E-17 -1.42457474E-17
  6.09480391E-18 -8.92802465E-18 -1.93716549E-19 -2.53045642E-18  3.11014931E-18
  1.84103896E-17  2.20332656E-17  5.00377181E-18 -6.79356841E-18  3.11894009E-18
 -1.21187634E-17 -7.81398290E-18  5.49725732E-18  1.86646763E-18 -4.25861493E-18
 -3.37174176E-02 -4.82157447E-01  1.27425071E-14 -1.38720489E-04 -1.13805682E-15
  3.61033356E-17  6.76416338E-17  3.56902570E-17  2.40543645E-17  3.80392475E-17
 -2.36400368E-17 -3.40561704E-18  1.32957228E-17  2.72844408E-17  2.16857251E-17
  1.09147493E-17  1.81666854E-17 -9.03867377E-18 -1.04758282E-17  1.57601286E-17
  8.66131048E-19 -2.38973187E-18 -7.42621109E-18  1.81405688E-18  3.98451610E-18
  2.68273188E-19 -6.25078989E-21 -3.14097113E-20 -3.18254204E-19  1.63220208E-18
 -1.16562775E-05  6.67830416E-17 -1.12032261E-15 -2.90851301E-05  3.44173179E-15
  2.19081531E-05  3.54142188E-15 -9.54752312E-05  3.54392125E-15  3.18084597E-06
 -1.63989335E-04  6.20806380E-16  1.48855941E-07 -2.65667316E-15  3.79356028E-15
  5.53151431E-05 -1.02190123E-05 -3.23980275E-16 -1.00044955E-05  7.58999281E-15
 -9.51456194E-19 -1.14459308E-19 -3.83071774E-20 -4.07044415E-19  6.63711374E-19
 -6.64420505E-16 -1.13364993E-06  1.99662676E-05 -1.66619009E-15 -6.02362709E-05
  1.27106696E-15 -6.21221930E-05 -5.43061263E-15 -6.14936713E-05  1.62167056E-16
 -9.34854086E-15 -1.01576390E-05  3.37378651E-19  4.62866599E-05 -6.61519974E-05
  3.14994337E-15 -5.86684617E-16  6.66604167E-06 -6.02919953E-16 -1.33013493E-04
  1.43083342E-18 -3.22116771E-19 -1.65250435E-18  1.66170579E-18  2.39082523E-18
 -1.55776594E-05 -2.85611407E-14  9.14358656E-15 -2.42054076E-05  4.75131640E-14
 -3.95464855E-05 -2.52531240E-14  9.06436341E-06 -1.47920096E-14  5.84768429E-06
 -1.34914248E-05  5.42648549E-14 -2.38255061E-05  8.26898675E-15  1.31651371E-15
 -4.34225589E-05 -8.14798659E-05 -1.43543833E-13 -7.39060491E-05 -1.18686794E-14
  2.87635414E-19 -3.52965724E-19 -1.22969264E-18  3.71287413E-19 -5.24361302E-20
  1.98162994E-14 -2.23858500E-05  7.13462423E-06  3.08894333E-14  3.72999922E-05
  5.01534992E-14 -1.99823328E-05 -1.12273124E-14 -1.16539539E-05 -7.42131268E-15
  1.75182593E-14  4.24553065E-05  3.03637922E-14  6.44267700E-06  8.65419782E-07
  5.50968875E-14  1.03562763E-13 -1.13112012E-04  9.39460787E-14 -9.40586966E-06
  3.05159815E-19  6.87633776E-20  8.87656102E-19  3.40647185E-19  1.35516652E-18
 -9.32932017E-06 -1.29412113E-15  8.99454436E-16 -3.61043273E-05  5.07197730E-16
  2.52475123E-06  1.99799329E-16 -7.33624368E-05 -1.29556503E-15 -1.80838407E-05
 -1.01206382E-04  2.45383017E-15 -3.96657309E-05  2.08224408E-15  6.36957842E-16
  2.26093025E-05 -1.94142731E-05  1.23157368E-15  3.03362701E-05 -1.60918838E-15
  1.10087716E-18 -9.51559187E-20 -4.31366257E-19  1.31434419E-18 -7.21702111E-19
 -4.15507396E-16  3.48521960E-05 -2.44679915E-05 -1.31866208E-15 -1.16486740E-05
 -1.50044140E-16 -8.07698911E-06 -2.38345110E-15  3.55340578E-05 -7.56379770E-16
 -3.45754063E-15 -6.67528466E-05 -1.57546527E-15 -5.76495169E-05 -1.91157492E-05
  6.04695090E-16 -1.03466968E-15 -4.61592251E-05  1.16726792E-15  4.39086547E-05
 -3.92187623E-20 -9.57423522E-20  5.74356165E-19 -3.76942685E-19 -1.43514454E-18
  1.49664548E-05  3.71643399E-16  1.14380123E-15 -1.46933781E-05 -8.06003165E-15
  5.44616818E-05 -7.06108149E-15 -6.63136013E-05 -6.44116540E-15  4.77717218E-05
 -6.50383918E-05 -8.52586995E-15  4.11634929E-05  6.47004842E-15 -1.13277858E-14
  2.34738557E-05  4.37804327E-05 -4.41160579E-15 -1.09922064E-04 -1.13601100E-14
  3.94315651E-19 -1.81500788E-19  4.79537585E-20  1.81285520E-19  2.96353374E-19
 -1.91303622E-15  2.31967154E-06  9.59429988E-06  1.84100240E-15 -6.46179347E-05
 -6.90061512E-15 -5.55670050E-05  8.35705519E-15 -5.15753230E-05 -5.95499980E-15
  8.15790485E-15 -6.69333371E-05 -5.17587857E-15  5.26780999E-05 -8.96323292E-05
 -3.02607127E-15 -5.64560699E-15 -3.29045049E-05  1.36019929E-14 -9.14566971E-05
  8.85479523E-19 -1.46156471E-20  4.38724282E-19  1.25600247E-19 -9.41774316E-19
  5.95978768E-15  9.97365663E-06 -5.28934898E-05 -8.29905102E-15  7.11422727E-05
  1.53670522E-14  3.31929561E-06  1.01563081E-14 -1.04939374E-04 -9.46625172E-15
 -3.07922393E-15  2.09004207E-05  7.43723191E-15  2.66164217E-06  1.75731767E-05
  4.76418286E-15  1.07796568E-14 -7.56271533E-05  7.51317421E-15 -4.44761181E-07
 -6.40096887E-19  9.65611311E-20 -9.03798927E-20 -1.52118690E-18  3.01459727E-18
 -3.38611514E-05  1.75220889E-15 -9.34703358E-15  4.68671072E-05  1.24796004E-14
 -8.76309934E-05  6.18561470E-16 -5.75895442E-05 -1.84905455E-14  5.36050391E-05
  1.73453938E-05  3.68484922E-15 -4.22786375E-05  4.74369228E-16  3.09266074E-15
 -2.70355636E-05 -6.12906077E-05 -1.33258353E-14 -4.24512090E-05 -6.17890010E-17
  5.81876494E-18  1.74119965E-17 -1.43963016E-17  8.51187899E-18 -1.14574135E-16
 -6.47943993E-16  2.33529937E-03  1.65087881E-03  2.67240710E-16  5.53991048E-03
 -2.46916395E-15  3.75363101E-03  1.17139514E-17  5.67688108E-03 -8.20948875E-16
  4.59857409E-17 -8.27747327E-04 -4.02672774E-16 -1.57879085E-03  3.52006538E-03
 -2.29164091E-16 -1.23024962E-16  8.52171720E-04  2.51691795E-15  4.87453513E-03
  5.94820090E-17 -6.14202938E-19  2.15852757E-17  8.59077508E-18 -5.20220843E-16
  5.23421436E-03  3.74071173E-16  1.32050604E-17  5.24934663E-04  2.40019085E-16
  4.10647190E-04  1.13381948E-16  9.67618852E-03 -8.32663920E-16 -1.80442887E-03
  4.38429457E-03 -8.74909911E-16  1.84368721E-03 -3.22873213E-16  1.80516772E-16
  1.09471730E-03  2.96637207E-03 -2.89018240E-16  2.41242780E-03 -9.75714213E-16
 -1.00924189E-17  9.26297033E-18 -7.34749078E-18  2.91808012E-18 -2.01301075E-17
 -2.03858439E-16 -4.47867421E-04 -4.71270708E-03 -2.49416156E-15  5.69942409E-03
 -4.47040947E-15  8.67782019E-04 -6.29751031E-16 -5.67109414E-03 -3.13259778E-16
 -8.96955799E-16  3.52352924E-04  1.97380711E-16  1.88207720E-03  2.14330831E-03
  1.74404725E-17 -5.35947772E-17 -5.23732474E-03  1.74311345E-15  1.90819154E-03
  1.73101571E-17  9.09432486E-18 -7.99482446E-18 -5.21435654E-19 -2.47959441E-16
  2.19549827E-03  4.18247962E-16 -1.54887789E-16  4.01965137E-05  4.72918172E-15
  4.63593008E-03 -1.59620107E-15  1.40952261E-03 -2.14321017E-16  7.61832220E-03
  2.87155172E-04  2.02387590E-16  6.98335452E-04 -6.34081715E-16 -1.40245578E-16
 -9.41428099E-04 -1.22399561E-04 -6.06565992E-16 -3.01693259E-03  1.71827373E-15
 -3.42269882E-17 -2.04667284E-17  6.16182006E-18  1.30344167E-17  7.50872889E-17
 -1.89529254E-04  1.06115674E-15  2.18003445E-15 -5.18137767E-03  8.61657273E-15
  1.09286931E-02 -5.00570928E-15 -4.64582799E-03 -1.12364388E-17 -2.00613275E-03
 -9.93986442E-03  1.64962545E-15  2.72909447E-03 -1.55809270E-15  1.75815778E-16
  1.33721711E-03  3.44004685E-03  1.09104717E-16  1.47058109E-03 -1.11797202E-15
  2.52051675E-17 -8.81947794E-18  2.49126854E-17 -1.65983052E-17  1.83070818E-16
  8.94526095E-16 -6.12489967E-03  3.26475173E-03  1.41345077E-15 -3.23174862E-03
  3.16559056E-15 -3.09425784E-04 -4.06797598E-16  3.90318515E-03  1.20857218E-15
  3.37308990E-16  4.56464054E-03  1.49947160E-15  8.79912117E-03  9.55854620E-04
  1.13384528E-15  1.06670119E-15  4.79842232E-03 -5.75471190E-16 -7.11775204E-05
  1.82346624E-18 -1.22824169E-17  1.02140370E-17 -6.71013676E-18 -2.47955388E-17
 -5.38421118E-16  2.54475143E-03 -1.61802975E-03  1.09798694E-16 -1.11313146E-02
  8.20573395E-15 -2.30036582E-03 -2.58874367E-16  3.85218133E-03  5.53232803E-16
 -1.66979703E-15 -9.19488528E-03  9.35992975E-16  1.09486769E-03 -8.97780977E-03
 -1.58202454E-16 -5.94034924E-16 -4.29656457E-03 -2.85392533E-16 -1.70342304E-03
  2.27076634E-17 -1.81609536E-17 -1.24521188E-17  3.51282179E-18 -2.17595220E-16
  2.79869796E-03  6.64648990E-16  2.97053678E-15 -7.96451937E-03  5.07400410E-15
  7.33867282E-03 -3.24275054E-15  7.67399695E-03 -2.27130056E-15 -7.23757222E-03
  4.77990897E-03 -5.99946063E-16  3.35185043E-04  1.48130291E-15 -3.34791902E-16
 -1.01638872E-03 -1.72404524E-03  5.12326890E-16  9.19542209E-04 -7.69568636E-16
 -1.80267847E-17 -3.04414580E-18  1.72246802E-17 -2.54183071E-17 -1.36545998E-16
 -3.80516403E-16  4.72206430E-03 -4.67023180E-03 -1.67799068E-15  6.05192817E-03
 -8.17539337E-15 -4.77845043E-03 -3.23631705E-16 -9.08006806E-03  1.28134827E-15
 -6.40798395E-16 -6.59427993E-04  1.47500727E-15  6.19079672E-03 -3.39577995E-03
  8.60026741E-16  7.96259452E-16  2.64254157E-03 -4.13159903E-15 -7.08526967E-03
  7.98676169E-17 -1.19161295E-17  2.15146605E-17  1.37494853E-19  1.83697857E-16
  1.14280853E-15 -4.87537245E-03  5.88683107E-03  2.50224030E-15 -1.37868693E-03
 -8.73326859E-16 -5.63456405E-03  1.97874369E-16  5.05548578E-03 -3.58176961E-16
  3.20373778E-16 -2.86366663E-03 -5.27792422E-16 -1.89090001E-03  5.59244511E-03
 -1.07078281E-15 -1.16641956E-16 -4.00837252E-03 -2.69597916E-15 -5.49182891E-03
 -2.16591374E-17 -2.90809380E-17 -1.78565927E-16  7.47459911E-17 -6.91469221E-16
  5.53714373E-03  1.43310016E-16 -5.42849928E-15  1.18145903E-02  9.57961777E-15
  1.01554831E-02 -5.61435965E-15 -9.98485955E-04 -5.22810519E-16 -2.57293960E-03
 -1.12229702E-03  2.18970304E-16  1.01948450E-03 -1.84056331E-16 -8.46239829E-16
 -4.68235017E-03  2.17688966E-03 -7.80998869E-16 -9.76795025E-03  5.47882651E-15
  2.51373941E-17  1.30673117E-17  3.25144360E-17 -4.37588886E-17  5.17745149E-16
 -8.53794923E-03  5.13979332E-16 -1.80561902E-17 -1.80592911E-04 -3.22883457E-15
 -3.39082155E-03  1.85232596E-15 -9.85995147E-03  1.37589828E-15  1.19580856E-03
 -1.22360654E-02  2.73411239E-15  2.84879931E-03 -9.67622000E-16  5.63995577E-16
  6.85378417E-03 -1.51778878E-04 -5.47713359E-16  6.92892869E-04 -8.69851938E-16
  6.27144693E-17  3.21007308E-17  5.87514085E-17 -7.79048856E-17  2.59426794E-16
 -2.27624042E-03 -2.91712839E-16  3.31224303E-15 -7.47295515E-03  1.05611050E-14
  1.12308553E-02 -5.69231298E-15 -3.49795763E-03 -4.15044120E-16  6.62648836E-03
 -1.76047467E-03 -4.21442340E-16  4.13969315E-03 -3.18336167E-15 -6.06289392E-16
  1.02551877E-02 -2.36910130E-03 -5.45417715E-16 -1.34466300E-02  7.30077117E-15
  2.66561534E-16 -3.88308324E-17  7.71272741E-17  9.89448745E-17  6.24813652E-16
  1.31873272E-15 -1.17781443E-02 -6.46276852E-05 -3.78333184E-16  5.94046004E-03
 -1.11375832E-14 -9.78907618E-03 -1.08699434E-15 -1.98050840E-03 -1.64641372E-15
 -1.90508963E-15 -9.29241427E-03 -8.68284879E-16 -4.66301862E-03 -2.56079171E-03
 -6.73036464E-16 -4.50037576E-16  8.66197888E-03  2.19622247E-15  8.21892733E-04
  1.79102988E-16  1.65883497E-17  4.43348322E-17 -6.58325790E-17  8.56074107E-17
  5.17290176E-04  1.06906578E-15  4.20956948E-15 -1.01833979E-02  3.18153468E-15
  4.74883626E-03 -2.08214412E-15 -1.01282277E-03 -5.78394844E-16 -2.68851732E-03
  9.32234758E-04 -7.67028568E-16 -4.68430160E-03  9.32029696E-16 -2.79143425E-17
  3.25498171E-03 -5.74582304E-03  3.85488516E-16  1.60527315E-03 -1.19000255E-15
 -3.14413156E-16  1.80433669E-17  3.69620718E-16 -1.78767225E-16  1.34673861E-15
 -7.48675110E-04 -1.64005909E-15  1.45539964E-15 -4.13047623E-03  1.52862676E-15
  2.71362660E-03 -1.01525663E-15  3.29339820E-03  1.29299301E-16  1.38439266E-02
 -1.72383006E-05 -7.30443819E-16  9.67859374E-03 -4.08404859E-15  7.53713050E-16
  6.98831453E-04  1.58012682E-02 -1.87594152E-15 -5.23779361E-03  2.89789644E-15
  2.34951575E-16  3.78599934E-17  1.08057567E-16 -1.15526612E-16 -8.71017996E-17
  1.64352874E-15 -1.03282383E-02 -4.82692861E-03 -6.28720075E-16 -1.25921621E-02
  8.38794036E-15 -4.59259566E-03 -1.11682999E-15 -2.09973815E-03  3.06770431E-16
 -3.54608834E-15 -1.15719560E-02 -2.82344345E-16 -7.17835698E-05  9.33378400E-03
 -8.55948936E-16 -1.88494021E-15 -6.45405655E-03 -1.17988465E-15 -2.63256719E-03
 -9.56190757E-16 -1.66418608E-15  4.03567000E-03  1.68256371E-15  3.27946359E-02
  2.41074075E-15  9.78919645E-16 -3.03145006E-16  4.75084454E-16 -1.34325907E-16
 -1.72061919E-16 -1.24318021E-17 -3.33733976E-16 -2.31753651E-19 -5.13982916E-16
 -1.29774304E-16 -2.61808820E-16 -3.79372043E-16 -1.89259205E-17  4.77529626E-17
 -8.14944982E-18 -6.68545170E-16 -1.61023278E-16  2.61251069E-16 -2.50037891E-17
  2.55186604E-16  1.02792788E-16  2.68002358E-16 -3.47709919E-16 -6.91285810E-16
  5.92161798E-03  3.49165619E-16  2.42259339E-15 -7.82847147E-03  1.26489829E-15
  4.01038812E-03 -8.93448290E-16 -1.22247568E-03 -1.90764752E-15  2.43821220E-03
  2.22989871E-02 -3.65331488E-15 -2.42666241E-03  6.20640534E-16 -1.95410106E-16
  4.14165812E-03  5.17046087E-04 -8.00908214E-16  3.74128455E-03 -2.34848917E-15
 -2.88888942E-16  2.97951250E-17 -2.11951428E-16 -2.73801454E-16 -1.02940185E-15
 -3.63332590E-15  2.21982244E-02 -1.43579111E-02 -6.29948085E-15  2.54110679E-03
 -6.18468055E-15 -9.03073639E-03  7.37582777E-16  8.70618166E-03 -1.12438663E-15
 -1.74514283E-15 -1.89182817E-02 -2.22103251E-17 -8.68271152E-03 -1.41135068E-02
 -1.11561346E-15 -1.05078145E-15 -5.10676827E-03  6.95297717E-16  4.07871081E-05
  4.98791937E-16  1.59456405E-16  4.24099850E-17 -6.92303425E-16 -1.98260301E-16
  1.69860532E-16 -3.90516663E-04  5.17002257E-03  1.40733410E-15  5.21826492E-03
 -1.50759005E-15  4.31768709E-03 -5.10887727E-16 -1.89163213E-03  2.21194969E-16
  1.64291908E-15 -4.09992550E-04 -4.78569629E-16 -1.09923893E-03  1.01463535E-02
 -6.10553556E-18  7.16939894E-16  7.20889473E-03  3.09886410E-15  6.89250737E-03
  2.70212545E-02  1.18340527E-02 -4.18291039E-15 -5.94365824E-02  1.71626068E-15
  5.54788179E-17 -4.94059125E-18  1.32383081E-16  1.01842719E-16 -6.08195502E-17
 -1.15075390E-16  4.68623588E-17  7.24643928E-17  8.11478016E-17 -6.59905962E-17
 -1.48683523E-16  1.61035621E-16 -4.62890502E-17  9.61954112E-18 -1.39998123E-16
 -8.09460172E-17 -3.80801338E-17 -1.93399101E-17  9.81022124E-18 -7.26452627E-17
  3.09340318E-14  4.43757081E-15  8.74777222E-02 -3.08610368E-15  3.58775465E-03
  1.31767621E-16  1.60287233E-16 -7.88250713E-18  6.74968702E-17  5.14576071E-17
 -1.36869569E-16 -2.33668846E-17 -4.04485080E-17 -3.44334955E-17 -6.76093523E-17
 -1.63599093E-16  3.97710811E-18 -2.29272111E-17 -3.13374393E-17 -8.03750025E-17
 -1.20400260E-16 -1.04146240E-16  8.94625342E-18  3.79611624E-17 -6.06218413E-18
  5.31547536E-02  9.04197197E-02  2.50361818E-15  9.37584848E-03 -2.54064824E-16
  6.01047377E-17  1.98206589E-16  7.56144825E-17  1.23313141E-16 -1.85823601E-17
 -1.34546342E-16  6.79577517E-17  6.49767851E-17 -2.96919873E-18 -6.38351758E-17
 -1.06248389E-16  3.62373182E-17 -3.07956648E-17 -1.11862258E-17 -3.31899871E-17
 -3.20789002E-17 -2.59275919E-17  3.82986311E-17  5.58546437E-17 -3.13351682E-17
  6.83720571E-01  6.62255923E-03  1.56012222E-14  2.16802783E-02 -5.37289343E-16
  1.51222883E-16 -3.89531596E-17  3.37164546E-17 -7.31082044E-18 -4.99452822E-17
  6.25901616E-18  1.11660041E-16  8.25195483E-17  8.83363928E-17  5.24191907E-17
  7.88091571E-17  5.88996077E-18  1.01581139E-17 -2.19991491E-17 -4.91253724E-17
 -2.53987719E-17 -5.83905960E-19 -8.39893494E-18 -2.37371344E-17 -9.00136207E-18
  3.06620747E-19  2.00505646E-20  2.24427261E-19  1.47835784E-20  2.41351941E-19
  1.67764277E-15 -2.50043754E-05 -3.46632476E-05  1.14718295E-17 -5.36967720E-06
 -7.40665001E-16  1.35179033E-05  4.36355338E-16  6.38541546E-06  3.77891658E-16
 -2.19595761E-15  9.82597050E-07 -9.33570283E-17  6.77662378E-06 -3.70598811E-06
  1.85007563E-15 -7.19112044E-16 -1.05820964E-06 -7.35870776E-17  4.25422220E-05
 -3.21979433E-19 -2.96003929E-20 -3.30762425E-19  4.86756081E-19  2.58308901E-18
 -2.95864099E-05 -1.42235970E-15 -1.95975231E-15 -4.38488535E-07 -2.87964363E-16
  1.33723043E-05  7.60839861E-16 -7.51919985E-06  3.56531586E-16 -6.62657466E-06
  3.89040597E-05  5.14009156E-17  1.76532176E-06  4.07277168E-16 -2.03149333E-16
 -3.27553657E-05  1.27066384E-05 -6.71017100E-17  1.91522402E-06  2.41775821E-15
 -1.52110736E-19  6.74166534E-21  1.67134366E-19 -4.61262052E-19 -8.79670053E-19
  4.39573138E-14  2.73356057E-05  3.01425917E-05  8.85886608E-15  2.48205418E-05
 -3.59328473E-14 -2.47649104E-06  2.20198346E-14 -1.06149706E-05  1.54867059E-14
  8.62426914E-15  4.55130352E-06 -2.18461087E-14 -9.91577534E-06  4.12141277E-05
  2.71366406E-14 -6.65878056E-14 -4.98672276E-05 -4.01426137E-14 -1.83742101E-05
  3.41302416E-20  9.68716044E-20  6.50120597E-19  2.85250826E-20 -2.91846315E-18
  3.45893024E-05 -3.47478645E-14 -3.83578257E-14  6.96633002E-06 -3.15761215E-14
 -2.82697462E-05  3.19674994E-15  1.73004807E-05  1.35369595E-14  1.21506772E-05
  6.79081137E-06 -5.73324397E-15 -1.72034772E-05  1.24292669E-14 -5.23440923E-14
  2.13809354E-05 -5.23128892E-05  6.33937677E-14 -3.16986378E-05  2.33732618E-14
 -4.07930849E-19 -1.17707888E-20 -2.07636427E-19  1.85073620E-20  1.16044206E-19
  2.15712109E-17  5.29083110E-07  1.38555577E-05 -2.03967356E-16  4.83100803E-06
  1.88779865E-16 -7.43756543E-06 -1.32357017E-16 -1.22999612E-05  4.94016574E-16
 -4.57238363E-16 -8.59430710E-06  7.93352995E-17  4.99406521E-05 -5.55326562E-06
 -2.60910637E-16 -1.25061585E-15  3.01314351E-06  1.18739039E-15  7.14483054E-07
 -3.43369065E-19  1.37543088E-19 -4.38443059E-19  2.66318240E-19 -2.33348702E-19
  3.03313199E-06  7.11328295E-17  5.72086141E-16  6.48611920E-06  2.51041470E-16
 -8.23978195E-06 -2.42731217E-16  5.01120288E-06 -4.67000810E-16 -1.27259025E-05
  1.27146805E-05 -2.13229932E-16 -3.59749556E-06  1.70799140E-15 -3.06194922E-17
  1.01383065E-05  3.08540822E-05 -5.61887148E-18 -3.72682703E-05 -1.02037117E-17
 -1.75226964E-19 -3.08246803E-20 -8.48277177E-20 -4.79234410E-20 -1.72551789E-19
 -2.45335916E-16  8.21386301E-06  4.74886378E-07 -9.19464851E-16 -6.89247870E-06
  4.85042331E-16 -8.36897443E-06 -3.03851723E-15 -3.20726804E-07 -7.10944728E-16
 -2.45826537E-15 -2.91690935E-05 -5.96272142E-16  1.08411872E-05 -1.74437763E-05
  1.01263890E-15  1.37275496E-15 -1.49496260E-05 -2.41508690E-15  5.82907105E-07
  2.34373810E-20  7.63054873E-20 -2.86862377E-19 -1.25477020E-19  2.93974809E-19
 -2.24447912E-06 -9.93219702E-16 -3.08549830E-17 -7.51774344E-06  9.09310703E-16
  4.24107050E-06  1.05896136E-15 -2.44210298E-05  3.66996014E-17 -5.52097317E-06
 -1.98953405E-05  3.68833707E-15 -4.55430929E-06 -1.42883793E-15  2.27028483E-15
  7.74907339E-06  1.07139889E-05  1.78929029E-15 -1.82788650E-05 -7.50198221E-17
  1.83764651E-19 -6.19349383E-20 -1.06804522E-18  1.78157862E-19 -5.02076669E-19
  7.62777683E-07 -9.23370381E-16  2.07781405E-16  5.16029186E-06 -1.50350773E-15
 -8.26683072E-06  1.70925571E-16  5.60214619E-07  8.05911212E-16  6.79713034E-06
 -3.57502380E-06  2.20003152E-16  2.50532502E-06  7.64011970E-16  1.53635586E-15
 -2.77753062E-06  1.08923311E-05 -1.77882005E-15  5.90032347E-06 -4.00246571E-16
  1.73796286E-19 -9.32484641E-20 -3.01990418E-19  8.20099475E-19 -3.70113931E-19
  1.30491034E-16  5.22032627E-06 -1.16544337E-06  9.07068118E-16  8.49859007E-06
 -1.45782004E-15 -9.27595979E-07  1.07496211E-16 -4.52368029E-06  1.19197048E-15
 -6.16850543E-16 -1.20460176E-06  4.45818884E-16 -4.36055854E-06 -8.64236318E-06
 -4.94465953E-16  1.93025009E-15  1.00875707E-05  1.04411921E-15  2.27366296E-06
 -8.77798036E-18 -2.03068151E-18  8.04502981E-18  9.41412785E-18  4.33637806E-17
 -5.73464244E-04 -3.14907704E-16 -1.20912145E-16 -9.49734518E-05 -3.84844847E-16
  1.17866326E-04 -3.39730986E-16 -1.31441007E-05 -5.44829271E-16 -2.04771940E-04
  5.31569459E-04  1.10133794E-16 -2.13913281E-05  2.23204895E-16 -2.31816279E-16
 -2.62072871E-04  1.72699742E-04 -2.18214723E-17  5.27632505E-05 -4.12907941E-16
 -8.09607326E-18  1.37053212E-17 -9.81200964E-18 -5.13069439E-18 -2.15347845E-17
 -6.05060662E-16  2.97044289E-04  4.69670873E-04  1.69192766E-16  2.88824297E-04
 -1.91548785E-16  3.36793219E-05 -8.56290149E-16  6.93907869E-04  1.14842290E-17
 -3.33353401E-16 -4.59542865E-04 -1.60638855E-16  7.80394119E-05  9.01490839E-05
 -1.21630183E-16 -3.02177214E-16  4.11346478E-04  7.03000606E-17  4.77658347E-04
 -1.96004700E-17  1.53393250E-18 -8.55972713E-18 -1.24052708E-17  1.45827928E-16
 -1.67151027E-03 -1.44364102E-16  3.93277581E-16  1.35191239E-04 -5.29155198E-16
 -2.08382611E-04 -1.31520809E-16 -1.11156024E-03  5.15987037E-16 -1.17270728E-04
  1.93209064E-04 -3.24068772E-18 -4.97819490E-04  7.18885549E-18 -2.36636941E-16
 -5.66419783E-04 -6.85340143E-04  5.20491331E-16 -4.04171066E-04  3.42103767E-18
 -4.24118924E-17  5.19931249E-18 -4.49782637E-18  1.56969924E-17  2.47655339E-17
  3.83989351E-17 -7.53384969E-04  4.02849813E-04  3.96155812E-17  1.81700914E-04
 -3.56452386E-16  4.48399710E-04 -4.13806276E-16 -5.16273763E-04 -6.10595669E-16
 -8.73158857E-17  5.24704501E-04 -1.02868675E-16  1.75852748E-04  2.16959321E-04
  1.07379416E-16  3.80270797E-17  1.70615731E-05  2.36803143E-16  4.64801116E-05
  2.16276688E-17 -2.38204275E-17 -1.48311726E-17 -1.34044545E-17 -1.73095267E-17
 -6.16900828E-17  1.11785236E-03  1.58553044E-03  1.21706788E-15 -6.71425659E-04
 -2.50032398E-16 -1.89830413E-04  4.23487068E-16  6.52261730E-04  2.32266579E-16
  9.22436472E-16 -1.02628645E-04 -2.96894903E-16 -8.91978286E-04 -3.49942276E-04
 -1.24626745E-16 -2.60687381E-16  1.00867075E-03 -7.16758455E-16 -6.68999622E-04
 -2.15624348E-17  4.59158042E-18 -4.27118397E-17 -9.22479646E-19  3.25901587E-17
 -2.19296735E-04  6.73680786E-16 -3.15734645E-16  2.96965581E-04  1.13748659E-15
  8.64689230E-04 -3.76641602E-16  3.99261409E-05 -1.12311942E-16 -8.50297047E-04
 -7.92452017E-04 -2.41145497E-16  5.71008475E-04 -1.05615809E-15  4.28179427E-17
  6.00253578E-04  1.02978417E-03 -4.96583765E-16  8.44833557E-05 -3.21771839E-17
  3.51199114E-17 -5.78417709E-18 -7.10269994E-18 -8.09130450E-18 -6.42519181E-17
  3.22794683E-04  5.81963531E-17  1.85537784E-16  1.11302828E-04  1.47451239E-15
  9.81835693E-04 -5.17834375E-16  3.46950194E-04 -4.04851704E-16  7.61314065E-05
 -1.23955584E-03  8.66915613E-16 -2.65435221E-05 -1.86896726E-16  6.82338560E-16
  5.53430435E-05 -1.14724736E-04  3.70791408E-16  4.91982556E-04 -2.51002104E-16
  2.17932940E-17  1.04184425E-17 -5.34715346E-18  4.10776499E-17  2.24091337E-17
  1.49581644E-16 -1.07823456E-03 -4.47776961E-04  4.64081318E-16 -1.37870230E-03
  6.24007104E-16  4.92121826E-04 -4.49490915E-16  1.10542270E-03  4.82841182E-16
 -6.08333204E-16 -2.60943315E-04  8.80204831E-17  5.61916611E-04 -3.44553307E-04
  2.31426312E-16  1.57799552E-16  6.93425104E-04  4.25798109E-17  3.12762547E-04
  5.14395092E-18  1.29689621E-17  1.62983742E-17 -5.28127352E-17  6.40655192E-17
 -1.80908651E-04 -1.40276164E-16 -3.48871428E-16  6.89842988E-04 -1.49632165E-15
 -1.45423416E-03  8.30741335E-16 -3.93810529E-04  9.77240371E-16  3.46900593E-04
 -1.47534547E-03  1.60499649E-16 -1.07267587E-06 -6.92980481E-16  3.53348221E-16
  9.16739344E-04 -4.36729154E-04 -2.97360865E-16 -3.97479881E-04  7.73072562E-16
 -5.58461675E-17 -8.87664390E-18 -7.23822605E-18 -3.00179715E-17  1.63895276E-16
 -1.43522843E-03  2.40303878E-16  3.32889549E-17 -1.72020856E-03  6.22492174E-16
  8.58595320E-04 -7.83141089E-17 -5.83077975E-04 -4.04990244E-16 -1.22910542E-04
  4.20389685E-04  3.33607742E-16  7.72040712E-05  2.43318300E-16 -5.57172098E-16
  4.29130766E-04 -5.65334999E-04  3.59078342E-16  6.64432340E-06  4.68211720E-16
 -3.62969737E-17  1.23243709E-17 -4.37199036E-17  1.00796009E-16 -6.33313262E-17
 -4.34888697E-16  1.48592383E-03 -1.48703777E-04 -9.04268921E-16  3.05104549E-05
 -5.53612835E-16  6.16299189E-04 -1.97016333E-17  2.81137524E-04  1.87958733E-16
 -4.72045612E-17  9.63640922E-04  1.00765839E-17  6.65352636E-04 -5.57616748E-04
  6.19169972E-16 -1.46792114E-16 -1.15418605E-03  1.01144839E-15 -6.55809696E-06
  5.33636786E-17  4.16184934E-18  6.01479834E-17 -1.35569213E-16 -3.93440812E-17
  4.10244515E-16  1.30828355E-03  7.03262964E-04  5.47133215E-16  1.00613992E-03
 -1.05298075E-15 -6.58915902E-04  6.74924487E-16 -2.61717266E-04 -2.42296348E-16
  9.07082793E-16 -7.93023556E-04  2.63519812E-16  9.83687065E-04 -1.49997204E-04
 -4.99312357E-16 -5.62252587E-17  2.28249526E-04 -8.86132621E-16 -1.02469279E-03
 -2.09763799E-16  1.78436429E-19  4.95424798E-17 -3.39936375E-17  9.78268353E-17
  1.49231375E-16 -1.49824258E-03 -3.42494965E-04  6.59989241E-17 -5.44489536E-04
 -5.81057707E-16 -1.33476063E-03 -1.11588320E-16  1.18150321E-04 -9.32473652E-17
 -3.68683767E-16 -2.54999705E-04 -8.65400067E-17  1.12282152E-04  1.27936057E-03
 -7.20038833E-16  4.75153132E-16 -1.16693105E-03  1.12124113E-15 -4.01411136E-04
  2.33119459E-17  9.04735496E-18  1.64070497E-16 -1.00963814E-17 -5.17295614E-17
  3.91693164E-04  1.09279659E-15  4.27849670E-16 -7.96291302E-04  2.27858445E-16
  6.59557275E-04  6.38105415E-16  3.56713972E-04 -1.35484545E-17  1.46233883E-03
  1.54329140E-04  6.56030846E-16  9.84792347E-04 -2.13833262E-16  1.17567244E-16
  1.18984859E-03  1.87199258E-03 -6.75293466E-16  1.25338724E-03 -7.64291004E-16
  7.30381071E-17 -5.61193244E-17  9.40537040E-18 -3.49599321E-17  9.40527649E-17
  1.79025739E-17 -2.00918799E-03  9.87924771E-04  1.11580941E-15 -7.83669321E-04
  5.55035890E-16 -1.16127642E-04 -3.87038913E-17 -2.81192870E-04  3.95785095E-16
  2.60593963E-16 -2.15670379E-04  5.47577632E-16  1.18625794E-04  8.19843153E-04
 -5.49071554E-16  5.26195375E-16 -5.96475657E-04 -1.03781023E-16 -1.20365307E-05
 -2.20266529E-16  2.52147769E-18 -6.63626999E-17  2.71927152E-16 -1.41625907E-17
 -1.13119401E-16  1.36804595E-03 -4.38579051E-04 -2.51705618E-16 -1.56732475E-04
 -2.87944435E-16 -4.77875876E-04 -5.16793654E-16  1.00866496E-03 -1.07990438E-15
 -3.31699153E-16 -1.67916367E-03 -8.11449334E-16 -7.40433332E-04 -1.26523508E-03
  1.11918298E-16 -1.43360511E-15  2.11757662E-03  3.46203789E-16  3.11136168E-04
 -1.86791459E-16 -2.88865897E-18  1.82811253E-16 -3.01759181E-16 -3.49531695E-17
  5.72195837E-04  6.03505436E-16  9.60253209E-16 -1.50283538E-03  4.02831773E-16
 -3.31713683E-04  5.20765856E-16 -5.69339385E-05 -1.19194662E-16 -1.20470251E-04
  1.04374199E-03  5.71708477E-16 -6.91435596E-04  3.18724291E-16 -7.24218505E-16
  1.20461171E-03 -1.66605199E-03  2.94736630E-16 -8.39152081E-04  4.86295079E-16
  1.15860607E-04  2.23659073E-05 -6.08604270E-16  7.98167101E-03 -2.87400342E-15
 -1.48290690E-17 -2.74851571E-17  2.52301222E-17  7.92681856E-18  3.00174548E-17
 -1.65702162E-17  4.12174537E-18 -1.71845748E-17 -6.45076863E-17 -1.37041696E-17
 -1.74808101E-18  5.91313794E-17 -9.36510110E-18  4.74389366E-17  4.06202786E-17
  1.11740843E-17 -2.12038963E-17 -8.42519090E-17 -2.38069734E-17 -2.62979368E-17
 -6.97236503E-16  9.29570488E-18  2.16170695E-16 -1.97943071E-16  9.99697293E-18
 -3.97734155E-16  8.30278242E-04  1.28260672E-03  9.31482738E-16 -8.50874267E-05
 -2.71199840E-16  6.43786744E-04  1.14898216E-16  4.93127263E-05 -3.72859010E-16
 -1.59302364E-15 -3.70285881E-04 -4.05840876E-16 -8.88493034E-04  1.41876618E-03
 -1.84382518E-16 -2.72746992E-16 -7.75312831E-05 -2.26311329E-16  1.28869435E-05
  4.64722049E-17 -4.71671162E-17 -2.85566325E-17 -4.93062202E-17 -2.76063455E-17
  8.98204239E-05 -1.57725387E-15  9.03243157E-16  1.55402189E-03 -7.05581351E-16
 -7.42252211E-04  5.72452220E-16  9.03275441E-05 -8.94273965E-16 -3.25443945E-04
 -4.89621364E-04  1.47186461E-15  9.01976493E-04  9.06346741E-16  9.49658626E-16
  8.25395675E-05  1.44961681E-03  3.78088805E-16  2.38373904E-05 -3.65267310E-16
 -8.25150957E-16 -6.12920106E-18 -4.48069433E-17 -1.06297077E-16 -1.67005316E-16
  2.57133964E-03  5.01740300E-16 -7.61653859E-17  1.31090449E-03  1.26360347E-16
 -9.43404779E-06 -5.61835249E-17  9.44000320E-04 -2.79214100E-18  6.68623130E-04
  4.37223804E-04  1.14052587E-16  1.01343959E-04 -3.55819220E-17 -2.05545077E-16
  3.39767816E-04  2.24966563E-04 -3.92329342E-16  4.69447320E-04 -7.24787214E-16
 -3.12173021E-15  1.48640759E-15 -2.85853583E-02  6.18772469E-15  1.25490941E-02
  9.39237350E-16  3.33237736E-16 -2.91560454E-17  5.97952031E-17  2.19994865E-17
  2.24311080E-17  1.49361950E-17 -1.05560428E-17  9.70461121E-18  1.16094643E-17
 -1.25947655E-17  1.66709612E-17  6.22907074E-18  1.60633072E-17 -2.38575161E-18
 -3.03639914E-18  3.67224310E-18 -1.39486676E-17 -2.76844927E-18 -4.01021010E-18
  5.38236982E-01  3.07284151E-03 -1.26292430E-14 -5.09010305E-02 -1.80452229E-16
  5.96096092E-17 -3.62216009E-17  8.12248987E-18 -1.47387933E-17  6.90477852E-18
 -8.00665319E-18  1.09359947E-17  3.45896352E-17 -1.36035472E-17 -1.81181937E-20
  6.79291117E-18  2.29941081E-17 -8.92807380E-18 -6.51783666E-18 -1.41292177E-17
 -1.74769507E-17 -1.31597030E-17  4.33331879E-19 -3.55037575E-18 -4.79498862E-18
  2.20144618E-14 -2.84888699E-15 -1.95723100E-03  2.14175273E-17 -7.23200531E-04
 -5.21581305E-17 -2.85092608E-17  1.96323859E-18 -1.14770045E-17 -6.64982810E-18
 -3.52999742E-18  9.93639240E-18 -1.79476298E-17 -1.27305317E-17 -1.07427976E-17
 -8.66974258E-18  4.68827471E-18  3.94340691E-18 -1.47134601E-18 -9.25855575E-18
 -8.51860218E-18  6.22316109E-20  5.39869200E-18  4.99774137E-18  4.20426848E-18
 -3.34609276E-14  2.06585586E-14  4.54442577E-01 -1.01628706E-15  3.97039516E-03
  2.82867441E-16  1.12925983E-16  6.20107821E-17  4.53614506E-17  3.97833338E-17
  3.39507102E-18  2.97183965E-17  1.19079104E-18 -1.44804424E-17  2.55971370E-17
  1.15512645E-17  8.82384710E-18 -1.64708741E-17 -8.21323453E-18  2.59242506E-17
 -1.09021794E-17 -9.26857924E-18 -1.97227956E-17  3.86578599E-18  5.26180627E-18
 -5.28355764E-19 -6.46563636E-19 -2.89644244E-19  9.81466797E-19 -2.28069755E-18
  3.49705315E-06 -2.53156733E-15  3.04737337E-15  8.44342152E-06  1.40633001E-15
  7.02813820E-05  1.55736481E-15  2.34899408E-05 -3.06593668E-15  1.03593452E-04
  2.08125720E-05  8.42369957E-15  5.50498928E-05  5.02699507E-15  4.61835521E-15
 -3.66254813E-06  6.36590418E-05  7.33191644E-15 -1.87839966E-04 -1.03097103E-15
 -5.44225936E-19  4.64061739E-19 -1.63993737E-19  8.87034878E-19 -1.55938036E-18
  1.83791926E-16  4.44813773E-05 -5.37525594E-05  4.88010688E-16 -2.31367985E-05
  4.00642467E-15 -2.77485213E-05  1.38990306E-15  5.41722240E-05  5.89690062E-15
  1.21577569E-15 -1.47710437E-04  3.12947543E-15 -8.89088955E-05 -8.08834768E-05
 -2.17598367E-16  3.62661955E-15 -1.29319495E-04 -1.06858936E-14  2.02370986E-05
 -1.79960727E-19 -2.34231811E-19  1.27779975E-18 -2.22821198E-19  6.96203564E-20
  2.13190830E-06  1.38436648E-14 -1.54297148E-14  1.47903310E-05 -2.08682668E-14
  1.55561992E-05  1.06039742E-14 -1.29942137E-05 -5.30220682E-15  8.70515401E-07
  9.53471927E-06 -2.06005741E-14  3.00743805E-06  1.21930166E-15  7.41354617E-15
  1.42854698E-05  1.32262320E-05  2.09289348E-14  8.16714650E-06  9.87503598E-16
 -2.54407237E-19 -1.07966009E-20 -2.62341194E-20 -1.36665752E-18  4.66041993E-19
 -2.73359620E-15  1.08685517E-05 -1.20576560E-05 -1.88895659E-14 -1.66132579E-05
 -1.99257859E-14  8.16147229E-06  1.63739003E-14 -4.37907271E-06 -1.33215727E-15
 -1.22363314E-14 -1.62539075E-05 -3.89152997E-15  1.17331302E-06  5.66792412E-06
 -1.81948830E-14 -1.70436009E-14  1.64633104E-05 -9.95430161E-15  5.96396465E-07
  1.20519698E-19  5.88752997E-19  2.20894616E-19 -2.39979914E-19 -2.10547567E-18
 -1.17860708E-07  7.86650916E-16 -1.41962443E-15  4.21117792E-05  1.54381464E-15
  4.30154269E-05  2.42909437E-15  7.45948266E-05  3.01493005E-15  6.51501692E-05
  6.48595378E-05 -1.67856438E-15  2.49411505E-05 -4.23942070E-15  8.26120919E-16
  6.97048954E-06  7.15380900E-05 -1.39223450E-15 -1.28237315E-04  2.42031448E-15
 -7.74871660E-19 -1.30032418E-18  2.25675514E-19 -5.54313627E-19  1.39692340E-18
 -4.74166184E-17 -2.17680538E-05  3.93119605E-05  1.66204684E-15 -4.52299859E-05
  1.45247970E-15 -6.87411861E-05  2.84167551E-15 -8.71369074E-05  2.24142567E-15
  2.55189829E-15  4.55775161E-05  9.04211496E-16  1.20282941E-04 -2.36810003E-05
  2.70203437E-16  2.54301623E-15  4.07596509E-05 -4.44263997E-15 -6.73008738E-05
 -4.63612440E-19 -4.54787897E-19  6.70778813E-20  8.49440664E-19 -1.95222661E-18
  2.20743392E-05  1.67012753E-15 -6.40920572E-16 -4.63462190E-05 -6.91400360E-15
  4.58088789E-05 -2.67803754E-15 -9.88478789E-05 -1.28352490E-15  3.26242146E-05
 -9.13472943E-05 -1.24293856E-14  3.36376540E-06 -4.81952045E-15 -9.45280208E-15
  1.30123671E-05  1.32520091E-05 -7.70178861E-15 -4.14218930E-05 -2.92318380E-15
 -2.14427401E-19  8.94092329E-20  1.15573757E-19 -5.74570107E-19 -1.34284112E-19
 -2.77108860E-15  1.34429878E-05 -5.86503391E-06  5.82557128E-15 -5.42104048E-05
 -5.70609231E-15 -1.97802261E-05  1.23501240E-14 -8.55206173E-06 -4.11657649E-15
  1.14384254E-14 -9.95823452E-05 -4.19333429E-16 -4.06202669E-05 -7.46061898E-05
 -1.62799082E-15 -1.68506168E-15 -6.19991441E-05  5.24982739E-15 -2.20893905E-05
 -2.89575363E-19 -5.65974986E-19 -4.83511186E-20  2.05434496E-19 -6.55660231E-19
 -1.09469517E-15  1.01330391E-05  1.92655404E-06 -1.85783948E-15 -4.79739940E-06
 -7.52261054E-16  8.52296727E-06 -3.95656518E-16  3.23475612E-06  1.44231438E-15
  1.51611046E-15  1.07855910E-05  3.91336717E-16  3.01883564E-06 -1.22891187E-05
  2.41112276E-15 -2.77413434E-16 -3.43569681E-06  3.35522188E-16  3.01527652E-06
  4.20580261E-21 -5.72637681E-19  1.61601146E-19  8.22554905E-19 -1.08706586E-18
  6.17178932E-06  1.79182360E-15  3.30607529E-16  1.06505724E-05 -8.40842988E-16
  4.33892432E-06  1.49083458E-15  2.42880981E-06  5.74506203E-16 -8.11269905E-06
 -8.39832132E-06  1.89582995E-15 -2.15380487E-06  5.38812467E-16 -2.17225563E-15
 -1.36810406E-05  1.63320933E-06 -6.17951354E-16 -2.02809795E-06  5.34574344E-16
 -7.49386785E-17  2.57074214E-17 -6.66573692E-18  3.32787758E-17  1.31468901E-17
  2.91393485E-16 -1.69647822E-03  1.25185022E-03  3.71287583E-16  9.76515125E-04
 -8.14678873E-16 -3.29604834E-04 -1.21178551E-17 -1.52721971E-03  4.36610131E-16
  4.95964296E-16  4.53340351E-03  3.07964352E-16  2.75799250E-03  1.98751332E-03
  4.38957983E-16  4.48576362E-16  2.50355248E-03 -6.07530154E-16 -4.91344489E-04
 -1.50880193E-17 -4.90119091E-18  4.90484784E-17  7.15709386E-18  1.18867154E-16
 -1.07248007E-03 -3.62132111E-16  2.43398306E-16 -4.29822803E-04 -2.81605414E-15
 -2.98428633E-03  1.10350126E-15 -5.00075270E-04 -1.45838844E-16 -3.42193714E-03
 -3.67899221E-04  4.07798130E-17 -1.25012535E-03  7.15757645E-16  7.04838873E-17
 -1.45354972E-04 -1.12067031E-03  5.01318100E-16  2.70352983E-03 -1.57644052E-15
  1.18414447E-17 -1.05588682E-17  2.43392197E-18  7.09259230E-17  1.45670624E-17
  1.58905461E-17 -9.52393516E-04  7.59518544E-04  6.12099690E-16 -1.90708385E-04
  4.42532189E-16 -1.40748534E-04  4.03331797E-16 -1.05564916E-03  5.62939467E-16
  3.55073337E-16  1.60829710E-03  3.42196180E-16  1.20336615E-03  7.43276561E-04
  1.77002944E-16  2.76039656E-16  9.14197561E-04 -4.78362432E-16 -3.19826577E-04
 -1.76105442E-17 -1.86172463E-17 -1.04915478E-17  5.23915394E-17 -7.00516834E-16
  8.23821534E-03  2.00724285E-15  2.74906581E-15 -6.18302074E-03 -1.20017741E-15
 -1.22283864E-03  7.15533466E-16 -8.79768258E-03  6.50582860E-16 -7.18692603E-04
 -5.75589392E-03  8.07411446E-16 -7.74152895E-04  1.02614069E-16  1.21406754E-16
  7.33812589E-04 -9.39457456E-04  3.64256445E-16  1.15330805E-03 -7.68114752E-16
  3.26263275E-17  7.77138513E-18  1.91884849E-17 -1.57165804E-17 -2.73104993E-16
  3.04334733E-03  6.20341912E-16 -2.58428197E-16  5.36096651E-04  4.93938674E-15
  5.20023398E-03 -1.95024882E-15  7.97998641E-04  9.50092998E-17  6.76321442E-03
  2.45793754E-04  2.01268971E-16  3.29717265E-03 -1.40400944E-15 -1.15894449E-16
 -5.58799533E-05  1.55070358E-03 -8.59799376E-16 -4.52406822E-03  2.63881665E-15
 -3.08980341E-17 -3.77532827E-18 -1.48221349E-17  1.10242447E-17 -2.03009499E-16
 -7.23998310E-16  4.21078160E-03 -5.93349799E-03 -2.95887302E-15  6.37676001E-03
 -2.51442541E-15  4.96344144E-03  4.73163707E-16  7.61133944E-03 -7.85862289E-16
  1.21076416E-17 -2.29477315E-03 -3.14133348E-16 -2.85996600E-03  2.41312889E-03
 -5.37914356E-16 -4.00732750E-16 -1.46696338E-03  1.39981180E-15  2.53591391E-03
  5.38362796E-17  5.49251973E-17  3.86513221E-18 -1.41896137E-17  5.20033795E-18
  2.02359677E-16  2.02715466E-03  6.46656051E-04  1.02841653E-15 -9.97235020E-03
  2.61366306E-15 -1.18696501E-02  2.67477778E-16 -6.68712244E-03  1.84495043E-15
 -5.13132832E-17  4.21702298E-04  4.98718347E-16  1.52425808E-03 -3.04563446E-03
  1.20362303E-16  2.24268858E-17 -5.96122912E-04 -1.53316862E-15 -2.98500065E-03
 -6.35963510E-17  2.36586442E-17 -1.80795354E-17  5.50598156E-17 -4.59337779E-17
 -1.26640445E-04  8.25978951E-16 -1.21438774E-15  8.20913976E-04 -4.23863769E-15
 -5.25885810E-03  1.69038612E-15 -1.48455722E-03  8.78369165E-16 -5.62115974E-03
  1.40285260E-03 -8.92247912E-16 -3.10911541E-03  9.63012334E-16  1.71127918E-17
  8.48118222E-04 -1.42226447E-03  2.10864164E-16  2.67281016E-03 -1.31151855E-15
  5.59528983E-17 -2.21782015E-17 -8.76440195E-17 -1.33018163E-16 -4.29581070E-16
 -1.69358375E-15  1.32678396E-02 -1.23653152E-02 -5.75620565E-15  2.32499929E-03
 -4.64723590E-15 -7.52806114E-03  1.38788124E-15  1.05208830E-02 -9.73027694E-17
  3.01574201E-16 -4.01607569E-03 -2.76720663E-16 -2.84353328E-03 -8.70722484E-04
 -6.98158985E-16 -5.49310098E-16 -2.82284981E-03  1.31941727E-15  1.80539477E-03
 -1.53423731E-16 -3.30860602E-17 -2.29208616E-17  1.22467828E-16 -1.57253989E-16
 -6.02998668E-16  5.71591715E-03 -6.32259188E-03 -2.51420401E-15 -3.98157160E-03
 -9.24016507E-16 -7.27410853E-03  3.70670534E-16 -6.31639510E-04  1.53497384E-16
  4.64159757E-16  3.13810925E-03 -4.11574282E-16  1.55305487E-03  1.60176661E-03
  1.76028957E-16  2.14027247E-16  6.72894541E-04 -3.29042148E-16 -9.06316389E-04
 -1.92543328E-16 -9.09827347E-17 -5.16809737E-17  6.25479965E-18  7.31914910E-16
 -6.19501439E-03  1.00880290E-16  2.82642004E-15 -7.45957215E-03 -5.35047798E-15
 -4.96988332E-03  1.84699320E-15 -1.11047029E-02  8.77556404E-16 -6.39345630E-03
 -9.28823360E-03  9.78145652E-16 -2.15803501E-03  1.18828269E-16  1.90090125E-16
  1.44673212E-03 -9.53651579E-04  5.53934359E-16  2.15447070E-03 -1.38011851E-15
  2.56510044E-17  1.61015595E-16  2.55652764E-16 -3.33637806E-17 -3.44956040E-16
  2.99078960E-03 -2.15377764E-16 -3.34141418E-15  7.70209880E-03 -4.41918536E-15
 -6.10638405E-03  1.78761504E-15 -1.68895851E-03  3.78324573E-16 -5.50097164E-03
  3.64330839E-03  4.05356883E-16  1.44731519E-02 -2.07250062E-15  4.91589622E-16
  6.01221925E-04  1.13700724E-03 -9.21873194E-16 -5.43736263E-03  3.39007630E-15
 -6.07886381E-16  8.60700108E-18 -3.41618168E-17  1.42009050E-17  2.36725717E-16
 -5.39548205E-04  2.32727483E-15  1.33754741E-15 -4.84839341E-03  6.21975527E-15
  8.10817435E-03 -3.61207935E-15 -1.31430256E-02  1.36084253E-15  4.46869564E-03
 -2.01561515E-02  3.48374484E-15  2.83538854E-03 -2.83278973E-15  6.25160168E-16
  5.28956491E-03 -2.29783920E-03  5.26756547E-17 -1.54007761E-03  7.83648269E-16
 -1.93746339E-16  1.85450070E-17  9.96380282E-17 -1.02284867E-16 -4.82485313E-17
  2.83380547E-16  2.65905807E-03  9.66489398E-04  3.54348251E-15 -7.88222754E-03
  5.63871139E-15  2.16406252E-03  2.92759294E-15 -2.03324123E-03 -2.56735222E-16
  3.57003134E-15 -1.09754401E-03  8.47669392E-16 -3.18127737E-03 -4.90702121E-04
 -1.23441906E-15  6.41898401E-17 -1.36934015E-03 -1.54889499E-16  4.98147390E-04
 -7.94980646E-17  3.28751631E-16 -6.32249005E-17 -9.84297372E-18 -3.80515272E-16
  3.22363177E-03  6.98053650E-16  2.34425528E-16 -1.11598928E-03  5.01656720E-15
  6.49584517E-03 -2.40765571E-15  1.55139012E-03 -1.73036110E-15  2.38420299E-03
  1.94378344E-02 -2.03311992E-15  4.02758509E-03  1.45444321E-16 -5.81335848E-16
 -8.08799238E-03  3.43297428E-03 -7.48590539E-16 -2.89637574E-03  1.68698323E-15
 -3.59258430E-16 -3.65012718E-18  1.23643937E-16  1.24032970E-17  2.59970351E-16
 -2.63078530E-03  1.42269706E-15  1.92601753E-15 -5.20877585E-03 -6.47808040E-16
  8.22417545E-04 -9.84885153E-16 -1.88199618E-02  1.37686154E-15 -7.93596552E-03
 -1.28332792E-02  9.25399231E-16 -5.92318596E-03  5.06941541E-16 -1.99150561E-16
  2.37569935E-03 -2.06080375E-03  3.76416872E-16  2.81352474E-03 -1.92403779E-15
 -8.51907953E-16  3.60847777E-16  4.76969897E-16 -1.11836702E-16  2.46646998E-16
  6.06451181E-16 -2.29822965E-03  8.44590318E-03  4.55252389E-15 -2.79265154E-03
  2.84485989E-15 -5.14252220E-04  4.23374819E-16 -2.54931228E-04  1.83654108E-15
 -9.79591178E-16 -6.70194835E-03  2.76775374E-15  3.12300341E-03 -6.44718764E-03
  2.71081305E-16  9.93015862E-17 -2.26900827E-03 -2.39006138E-15 -3.75327994E-03
 -1.76181137E-15 -4.08225668E-15  3.31794775E-03  2.32436002E-16 -3.76465896E-03
 -1.77124551E-16 -1.93101639E-16  2.44487194E-16  2.36909938E-16 -3.99582891E-17
 -1.75725739E-16 -1.60180957E-16  8.48958836E-16 -1.33824749E-16  2.38336460E-16
  6.59010365E-16 -5.15445481E-17  3.83300232E-16  2.67069399E-16 -1.68648256E-16
 -1.79991167E-16  1.10805805E-16 -1.05258395E-17 -1.65380285E-16 -1.07480046E-16
 -2.77604958E-15  7.91874506E-16  1.19687777E-15  2.67555274E-16  4.99374712E-16
 -3.38809017E-03  5.40918924E-16  3.39157836E-15 -8.72299364E-03 -6.57611034E-15
 -5.68154259E-03  1.94713900E-15  5.24571422E-03 -2.07434019E-16 -8.69817577E-03
  6.25911285E-04 -3.00110362E-15 -1.37004866E-02  3.44111426E-15 -1.30128436E-15
 -2.95371485E-03 -8.85422646E-04  5.02481295E-16  5.34445977E-03 -3.33629829E-15
 -1.18802360E-15  5.08546003E-16 -7.10326209E-19  1.35001117E-16  2.15414506E-16
  9.34012227E-16 -3.42455178E-03  1.22527706E-02  4.81079105E-15 -1.17949273E-03
 -3.37700473E-15 -9.62983200E-03 -7.57126585E-16 -1.63198523E-02  3.19591340E-15
 -6.67034356E-16  3.36617477E-03  4.79950403E-15  2.42780529E-02 -7.22871888E-03
  2.74411529E-15  2.19201192E-15  4.82400798E-03 -1.01181139E-14 -1.74129637E-02
 -7.36270779E-15  1.86308891E-15  6.07493406E-16  6.67643920E-16  5.61159240E-16
  2.29488974E-15 -1.88683307E-02  7.09726983E-03  9.83694100E-16  7.40173566E-03
 -2.38947908E-15  8.65721925E-03 -4.92732342E-16 -3.40580679E-03 -1.05546410E-15
  2.56290858E-15  1.95522505E-02 -2.47704223E-15  9.31374533E-04  8.70873493E-03
  5.64192079E-16  9.23281362E-16  5.44370690E-03  1.72740595E-15  3.73056460E-03
  1.36389730E-02  2.62892054E-01 -4.74395505E-15  5.91199265E-03 -3.50089280E-16
  3.80323765E-17  2.50649221E-16 -1.96445590E-16  8.74984334E-17 -7.85316909E-17
  3.97789760E-17 -2.83393043E-17 -1.76657313E-17  1.10138036E-16  6.88992338E-17
  2.65809549E-17 -2.77283143E-16  1.06092433E-16 -1.72887704E-16 -7.10151214E-17
  6.78689624E-18  3.39968934E-17 -7.76651339E-17 -5.63564570E-17  6.14365570E-17
 -2.22281547E-14  3.73988068E-14 -3.55322691E-02 -3.14629797E-15  2.86984638E-03
  6.06483189E-16  2.15061717E-16  6.00587867E-18  1.82029528E-16  2.50777580E-18
 -7.98707505E-18 -3.08491389E-18  1.34666624E-16 -7.00834404E-18  9.98080631E-17
  2.01221431E-16 -3.42731890E-17  1.68795998E-16 -3.72895236E-17  1.39540412E-17
 -5.59556220E-18  5.33344991E-17 -2.39397160E-18 -3.80361748E-17  5.46989729E-18
  4.18476461E-01 -3.49741827E-02  4.05281189E-14  1.76188707E-01 -2.45436059E-16
  6.98212283E-17  1.19859825E-16 -3.30243105E-17 -1.33488647E-17  2.80175729E-17
  2.16305436E-17  1.43968824E-17  1.98891933E-16  1.62567605E-16  1.03321852E-16
  3.80841816E-17  1.03559798E-17  3.49887529E-18 -1.05171161E-16 -4.60131927E-18
 -2.75944922E-18 -6.12287971E-18 -4.54756874E-17 -4.13798348E-17  5.59155171E-18
 -3.45414187E-02  4.61555322E-01 -2.06424226E-14  4.94482900E-03  1.26012794E-16
 -4.08305439E-18  2.05156181E-16  1.52439328E-16  7.74037110E-17  1.27446069E-16
 -1.04302985E-16  7.15932532E-17  7.11084130E-17  4.95029116E-17 -2.01441481E-17
  1.81339682E-17 -1.15135352E-17 -2.85478213E-18 -2.32709842E-17  3.34749246E-17
  1.72185894E-17  4.97092508E-18 -7.98554342E-18 -3.99649434E-19  2.06952480E-17
 -3.84051572E-19 -3.72209960E-19 -2.16050224E-19  5.56907538E-19  2.83686896E-19
  2.76415867E-16 -1.08900615E-05  2.32337079E-06  3.38313200E-17  5.03535321E-06
  5.45300113E-16  8.28385381E-06  1.11181271E-16 -5.91583688E-06  9.68600863E-16
 -4.65484737E-16  2.45139128E-05  4.66762049E-16  1.44101069E-05  1.49712541E-05
  4.00308314E-16  5.39118699E-16  1.97284554E-05 -1.78433796E-15  8.00766708E-06
 -2.74228865E-20  2.33579842E-19  2.90923298E-19  3.26173533E-20 -2.36823679E-19
 -4.82701155E-06 -6.21831677E-16  1.22001169E-16 -5.86343583E-07  2.69055525E-16
 -9.38301176E-06  4.73361110E-16 -1.99852280E-06 -3.36837530E-16 -1.66953735E-05
  8.24504141E-06  1.38688493E-15 -8.06521173E-06  8.04955142E-16  8.42775999E-16
 -7.11545694E-06 -9.54675788E-06  1.11407794E-15  3.12342761E-05  4.28577695E-16
  7.07115257E-20 -3.75377693E-20 -1.87747369E-19 -1.02984064E-19  1.20553246E-19
  1.46143780E-15 -7.21815999E-07  3.00855326E-06 -3.04242315E-15  1.15966860E-07
  2.77510906E-15 -1.02160940E-06  4.73497427E-15  3.90837466E-06  1.68256033E-15
 -2.95960173E-15 -1.64326090E-06  5.44542394E-15 -1.46653249E-06 -4.19259973E-06
  2.60181262E-16  1.03405079E-14  1.11738433E-05  1.00971939E-14  1.54246366E-06
 -9.22466834E-20 -6.01408732E-20  1.19780259E-19  7.68805002E-20 -1.26926006E-19
  1.13636401E-06  9.23162733E-16 -3.81021181E-15 -2.38788751E-06 -1.46740347E-16
  2.17342772E-06  1.29027051E-15  3.73473955E-06 -4.97641016E-15  1.30217942E-06
 -2.31167747E-06  2.07690889E-15  4.29234718E-06  1.87796153E-15  5.32849163E-15
  2.02627888E-07  8.14385166E-06 -1.42102593E-14  7.95204477E-06 -1.94211102E-15
  1.85816337E-19 -1.71742625E-19  3.98833345E-20 -1.08520059E-19  1.34068444E-19
  7.19404945E-17 -5.12872059E-06 -5.54269025E-06 -5.93136619E-17 -4.37221177E-06
 -2.66389083E-16  2.75726063E-06 -9.26344505E-17 -7.31561015E-07 -3.86778974E-16
 -1.40539783E-16  9.14786516E-06 -4.40958825E-16 -1.31552119E-05  2.30565033E-07
  2.61989133E-16  3.83896702E-16  2.98300940E-06 -2.20698894E-16 -1.27452788E-05
  2.48266384E-20  4.97382533E-19  1.58249787E-19 -1.14006390E-19 -1.96625229E-19
 -2.01577842E-06 -2.09854171E-16 -2.01006137E-16  1.58858584E-06 -1.92612352E-16
  7.67775200E-06  8.56695502E-17  3.16376463E-06 -4.52829548E-17  1.07497462E-05
  3.98761205E-06  3.56647810E-16  1.26674469E-05 -5.38552040E-16 -1.58636475E-17
 -7.11400544E-06 -9.48509026E-06  1.41589701E-16  5.88595560E-06 -5.06193074E-16
  3.95438597E-20  7.76376957E-19  1.70605804E-20  2.84793731E-20 -6.24050551E-19
 -7.92760180E-16  9.36804589E-06  5.97256816E-06  4.38659159E-16  1.63900485E-05
 -2.57756699E-15  3.64522512E-07  3.05542543E-17  8.82336776E-06 -4.02473587E-15
  7.69580182E-16 -1.25676343E-05 -2.02159624E-15  2.96892661E-05  4.33278671E-06
  1.29383833E-15  2.28296783E-15 -1.58225302E-07 -1.17325019E-15  2.01312628E-05
 -2.82883610E-19 -5.40799066E-19 -2.74211412E-20  1.00187990E-19  1.03289753E-18
 -6.26871690E-06 -1.17769927E-15 -7.39169557E-16  3.51174967E-06 -2.07685197E-15
 -2.05875466E-05 -4.21273485E-17  2.18997192E-07 -1.10274319E-15 -3.22004203E-05
  6.12903238E-06  1.56125344E-15 -1.63976914E-05 -3.70818851E-15 -5.54645531E-16
  1.03887755E-05  1.82033632E-05  4.00815852E-17 -9.60173102E-06 -2.50578266E-15
  3.14393036E-19 -9.29369763E-21 -2.28689537E-19  2.45708077E-19 -1.13127606E-19
  2.67045252E-06  1.20518785E-16 -8.08573290E-16 -4.91324263E-06  5.53244717E-16
  5.52698136E-06  4.68729191E-16  5.77021974E-06 -1.52220628E-15 -1.62498180E-07
 -2.56351877E-06  1.00603453E-15  6.79228186E-06  5.62889898E-16  8.59496687E-16
  4.07214878E-06  1.29931770E-05 -2.61326283E-15  8.29764906E-06 -1.33695542E-16
  1.77464386E-19  5.98031570E-19 -6.42776426E-19  3.94003975E-20  1.23390171E-19
  4.70025139E-16 -7.03483605E-07  4.58318528E-06 -8.62818020E-16 -3.12805301E-06
  9.77379291E-16 -2.65666633E-06  1.01552244E-15  8.59444239E-06 -2.37501578E-17
 -4.50459629E-16 -5.64680411E-06  1.19906005E-15 -3.24073946E-06 -4.86454913E-06
  7.11776226E-16  2.28127887E-15  1.48313704E-05  1.46956724E-15  7.09913165E-07
 -3.77415910E-18 -2.35970515E-17 -5.40661437E-18  4.36170154E-18 -3.30220985E-17
  3.94878840E-05 -1.53530182E-16  1.66518871E-17  1.58225259E-04  1.21112838E-15
  1.34956948E-03 -6.20921482E-16 -1.16983378E-04 -1.02428320E-16  1.66455229E-03
 -2.36238818E-04  5.99927212E-16  8.11757978E-04 -2.14951143E-16  1.42589557E-16
 -3.00553506E-04 -4.47058005E-04  2.38719277E-16 -2.80569257E-04  2.20741361E-17
 -3.38220378E-17  7.41755759E-18 -1.49514255E-18  2.74716267E-17  5.66470509E-18
  2.18842607E-16 -9.70134737E-05 -3.47634437E-04 -2.83143963E-16 -2.76447614E-04
  1.51114689E-16  2.51350606E-04  8.95657949E-17 -7.26838839E-04 -2.93489105E-16
 -1.66326684E-16 -3.77084831E-04  1.68327713E-18 -1.61078564E-04 -1.54194583E-04
  6.95285553E-18  1.52213033E-17 -7.54869808E-04  3.54794130E-16 -1.19801641E-04
 -1.21112481E-17 -1.70787686E-17 -6.60806231E-18 -1.34894330E-18 -3.33943089E-17
  3.68464454E-04 -1.44379284E-16 -1.42735119E-16 -3.04835976E-04  1.00018290E-15
  1.18983987E-03 -5.00782827E-16  7.67762003E-04 -5.33422345E-16  6.12677363E-04
 -3.20823686E-04  4.87754240E-16  1.04269183E-03 -2.88003248E-16  1.84150867E-16
 -6.67161617E-05  3.47597522E-04 -1.64086492E-16  4.55551140E-04 -3.63685993E-16
 -1.20033824E-17 -2.31991953E-17 -1.15891443E-17  7.78381751E-18 -1.94500014E-17
  5.37454983E-16  7.83784416E-04  1.20442564E-04 -6.14881674E-16  2.08715645E-03
 -1.45050359E-15  1.12368488E-03 -7.62103442E-16  1.36906189E-03 -4.92006319E-16
 -5.85128482E-16 -1.07310836E-03  1.55585906E-16  1.50831471E-03  4.73680349E-04
  2.14372120E-16  1.07694550E-16 -9.13307323E-05  6.75486806E-16  1.26684189E-03
  4.67772823E-17 -2.58537235E-17 -1.93939595E-17 -3.86990669E-17 -9.43882894E-18
  1.85135309E-16  1.41040768E-04 -2.60075707E-04 -1.91818881E-16  1.38970319E-03
 -5.15422567E-16 -1.14239893E-05  2.86884702E-16 -5.79269707E-04  3.37022940E-16
 -5.14047743E-17  8.48667623E-04  4.12376985E-16  8.54895879E-04  9.57996635E-04
  1.74562377E-16  4.55168207E-16 -2.12754069E-04 -1.71643976E-16  2.21336020E-04
  2.09160120E-17 -7.03958057E-18 -2.33740415E-17  7.07268064E-18 -2.90052492E-17
  8.60057191E-04  3.20876175E-16 -5.07794631E-17 -1.14917268E-03  8.41447746E-16
  8.04485632E-04  2.83962058E-16 -1.41942195E-03  9.49104109E-16  2.01967896E-03
 -1.17092324E-03  1.61390080E-16  2.75911166E-04 -5.55399365E-16  1.49680907E-16
 -5.35371468E-04 -8.02483401E-04  9.16674116E-17  3.73441059E-04 -1.12645077E-16
 -4.86528086E-18 -3.05240980E-17 -3.35908179E-17  6.83809556E-18  1.56458835E-16
 -1.22649411E-03 -2.79821388E-16 -6.71222621E-16  1.20739574E-03 -1.28379882E-15
 -2.34645976E-04 -9.14658188E-16  2.36823960E-03 -4.80826063E-16  1.32608600E-03
  1.25758698E-03  2.19553186E-16  1.78863653E-04 -3.19066121E-17 -2.82364727E-16
 -3.72769703E-04 -9.19149723E-04  1.29011510E-16  8.31983998E-04 -7.62359328E-16
 -8.09906274E-18  5.72204018E-18 -3.23334708E-17  1.61156219E-17 -1.79461968E-18
  5.92955390E-17  6.19274464E-04  1.02529802E-05 -4.74660320E-16  8.41447988E-04
 -7.74784649E-16 -3.94726161E-04 -2.32167349E-16 -4.35156953E-04 -7.69930785E-16
 -3.54880969E-18 -1.13310551E-03 -2.99954812E-16  1.45857359E-06 -9.80216285E-04
  4.18172782E-17 -2.42157779E-16 -2.02061647E-04  4.35329627E-16  2.60289455E-04
 -3.14092538E-18 -5.49859801E-17 -2.51746114E-17 -4.23927496E-18 -1.47735330E-17
  1.09917386E-03  1.56406899E-15 -3.09386317E-16 -1.74547930E-03  1.63040847E-15
  1.74431675E-03 -1.47054360E-15 -1.02809780E-04  4.42910911E-16  6.83169111E-04
 -1.27758611E-04 -2.86925960E-16 -1.84427347E-03 -1.42180538E-16 -9.52844590E-17
 -4.09271901E-04 -6.86527130E-04 -6.37362078E-18  9.06461508E-04 -4.14319926E-16
 -1.43970677E-17  6.60128285E-17 -1.52550194E-17 -1.78211459E-17  1.41511124E-17
  3.51968133E-05  3.85159290E-16 -2.55791882E-17  1.07985609E-04 -1.69768273E-15
 -1.45647878E-03 -4.26243376E-16  7.16123920E-04 -1.96284085E-17 -1.15267611E-03
  7.79912578E-05 -3.33962595E-16 -2.18889114E-03  8.22917779E-16  4.42855720E-16
 -1.59535915E-04  1.95967503E-03 -2.28127055E-16 -2.38936159E-04  2.26216306E-16
  6.42576170E-17  2.29324082E-16  3.57024979E-17  3.56106942E-17 -1.87497493E-17
 -1.68061101E-16 -1.28457893E-03 -1.76391692E-03 -8.80307812E-16 -6.07739823E-04
  1.05322393E-15  7.78729386E-04 -9.24496474E-16  5.00606296E-04 -6.86790076E-16
 -7.28111544E-16  2.87470489E-04 -5.97009010E-16 -3.51092736E-03  6.30057043E-04
 -7.65944611E-16 -8.38222145E-16  6.50143791E-04 -1.08810718E-16 -4.38990755E-04
  1.47714094E-17 -8.20787342E-17  2.19903547E-17 -1.29234936E-16  8.24366069E-17
  2.69398069E-16 -1.00761605E-03  1.85396030E-03  1.22761090E-15 -1.13830491E-03
  6.25299758E-16  7.59970205E-04 -8.52051722E-16 -6.76889906E-04 -4.28315722E-16
 -1.72830652E-16 -8.33216063E-04  1.06882760E-15 -3.56163200E-04 -4.24664441E-04
  2.66896383E-16  3.30495781E-16 -6.76351365E-04 -7.05767509E-17  5.08621425E-04
 -4.88575502E-17  1.17829877E-16  1.72931363E-17 -1.17989717E-17  3.36135373E-17
 -2.24474618E-16 -3.86365727E-04 -4.07056318E-04 -9.53829476E-16  1.28118513E-03
  5.25840109E-16  1.63200012E-03 -7.69928018E-16  6.69151795E-04  1.91564435E-16
 -1.18271932E-15  1.93677699E-03 -5.47526320E-16 -2.08238717E-03  5.57859366E-04
  5.68428121E-16 -9.35953800E-16  1.09100115E-03  4.53739993E-16  1.55748466E-03
 -4.27095987E-17 -1.93023615E-16  2.05514920E-17  5.30477201E-18  1.42911268E-16
 -7.80141215E-04 -4.39918815E-16 -7.98953741E-17  9.94514240E-04 -4.90286002E-16
 -3.22784108E-05 -5.40662971E-16  6.47713603E-04 -4.25124656E-16 -1.20855652E-04
 -1.84761984E-04 -6.58205760E-16  4.49162099E-04  3.67157004E-17 -2.34712439E-16
 -9.75723363E-04 -2.17633943E-03  4.46653738E-16 -2.95229600E-04 -3.70480862E-17
  6.27194422E-17 -1.26976822E-16  7.02230505E-17 -3.45838980E-17 -5.35704536E-17
  5.46859463E-16 -3.67696509E-05 -2.50597060E-03 -1.28444648E-15  3.13739477E-04
  5.23076424E-16 -1.01799389E-04  3.44509581E-16  9.91002153E-05  4.55814737E-16
  2.14852372E-15  1.71991746E-03  7.82789388E-16 -1.19665995E-03 -1.12685931E-03
 -6.52540464E-16 -3.10620763E-16  9.92532793E-04 -1.82990641E-15 -2.93608906E-03
 -1.24005536E-17 -3.44320126E-16  2.74913906E-17  1.07590364E-16 -3.46126553E-17
 -1.37947990E-16 -1.82221550E-03 -2.70054013E-03 -1.64444359E-15 -1.93374873E-04
  1.21497456E-15  1.84865408E-03 -1.21906509E-15  9.26029491E-04 -8.03293611E-17
 -6.93987877E-16  2.60706453E-03 -4.28580010E-16 -3.37526780E-03  1.34973811E-03
 -4.17757280E-16 -3.35815904E-16 -1.39445771E-03  7.02355748E-16 -5.95271019E-04
 -2.67763652E-16 -6.15365382E-18  5.57049771E-17 -1.38036218E-16  1.57110776E-16
 -8.70229958E-04 -1.01189615E-15  3.16177150E-17  1.49390664E-03 -6.60888976E-17
  2.27464379E-04 -1.27923508E-16  8.00834464E-04 -3.95803616E-17  1.14795875E-03
 -2.31848311E-04 -5.23552251E-16  1.91041894E-03 -2.67680599E-16  1.53059154E-17
 -1.26967371E-03 -4.58968455E-04 -7.57066950E-17  1.45528097E-03 -1.30194920E-15
 -1.18528551E-03 -1.76640000E-02  3.37736121E-15  2.57865553E-03 -6.68072971E-16
 -1.01229541E-17  7.71932209E-17  1.32100552E-16  1.44123610E-17 -1.23645439E-17
  2.27854572E-17 -8.24913720E-17  2.18246285E-17 -3.50772444E-17  2.44246779E-17
  1.67707157E-17 -1.32577364E-16  1.06972362E-17  1.71879526E-16 -7.18765759E-17
 -1.59445661E-17  7.10901401E-18  4.68358164E-17  1.05724754E-17  2.46085166E-17
 -6.69801745E-16  2.84993322E-16  4.11478460E-17 -1.45642056E-16  3.85771320E-17
 -3.48238758E-16  1.15994134E-03 -2.58038232E-03 -1.93128007E-15 -1.48151608E-04
 -3.80063058E-16 -6.46239102E-04  4.65933723E-16  4.53712147E-04 -2.98837634E-16
  5.70975492E-16 -4.93135847E-04 -6.83831532E-16  2.98659622E-04 -1.06648834E-03
 -1.71509769E-16 -2.53911935E-16 -3.34451236E-04  5.55303497E-16 -5.22506106E-04
  1.41374917E-16  4.79009573E-16  9.60781102E-17  1.94264933E-18 -5.63641105E-17
 -8.84546420E-04 -9.64540218E-18  8.11314571E-16 -2.61413716E-04  1.88335364E-17
  7.01651161E-05 -9.97531785E-16  1.79668177E-03 -1.49029389E-15 -1.02170918E-03
  3.45116986E-03 -9.14275672E-16 -2.01809040E-03  2.59075919E-15 -1.15789544E-15
 -6.02550850E-04  4.75627847E-04  2.24339690E-16 -8.31942124E-04 -7.10655968E-16
 -3.35687020E-16  8.07723224E-16  8.56432448E-17 -9.90577616E-17  8.61791164E-17
 -5.95173289E-04 -1.12757017E-15  5.58235800E-16  5.15781359E-05  7.05901971E-17
 -6.21848826E-04  5.97141358E-16 -1.91404518E-03 -3.57522060E-16 -2.17114549E-03
 -2.75511134E-04  8.74672027E-16 -1.02836570E-03  9.40999398E-16  6.04490590E-16
  1.22747021E-03  2.33170790E-03  1.49938864E-16 -2.84355788E-03  2.26915735E-15
  2.03988475E-15  2.31138438E-14 -1.23909462E-02 -3.12372455E-15 -2.58920201E-03
 -1.65673389E-16 -5.14380993E-17  3.85588005E-17 -1.98294580E-17 -1.69692365E-17
  2.66010319E-18  3.95865449E-18 -6.94167769E-18 -1.15429603E-17  1.67444201E-17
 -3.72940076E-17  1.47096421E-18  2.52351159E-17  9.17538945E-18  1.05527992E-17
  4.41006780E-19 -3.07770873E-17  6.71188391E-18  3.87128929E-17  2.29868136E-18
 -3.55848162E-02 -6.26303077E-01  1.47287706E-14  9.41586958E-03  1.71045338E-15
 -5.20172834E-18  4.03470301E-17  5.81270435E-17  3.98485448E-17  4.36678033E-18
 -1.00982157E-17 -1.74654522E-17 -8.93816292E-18  2.05924268E-19 -5.53976895E-18
 -1.06167938E-18 -9.80552834E-19 -3.38369405E-18  8.27785943E-18 -4.33552211E-18
  4.44012953E-18 -1.36115854E-17 -3.30327304E-18  8.39706011E-18 -1.61338270E-17
  2.76466386E-14 -5.03565077E-14 -3.20762613E-01  1.59158163E-14  2.58534351E-02
  1.89558912E-15  6.44734888E-16 -4.92543355E-17  1.29887644E-16  5.92135987E-17
  7.44420885E-17  3.12023666E-17  1.86236289E-17  5.45720936E-17  6.23815111E-17
 -4.15752456E-18  1.04316076E-17  2.05483809E-17  2.93203841E-17  2.58889733E-17
  8.14167459E-18 -9.89282762E-18  5.48028721E-18  3.71398791E-18  4.23487248E-18
  6.90161695E-15  3.11993218E-14  4.55226355E-02 -2.36883256E-15 -3.64853650E-03
 -1.60483220E-16 -4.73396547E-17  5.79468911E-18 -1.01146199E-17 -2.69874348E-18
 -3.09235373E-17  1.46639396E-17  4.30864960E-17 -5.16729002E-18  1.04323106E-17
  1.17313040E-17  5.99748701E-18 -7.93098060E-18  6.83875794E-18 -5.15203123E-18
  2.74360431E-18  4.24463531E-18 -2.61791234E-18  3.60883675E-19 -1.58438660E-18
Beta Amplitudes                            R   N=        8750
  7.81408335E-19  4.80308514E-19 -8.00656243E-19 -1.12397424E-19  5.66689556E-18
 -6.03569165E-05  2.70625000E-15  1.82009570E-15 -3.36797485E-05  3.22599558E-15
  3.50991160E-05  2.07342528E-15 -9.89095992E-05  2.68747042E-15 -1.34731278E-05
 -9.08923497E-05  9.42290603E-17  7.72960390E-08 -3.86481280E-15  3.82922199E-15
 -6.27726889E-06  5.96513703E-06 -3.97517816E-16  1.73945386E-06  3.04474188E-15
 -6.69622597E-19 -5.56997753E-19  3.99475693E-19  6.60222260E-20  1.98110696E-18
 -3.40264111E-15 -4.75203908E-05 -3.14542580E-05 -1.93902259E-15 -5.59963082E-05
  2.02501309E-15 -3.68066558E-05 -5.63554886E-15 -4.63467427E-05 -8.05081991E-16
 -5.17169241E-15 -1.43959485E-06  1.89154729E-17  6.82969170E-05 -6.73260298E-05
 -3.38130461E-16  3.59045062E-16  7.57709879E-06  8.15421304E-17 -5.33836130E-05
  8.49196960E-19  2.19582852E-19  1.29333981E-19  1.15921591E-19  3.58262076E-18
 -4.40457846E-05 -1.78301721E-14 -8.76471092E-14  3.78768922E-05 -5.21037315E-14
  3.28042671E-05  4.63690625E-14 -6.83721748E-05 -5.53707023E-14 -1.20258722E-05
  3.68416332E-05  7.61969572E-15 -2.81128538E-05  4.57987841E-14  3.45919107E-14
 -1.45632135E-05 -4.41411745E-05 -5.95064445E-14 -2.29142649E-05  1.04342944E-14
 -1.22769016E-19 -1.71311419E-19  2.54695020E-19 -3.35792101E-19  1.49951042E-19
  5.58738367E-14 -1.40566257E-05 -6.89365863E-05 -4.80487081E-14 -4.10776748E-05
 -4.16397208E-14  3.65322995E-05  8.71074930E-14 -4.36260036E-05  1.53177432E-14
 -4.67111741E-14  5.88047430E-06  3.57510656E-14  3.59378479E-05  2.71271389E-05
  1.85055911E-14  5.60977502E-14 -4.69122531E-05  2.91302375E-14  8.17101477E-06
 -5.51889899E-19  1.08706355E-19  1.87071532E-19  1.09743689E-19 -1.44145521E-18
  2.31462363E-05 -1.02228627E-16 -6.31684914E-16 -2.99493144E-05 -7.12722682E-16
 -2.01173892E-05 -1.01346532E-15 -6.51162886E-05 -7.15151879E-16 -3.71733894E-05
 -3.15967235E-05  2.07319915E-15 -9.99817105E-06  4.11806152E-16  7.60378270E-16
  5.91957684E-06  5.80539924E-06  8.05478190E-16  3.92486272E-06 -6.82698225E-16
 -9.75457983E-19  1.47105909E-19  1.22525911E-18 -2.02680111E-19  2.94023864E-19
  6.33166223E-16  1.90160566E-06  1.23430912E-05 -8.91837085E-16  1.48097747E-05
 -7.63799395E-16  3.21896457E-05 -2.44527656E-15  1.58415745E-05 -1.58203952E-15
 -9.43408349E-16 -5.78719677E-05 -4.67212524E-16 -1.04987117E-05 -1.89384879E-05
  2.07824709E-16  1.17217327E-16 -2.74209054E-05  1.17703978E-16  1.95372600E-05
 -4.29413930E-19  3.41054859E-19  1.07549224E-19 -1.92806618E-19 -1.76898620E-18
  1.98179794E-05 -2.90508798E-15  8.00928673E-17 -2.12343857E-05 -8.82862777E-15
  6.67680906E-05 -3.44366314E-15 -1.80532024E-05 -6.20160650E-15  8.86196592E-05
 -3.08969194E-05  1.08161925E-15  1.58342160E-05 -6.59572512E-15 -4.50460646E-15
 -1.70025447E-05 -1.48705948E-05 -1.21476917E-15 -1.06405339E-05 -6.32931580E-15
 -8.88916267E-19 -3.55064950E-19 -2.47973363E-19  5.82752867E-20  1.06520423E-18
 -2.61586853E-15 -2.30291420E-05  1.07106118E-06  2.76198655E-15 -7.07844152E-05
 -8.28369826E-15 -2.80874778E-05  2.14508601E-15 -4.89540532E-05 -1.11177733E-14
  3.94233547E-15  9.65306798E-06 -2.05015128E-15 -5.25523332E-05 -3.56002934E-05
  2.09556041E-15  1.77187091E-15 -8.53221758E-06  1.25983924E-15 -5.07577352E-05
 -2.14274829E-18  2.26673238E-19 -1.56519792E-19 -7.80446122E-19 -7.45803640E-19
  7.11170275E-15  6.79045978E-06 -6.03263216E-05 -8.25746825E-15  8.58310805E-05
  1.81722845E-14 -2.66942364E-06  1.15240162E-14 -1.21187523E-04 -1.22817384E-14
 -4.22306998E-15  1.42876310E-05  7.81429137E-15 -2.25579809E-06  2.49540642E-05
  3.74094407E-15  1.14927889E-14 -7.85488229E-05  7.78650516E-15 -1.78698669E-06
 -1.24041395E-18  5.01367791E-19  9.38625854E-19 -3.68034622E-19  2.72224669E-18
 -4.04833214E-05  1.18299533E-15 -1.06667194E-14  4.67137767E-05  1.50662296E-14
 -1.03558396E-04 -4.23999809E-16 -6.55438994E-05 -2.13606682E-14  6.94696220E-05
  2.39134384E-05  2.50737449E-15 -4.43975540E-05 -3.59353472E-16  4.38772069E-15
 -2.12221542E-05 -6.52134430E-05 -1.38511990E-14 -4.41242095E-05 -2.91325010E-16
  1.49438505E-17 -9.11820178E-19 -9.97251084E-19  2.59650930E-18  1.02797020E-16
  5.91131937E-16 -2.39855674E-03 -2.29429606E-03 -6.44673547E-16 -4.18300477E-03
  2.23307703E-15 -2.04431718E-03 -3.78659122E-17 -4.24724886E-03  4.97871128E-16
  8.18807837E-18  1.32413369E-03  1.22572544E-16  5.54314650E-04 -2.05013994E-03
  1.45661274E-16  9.50360530E-17 -5.95026676E-04 -1.49060165E-15 -2.96718945E-03
 -2.47110277E-17 -2.89015592E-18 -1.40393710E-17 -2.32916561E-17  3.87409276E-16
 -3.98035858E-03 -2.68724159E-16 -2.50969728E-16  6.36649446E-04  3.02718102E-16
  1.38446035E-04 -3.54389821E-16 -7.62835876E-03  6.98302182E-16  1.00055781E-03
 -1.34582298E-03  3.88868706E-16 -1.79015925E-03  4.45177917E-16 -1.92512951E-16
 -1.28031648E-03 -2.50484882E-03  3.30009664E-16 -1.57503267E-03  6.67131980E-16
 -1.53639742E-17 -2.71136185E-18 -3.00903154E-17 -1.44783229E-17  5.53399081E-18
 -1.91643309E-16  2.08632604E-04  4.85743487E-03  2.29133373E-15 -2.45800172E-03
  1.36110273E-15 -1.86942708E-03  2.08895088E-16  4.78024074E-03  1.41055777E-16
  7.41664935E-16 -1.50052467E-04 -3.02415376E-16 -1.81711922E-03 -1.96145723E-03
 -4.50795917E-17 -1.19801386E-16  4.03712821E-03 -1.20080141E-15 -1.19352042E-03
 -2.80691474E-17  2.31826175E-18 -2.39823667E-17  6.47223578E-19  7.78794652E-17
 -5.53355566E-04 -1.57266733E-16  2.66455302E-16 -2.34557835E-04 -3.22363510E-15
 -3.19020459E-03  1.05090015E-15 -1.48455185E-03  1.10226596E-16 -5.45227087E-03
 -2.35861011E-05 -1.37932323E-16 -9.03284209E-04  4.01692310E-16  9.32711141E-18
  9.17771629E-04  9.26560071E-04  2.63976686E-16  9.24137282E-04 -5.72224076E-16
  2.72987623E-17  7.17808686E-18  3.43828980E-19  5.97598569E-19  3.82470128E-17
 -9.70174383E-04 -6.90782280E-16 -1.81249926E-15  4.43972711E-03 -3.88457716E-15
 -5.06512713E-03  2.26898420E-15  1.72942280E-03  1.53213814E-16  1.40267384E-03
  5.45863229E-03 -9.35787673E-16 -1.91001728E-03  8.76834782E-16 -1.71731516E-16
 -3.88281584E-04 -2.63687314E-03 -2.52889990E-17 -1.48874562E-03  9.45558153E-16
 -2.03143383E-17  1.18967722E-17 -5.79939275E-17  1.45267941E-17 -5.09016556E-17
 -4.43962430E-16  1.60194798E-03  1.22041112E-03  5.27625475E-16  2.86913951E-03
 -2.61026589E-15 -3.16501159E-04  2.15811738E-17 -1.80969449E-03 -7.30310981E-16
  1.14318964E-16 -1.03774383E-03 -8.03271064E-16 -4.30083010E-03 -1.92784503E-04
 -4.27837002E-16 -3.84385394E-16 -2.02953743E-03  6.34916956E-17 -3.18902231E-04
 -3.87062027E-17 -2.49873211E-18  7.00731311E-18  2.00686678E-17 -5.38434234E-17
 -1.62070010E-16  1.42305163E-03  2.00916590E-06 -1.86715270E-16  3.17704710E-03
 -3.02809204E-15 -7.63054803E-04  1.68889820E-16 -1.58970220E-03 -2.70142264E-16
  5.86550091E-16  3.23356889E-03 -5.58850793E-16 -1.44894479E-03  3.46663348E-03
 -9.40757410E-17  1.39470127E-16  8.77375835E-04 -7.63881917E-17  1.41484554E-04
  6.20315904E-18  1.88697357E-17 -2.66663112E-17  6.58393026E-17 -8.60015409E-17
  1.20497993E-03  1.70770498E-16  4.26135560E-16 -8.28029570E-04 -4.55939105E-15
 -5.23257554E-03  2.60116557E-15 -9.06885835E-04  7.24307879E-16  2.57642123E-03
 -2.64816745E-03  2.49923221E-16 -2.51909648E-04 -4.34595178E-16  2.02833959E-16
  5.01033682E-05  5.24801397E-04 -7.51736373E-17 -4.96236204E-04  3.07509537E-16
  7.67417292E-18  9.12605374E-18 -6.59255596E-17  6.01308626E-18  2.62096921E-17
 -1.51341225E-16 -3.45596726E-04  1.17538016E-04  4.79719745E-16 -3.95126976E-03
  4.21649233E-15  1.59694623E-03  7.51839876E-17  1.74833953E-03 -2.30298138E-16
  1.71717309E-16  4.50413907E-05 -4.19138096E-16 -1.96255200E-03  1.14893215E-03
 -2.88638344E-16 -2.47081596E-16 -4.50271496E-04  1.01392961E-15  1.77504096E-03
 -3.02474149E-17  5.86499306E-17 -9.97155313E-17  1.67695155E-17  8.10860690E-18
  2.59898367E-16 -6.24751586E-04 -3.97250032E-04 -4.36454070E-16  8.87710718E-04
 -1.38552166E-15 -1.35970967E-03 -1.11449923E-16 -8.86587805E-04  2.47911100E-16
  3.70419732E-17  1.06984182E-03  2.74516853E-16  1.32158989E-03 -2.78443095E-03
  5.62445435E-16  1.96682330E-17  1.08458404E-03  8.70212823E-16  1.67389785E-03
  3.34048574E-18  4.43787036E-18  2.33765679E-17 -8.02546445E-19 -1.17229042E-16
  1.61028071E-03  4.36039082E-16  5.27884115E-16 -1.08835733E-03 -1.02006635E-15
 -1.17765832E-03  9.10117340E-16 -6.08064712E-04  2.93027802E-16  2.03279662E-03
  1.61938129E-04  1.28698701E-16  5.38703644E-04 -3.53840191E-16  2.32914926E-16
  2.06177835E-03 -6.53741881E-04  4.61171341E-17  2.56872474E-03 -1.42740004E-15
 -7.24382878E-17  1.84933992E-17  2.25203905E-16 -7.81889475E-18  1.18043899E-16
  4.69483883E-03  5.39396957E-16  9.37283905E-17  2.58694405E-05  1.29728494E-16
  1.23682915E-04 -8.64914913E-17  1.36306798E-03 -2.86876613E-16 -2.57576881E-04
  2.91741410E-03 -7.35266094E-16 -3.77673053E-04  1.95437307E-16 -1.01219370E-16
 -1.08164628E-03  1.43723113E-04  1.92912973E-16 -2.61791178E-04  2.42590004E-16
  3.25330425E-18  1.44300319E-16 -3.00182624E-16  1.30404732E-16  1.01720621E-17
 -2.03089031E-03 -4.79647834E-16 -6.62817675E-16  1.56564233E-03 -6.30332803E-16
 -7.86233219E-04  2.00171487E-16  5.70797651E-04  1.11178112E-16 -1.22329965E-03
  3.43031879E-04  2.71564911E-16 -1.02539675E-03  6.56268881E-16  1.05381092E-16
 -2.62083762E-03  1.05670583E-03 -1.24057668E-16  2.86539894E-03 -1.57663809E-15
 -1.56897143E-17  6.85194201E-17 -1.30072447E-17 -7.09680590E-17 -3.23545503E-16
  4.12074121E-16  8.59824784E-04 -4.20795710E-04 -4.29883826E-16  2.83272888E-05
  5.61654937E-16  1.21623345E-03  1.92521434E-16  9.34719248E-04  9.22485218E-17
  7.10949847E-16  3.30408570E-03 -7.22937265E-17  4.46425243E-04  5.59383677E-04
  2.95996977E-16  1.43051241E-16 -3.01959704E-03 -2.62454519E-16 -1.55964759E-04
 -8.00415111E-17  4.66487709E-17  1.05410917E-16  6.64455419E-17  7.04184206E-17
 -1.21660229E-03 -3.20599208E-16 -5.87105935E-16  1.55322601E-03  7.06562325E-16
  6.00943442E-04 -2.88158512E-16  3.01975106E-05  2.72375006E-17  1.51844874E-03
  2.86785135E-04  2.83897355E-16  3.15811756E-03 -4.97738598E-16  4.47494732E-17
 -1.86369427E-03  3.71215480E-04 -6.39229256E-17  1.08322073E-04  3.43403684E-17
  6.99715910E-17  1.34587964E-17 -4.50483998E-16  1.62750704E-16 -2.20539706E-15
  9.02920269E-04  2.38338848E-16  6.24712089E-17 -4.27431988E-04 -9.85185580E-16
 -1.30456854E-03  8.19388072E-16  1.10821320E-04  7.99048150E-17 -8.60807180E-04
 -7.42985543E-04  3.50072491E-16 -9.25328731E-04  5.61747403E-16 -1.49919711E-16
 -9.76116744E-04 -4.51192934E-03  4.77888648E-16  3.71629613E-04 -2.33290377E-16
 -8.71694243E-17  2.44689592E-16 -2.78982493E-16  2.52631449E-16  5.73162783E-16
 -7.96801933E-16  2.36439339E-03 -5.79704764E-04 -2.37031232E-16  4.57420196E-04
  1.11129183E-15  3.40831752E-03  1.67565644E-16  1.76658443E-04 -3.17325341E-16
  6.03537662E-16  1.73392748E-03 -2.05898888E-16 -1.01892630E-03 -9.87273244E-04
  1.36570776E-17  4.26460992E-16  1.67182609E-03  6.91024646E-17  3.33267251E-04
  5.86393926E-16  1.87194891E-15 -1.35622081E-03 -2.73217284E-15 -5.30629577E-02
 -4.27696156E-15 -1.46173417E-15  1.42182184E-16 -4.04487458E-16 -1.01979877E-16
 -6.85762067E-17 -6.94489211E-17 -1.33484206E-17 -5.94104093E-17 -5.85285668E-17
  4.90199722E-17 -2.13463822E-17  2.41886594E-17 -1.85726546E-17 -5.67308478E-17
  4.69122267E-18  1.90806254E-16  4.12934054E-17 -3.16624996E-17 -7.60117935E-18
 -9.72083773E-18  3.57242727E-16 -6.44382036E-16  6.09742970E-16 -4.76567029E-16
  4.65863873E-03  1.10166102E-16 -1.77437488E-15  3.57191444E-03 -9.01140170E-17
 -5.48503406E-04  3.01154002E-16  4.47246145E-04  4.57082402E-16  2.44454902E-04
 -3.07912117E-03  5.21619369E-16 -1.76733047E-04 -2.73410344E-16 -4.05824903E-17
  1.13769474E-03 -6.04377272E-04  1.34321777E-16 -3.34174965E-04  2.32452472E-16
  1.76531472E-16  9.05014456E-17 -3.93829578E-17  4.99672895E-16  5.04617079E-16
  2.76833353E-16 -1.98192128E-03  3.94941864E-03  1.68585785E-15  7.19525030E-04
 -9.63580477E-17  1.12678311E-03 -1.30193683E-16 -1.86198936E-03  2.23038553E-16
  8.02856016E-17  2.12359211E-03  1.54195905E-16  1.82792644E-03  1.93930454E-03
  2.02602410E-16  1.51529475E-16  3.59592437E-04 -1.91622489E-16 -2.46927959E-04
 -2.29608062E-17  3.77134448E-16 -5.80928105E-16  1.04459599E-15 -1.34973265E-16
 -8.68789622E-16  6.10297650E-03  4.37870435E-03  2.17382415E-15  4.14828316E-04
 -9.99649601E-16 -1.15248409E-03  1.42428466E-16 -4.46761578E-04  1.16281611E-16
 -4.22785291E-16 -1.24095139E-03  2.53912092E-16  8.71920842E-04  1.35797951E-04
  1.38188183E-17 -1.03635030E-16 -9.13502317E-04 -4.73706972E-16 -1.00745939E-03
  5.76802425E-03 -1.03399819E-03  6.23316849E-15  9.99679243E-02 -2.76132977E-16
 -1.45637643E-16 -1.25761604E-17 -5.63913996E-17  2.48558828E-17  5.21487866E-17
  2.56933887E-17 -1.11624220E-17 -2.10428509E-17  2.66228971E-17 -2.29340655E-17
 -8.21122352E-18 -3.31372894E-17 -3.38418094E-18 -8.03363905E-18 -2.16067607E-18
  2.29581686E-17  3.64326324E-18  1.39709124E-18 -2.13501764E-18  1.52960851E-17
 -2.01521059E-14 -1.21474810E-14 -1.85151578E-01 -3.03704780E-15 -3.14093719E-03
 -2.93728128E-16 -1.97517314E-16  3.58014101E-17 -9.50972251E-17 -4.12340197E-17
 -1.49651374E-17  2.42060777E-17  8.52199198E-17  6.39971571E-17 -5.20086417E-17
  2.81492279E-17  1.96889574E-17  2.01455285E-17 -2.04578879E-17  7.32221313E-18
  2.82246026E-17  2.94388276E-17  1.60771093E-17  8.55951304E-18 -1.72880743E-17
  1.00400594E-02  1.50231795E-01 -1.09949971E-14 -3.52120207E-03  2.48030506E-16
 -1.85342326E-17 -4.54970261E-17 -3.30104087E-17 -3.11996084E-17 -2.27103724E-17
  3.62074198E-17 -2.00434858E-17 -1.07637400E-17 -9.63048442E-18 -7.87861478E-18
  4.19427100E-18 -2.66100949E-17  8.10243229E-18 -8.90214360E-18  3.06389689E-18
 -5.83147683E-19 -4.38676836E-18  8.83393391E-18 -3.10309711E-18  1.83618940E-18
  6.55210828E-01  1.33122631E-03  2.25120702E-15  1.95920963E-03  1.51052790E-15
 -9.17019599E-17 -2.75578545E-17 -1.90011140E-17  5.26181697E-17  9.10318314E-19
  2.75562688E-17 -5.78942133E-17 -2.88720998E-17 -2.02351783E-17 -4.28854284E-17
 -8.35912819E-18  1.15160460E-17  1.18937852E-17 -1.68493509E-18 -2.75016399E-18
 -1.35130340E-18 -9.54935715E-18  1.41279009E-17  2.13738115E-18  6.28954419E-19
  1.19840890E-18  1.50290733E-20 -8.30541459E-19  8.63283125E-19  2.37391007E-19
  1.52583878E-16 -4.21670215E-06  3.38101295E-06  4.08451922E-16 -1.49498229E-06
 -2.14207463E-17 -7.33330983E-06  1.78158366E-16  4.76774748E-07  2.05239243E-18
  6.23535688E-16 -1.16374423E-06 -1.57148795E-16  3.95034850E-06 -9.80016330E-06
  1.50940428E-17 -2.92274780E-16  5.84996184E-06 -1.40680719E-16 -4.78895309E-06
 -5.62704734E-19  5.77321551E-20  5.77045587E-19 -6.78270012E-19  4.29419096E-19
 -2.40020609E-06 -2.49736333E-16  1.95276762E-16 -7.62957205E-06 -1.33370197E-16
  5.80271805E-07 -4.18484427E-16 -2.46623729E-06  4.91320860E-17 -4.70437485E-07
 -1.14056481E-05 -5.83083464E-17  3.14935114E-06  2.35444192E-16 -5.62836005E-16
 -4.19381488E-08  5.80287572E-06  3.51875380E-16  2.77938927E-06 -2.81734944E-16
 -2.17099256E-19  6.88226141E-20 -1.12905857E-18 -2.22409298E-19  1.99504001E-19
 -9.33081632E-14 -2.18252073E-05 -1.22106179E-04  8.88932005E-14 -7.28600163E-05
  7.17645748E-14  6.63915199E-05 -1.51683260E-13 -7.86739836E-05 -2.59980923E-14
  9.14255504E-14  1.21929888E-05 -6.51605465E-14  5.87212384E-05  5.46704576E-05
 -3.09266992E-14 -1.02681165E-13 -8.48089822E-05 -5.28194546E-14  1.55826395E-05
 -3.98984655E-19 -1.34892619E-19  6.55625837E-19 -3.37745583E-20  6.20722032E-18
 -7.34253972E-05  2.77501569E-14  1.55161361E-13  6.99803333E-05  9.27292622E-14
  5.64358431E-05 -8.43643467E-14 -1.19359067E-04  1.00043234E-13 -2.03643815E-05
  7.19363220E-05 -1.55490051E-14 -5.12734803E-05 -7.45664298E-14 -6.94692895E-14
 -2.43541905E-05 -8.08207641E-05  1.07777911E-13 -4.15946620E-05 -1.97268109E-14
 -3.09004942E-19  5.56089131E-21  3.33325308E-19 -2.77332389E-19  2.32529472E-19
 -1.93014121E-16 -5.01590933E-06 -3.96702109E-06  1.43962888E-16 -1.91504271E-05
 -4.25264902E-16 -1.33461435E-05 -9.47222729E-16 -1.47868779E-05 -1.04361140E-15
  2.17248204E-16  1.70898023E-05 -3.85036586E-16 -7.49762525E-06 -1.07633699E-06
  7.27112329E-17 -1.75103876E-16  4.27802364E-06 -5.48660640E-17 -1.45786353E-05
 -1.62643260E-18  9.10280716E-20  9.31531382E-19 -1.46496417E-18  7.77458998E-21
 -9.55684240E-07 -2.25672066E-16 -4.91896322E-16  2.14572770E-06 -8.34413530E-16
  1.76805713E-05 -2.72632630E-16  1.51174750E-05 -6.97003610E-16  2.76088287E-05
  4.08844467E-07  6.47364312E-16  6.00418561E-06 -5.05004242E-17  1.48139444E-16
 -4.31424734E-06 -2.59422939E-06 -6.73970489E-17 -2.55199118E-06 -4.35211794E-16
 -2.27675383E-19  5.38609208E-20  7.95018006E-19 -2.84216604E-19  5.14760155E-19
  1.07843288E-15 -5.63080383E-06  2.88334097E-06 -1.23684531E-15 -1.60673002E-05
  1.87895278E-15 -5.94597253E-07 -2.44726123E-15 -9.50309826E-06  1.96737966E-15
 -1.47999337E-15 -9.17436662E-06  9.89910497E-17 -1.58628248E-05 -1.26280191E-05
 -4.75465527E-16 -5.53902745E-16 -7.59249814E-06 -3.71311806E-16 -9.00181433E-06
  3.55478581E-19 -1.52964164E-20  8.19057532E-19  4.46827552E-19 -6.33451334E-19
  9.36901953E-06  6.77524138E-16 -5.89001350E-16 -1.06484541E-05  1.94714102E-15
  1.43975555E-05  1.91926209E-16 -1.85906106E-05  1.03336831E-15  1.50352790E-05
 -1.24354215E-05  1.17211121E-15  1.25264800E-06  2.10637379E-15  1.69111699E-15
 -3.41352190E-06 -3.46011699E-06  7.82340179E-16 -2.38812079E-06  1.16965367E-15
 -1.29154382E-21  1.60784375E-19  2.92843111E-18  1.50756932E-19  5.77147562E-18
 -6.02127613E-05 -1.73211661E-15  1.57493216E-14  6.89431018E-05 -2.22925238E-14
 -1.51868033E-04  7.11047059E-16 -9.76208986E-05  3.15421378E-14  1.01994522E-04
  3.52907847E-05 -3.70826058E-15 -6.57364634E-05  4.98193819E-16 -6.48630035E-15
 -3.15807058E-05 -9.66291240E-05  2.05552115E-14 -6.55976869E-05  4.81778816E-16
 -1.52087171E-18  1.46297826E-19  1.54750512E-18 -8.56110912E-19 -1.93311617E-19
 -1.06224377E-14  9.72892428E-06 -8.96546665E-05  1.21180968E-14  1.25743048E-04
 -2.69039648E-14 -3.58136498E-06 -1.72168891E-14 -1.78891719E-04  1.79887114E-14
  6.21582513E-15  2.10366362E-05 -1.15970484E-14 -2.61448386E-06  3.68388333E-05
 -5.57263519E-15 -1.70439568E-14 -1.16657372E-04 -1.15572237E-14 -2.51377418E-06
 -4.39012408E-18 -1.80809850E-19 -1.21521216E-17 -7.50927219E-18  1.23108010E-16
 -1.34112967E-03 -2.49723062E-16 -4.73262371E-16  7.14199755E-04 -7.61865454E-17
  5.32529637E-05 -2.62041720E-16 -3.07440535E-03 -9.73164200E-17  3.17591110E-04
  1.26737808E-04  1.58465270E-16 -9.13138113E-04  2.97861375E-16 -1.85477532E-16
 -6.24344335E-04 -1.30385151E-03  2.95821842E-17 -7.40726816E-04  1.42536971E-16
  1.04490922E-17  9.11427791E-18  2.92654885E-17  2.13330459E-18  2.91325159E-17
  3.37377608E-16 -9.94836974E-04 -6.59907901E-03 -2.71177330E-15  2.98093803E-05
  4.31266958E-16  1.78237853E-03 -3.82238742E-16 -6.99834519E-03  3.34704510E-16
 -7.17553442E-16  1.21751073E-03  1.76796710E-16  1.75826819E-03  1.90951742E-03
 -3.03990233E-17 -2.65682486E-17 -4.81629635E-03  5.57644039E-16  2.30606361E-05
  5.09523014E-17 -4.19936459E-18  3.60597377E-17  4.95675183E-17 -4.66743284E-16
  5.40502301E-03  9.24573917E-16  2.56774205E-15 -5.43434412E-03  2.23590819E-15
  3.58715389E-03 -1.35469177E-15  7.28292420E-03 -5.09529720E-16 -2.58295567E-03
 -3.83897123E-03  4.06987683E-16  3.95268009E-03 -1.43615339E-15  2.65377855E-16
  1.76206021E-03  5.86617531E-03 -6.95421795E-17  3.32760786E-03 -1.75441783E-15
  2.27680280E-17 -4.52094125E-18  1.78146245E-17  4.18738526E-17  4.58643991E-18
  2.02419431E-16  1.04894724E-06 -6.88825721E-05 -2.37658565E-16 -5.21219484E-04
  2.31356254E-16 -2.98900253E-04  2.14878774E-16  6.25671448E-04 -4.04833207E-16
  4.38841633E-18  5.73286664E-04  1.37453876E-16  5.51440619E-04  3.33907527E-04
  2.17542710E-16  3.56813852E-16  9.12342015E-04  6.15467867E-17  1.11722989E-05
 -8.76102476E-18 -2.89191854E-18 -3.94306263E-17 -3.86080862E-18 -5.55168588E-17
 -1.19489573E-16  6.67474057E-04 -4.99000123E-03 -1.84695464E-15  4.17849618E-03
 -3.38684801E-15  1.47642081E-03 -5.58716583E-17 -6.69258613E-03  7.27064730E-17
 -3.31383647E-17  7.57983211E-04 -1.53151969E-16  7.71848864E-04  3.12998652E-03
 -1.84835943E-16 -2.58056757E-16 -4.86865797E-03  5.75508951E-16  3.19234555E-04
  6.61136146E-17 -5.10730773E-19  5.42266899E-19  7.06471651E-17 -6.32412959E-17
  8.28899635E-04 -4.96542074E-17 -1.50222896E-16  1.60109097E-04 -4.22243868E-15
 -5.26377311E-03  2.69711295E-15  4.09205175E-04  4.45309887E-16  4.04601063E-03
 -7.78520854E-04 -3.67540389E-17 -6.18603349E-04 -1.51225557E-16  2.94047893E-17
 -4.20722869E-04 -9.19026917E-04 -1.69551755E-16 -1.12702676E-03  6.18487733E-16
 -9.16623597E-18  4.82045546E-18  1.26242741E-17 -2.22473308E-17 -3.24021042E-17
  9.44093887E-05 -5.80615066E-17 -4.03626859E-16  9.45343686E-04 -3.52341783E-15
 -4.51766651E-03  2.04026106E-15 -1.28039958E-03  2.94256327E-16  1.42236908E-03
  8.54290749E-04  4.08706561E-17 -7.77572765E-04  1.84578900E-16  2.18464506E-16
  7.62957778E-04 -1.20470114E-03  1.27607631E-16 -1.73696234E-04  1.02258587E-16
 -4.37487365E-18  2.45736033E-18 -1.00395465E-16  1.37934922E-17 -6.99217539E-17
 -1.40083423E-16  1.29606920E-03  2.13429322E-03  2.10814462E-16  7.86641639E-03
 -8.24096678E-15 -3.61776333E-03 -2.02200998E-16 -3.05573459E-03 -4.95559837E-16
  2.05379422E-16  4.75775529E-04 -4.89768925E-16 -2.43252209E-03 -2.16516917E-03
  1.02610268E-16 -1.16055876E-16  1.06720206E-04 -2.80858142E-16 -4.84147140E-04
  1.01092646E-16 -2.14626626E-17 -1.91431292E-17  7.08706925E-17 -3.73116407E-17
  5.25662640E-04  1.60636700E-16 -2.57587372E-16  1.88237589E-04  3.93252629E-15
  5.79089726E-03 -2.36741439E-15 -8.14781365E-04 -1.75848626E-16 -2.72892264E-03
  1.52497661E-03 -1.08112910E-16 -1.44883525E-04  1.61001467E-16  1.78627986E-16
  4.93841678E-05 -4.36317744E-04 -1.06903144E-16  8.07103339E-06  1.38977946E-16
  1.14887177E-16 -7.59585979E-18  1.47566012E-17  8.29391144E-17  6.10287658E-17
 -3.05505684E-04 -1.73263376E-16  2.67709810E-16 -2.88705963E-04 -2.08462845E-15
 -2.78484101E-03  9.71158964E-16  1.25451691E-03  1.10955026E-16  6.09252621E-04
 -2.37453351E-03  2.51660390E-16  8.96953415E-04 -9.71883211E-17  8.86642389E-18
 -3.06485861E-03  2.71959993E-03  1.76626675E-16  7.49132796E-04 -3.68555244E-16
 -7.77918071E-17  6.59439983E-18 -2.36123756E-17  1.29215505E-17 -1.39515042E-17
  1.26216939E-16  2.22993231E-04  5.38569322E-04  2.63367947E-16  1.17796206E-03
 -1.51403747E-15 -1.59407557E-03 -1.70394448E-16 -1.63140626E-03 -1.15644332E-16
 -2.84724463E-16 -2.79328725E-03 -1.77107501E-16 -1.31044407E-03  2.26670373E-03
 -2.33991598E-16 -2.79107845E-16  2.75785288E-03 -7.76858910E-16 -7.62026405E-04
 -5.33063909E-16  3.06331222E-18  1.35355214E-16 -6.80008407E-16 -2.96756269E-17
  8.24147436E-17  1.14704649E-03  6.55741588E-04  3.26650921E-16 -2.12388052E-03
  2.05792936E-15  8.75326779E-04  7.78949818E-17  2.64847543E-04  3.03286845E-16
  3.62759835E-16  9.24061806E-04  5.27775753E-17 -1.48370046E-04  1.11686537E-04
  2.22188228E-16  3.52266778E-16 -5.54116400E-04  5.45530606E-16  3.80073617E-04
  4.42097825E-16  3.39324100E-18 -1.54847709E-16  4.28479696E-16 -6.98306750E-17
 -2.88391980E-16  9.11192486E-04 -1.45935941E-03 -5.87825599E-16  7.20010843E-04
 -6.95880500E-18  1.65153569E-03  2.13796021E-16 -2.22401685E-04 -5.38443848E-16
  1.18823442E-16  1.34719768E-03 -1.99150720E-16  2.43075027E-04 -3.43373428E-03
 -2.49081913E-16 -5.38478363E-16  2.14854873E-03  2.71764104E-16  1.33256776E-03
  1.19486378E-16 -9.76969776E-18  1.82852236E-16  2.08481632E-16  6.86404138E-17
 -1.87713597E-04 -2.04180082E-16 -3.76636520E-16  1.28842825E-03 -1.74117255E-17
  1.97099310E-04 -4.44900838E-16  2.34333960E-04  5.61439581E-17 -2.82989298E-03
 -7.28610359E-04  2.65000618E-16 -1.93349259E-03  1.09913455E-15  1.38068698E-16
 -3.54398770E-03 -4.39523399E-03 -2.69742972E-16 -3.09854178E-03  1.49427536E-15
 -1.44241520E-16 -2.06057917E-17 -1.83443311E-17 -1.37474511E-16 -3.10367985E-17
 -1.30249505E-16  8.12234478E-04 -1.79511546E-03 -7.44516004E-16  9.21354565E-04
 -7.77915456E-16 -5.63159754E-05  1.28277365E-16 -6.23675633E-06  5.95460465E-18
  1.24180573E-16  4.67104338E-04  2.54755709E-16 -1.54974313E-04 -2.29744120E-03
 -2.89013481E-17 -8.87743703E-18  1.12952176E-03  3.51705985E-16  7.90098547E-04
  1.49540432E-15 -4.51717822E-17 -3.20896157E-16  2.03576565E-15 -5.86559434E-17
  5.04304004E-17 -6.48132613E-04  1.17098279E-03  7.44546326E-16  8.45142661E-04
 -8.20245225E-16 -6.78038007E-06 -8.97470721E-17 -6.87341854E-04 -8.56125289E-17
  8.02637331E-17  3.18085350E-03 -2.09649484E-16  1.06884214E-03  1.61681244E-03
 -4.27536042E-16 -2.57269557E-16 -5.02418369E-03  2.21772665E-16 -6.78150454E-04
  8.63074903E-17  1.54607757E-17 -2.12636235E-16 -2.86488864E-16 -2.60349705E-16
  1.11495333E-03 -1.89461972E-16 -2.58627440E-15  5.68947158E-03  1.49645017E-15
  1.27301244E-03 -7.26656402E-16 -6.63382615E-04  3.75494537E-16 -5.66432998E-04
 -1.27873785E-03  1.31005160E-16 -6.45411940E-05 -1.07371320E-16 -3.05414757E-16
 -2.02184857E-03  2.38008302E-03  6.03806384E-16  1.46313187E-03 -6.42419238E-16
  2.50525588E-02 -1.38513630E-03  2.76969282E-15  4.13169233E-02 -3.20005385E-15
 -2.03734624E-17  6.37772826E-17 -1.17523695E-17  9.19093278E-17 -4.51258511E-17
  1.76406670E-17  8.24770644E-18 -3.52552860E-18  4.82266844E-17 -8.13152681E-18
 -2.69845754E-17 -1.32756858E-16 -1.36514476E-17 -3.96085420E-17 -4.56441944E-17
  1.25517957E-17  3.09629654E-17  2.11555988E-16  3.64480710E-17  2.67334091E-17
  9.10432705E-16  2.77527539E-18 -8.79088361E-16  5.44207034E-16 -4.84078691E-16
 -1.43029757E-15  7.02536232E-03  1.54116466E-03  1.30947503E-15 -5.84311074E-04
  1.52102021E-15  2.62772999E-03  9.35168531E-17 -1.09575514E-03 -1.10927247E-16
 -4.97942288E-17  1.08633787E-03  2.10833380E-17 -7.33805507E-05 -4.34488817E-04
 -1.73428020E-16  1.78113671E-16 -9.86406367E-05 -3.12244241E-16 -6.95140995E-04
 -1.15448018E-16  2.14743545E-17 -9.67646144E-16 -2.64708515E-16 -3.38805861E-16
  1.00740598E-03  7.50547510E-17  8.98081584E-16 -1.33078804E-03 -5.56124826E-16
 -6.47795247E-04  4.45326582E-16  5.26963068E-04 -2.69460413E-16 -4.04123556E-04
  1.86415291E-04  9.66848707E-17 -1.45938443E-03  6.15259067E-16  1.12041285E-16
  3.88960163E-04 -2.19102307E-03  2.47101667E-17 -5.35589041E-04  2.17404662E-16
  8.94743816E-16 -1.25917734E-17 -1.71807642E-15  5.11569541E-16 -1.01409846E-15
  5.97002356E-03  1.50376086E-15 -6.54601917E-16  2.67614914E-03 -3.68001529E-16
 -7.31000357E-04  3.79920048E-16  9.95036307E-04  8.35497022E-17  1.85716565E-05
 -1.13416067E-03  1.21298100E-16 -4.89127694E-04  1.34774684E-16 -5.22043573E-17
  1.21775264E-03 -1.02949592E-03 -1.48786196E-16 -4.53652867E-04  1.56787197E-16
 -1.39395183E-14 -5.51607722E-15 -1.86052012E-01  3.59142565E-15 -3.83238410E-02
 -3.16987159E-15 -1.17821774E-15  1.33480288E-16 -3.78565562E-16 -1.12431254E-16
 -1.12880000E-16 -5.56680148E-17  6.17256232E-17  4.63582597E-17 -1.28747173E-16
  4.75872972E-18 -3.03280961E-17  3.81971971E-18 -4.18436618E-17 -1.80438303E-17
 -7.51155731E-18  1.56628424E-17  2.58616404E-17  2.64475215E-17 -2.31167895E-17
  4.95835353E-01 -5.48912611E-03 -9.27043536E-15  1.68376951E-01  6.11725265E-16
 -2.84310192E-16  3.04742802E-17  2.05858123E-17  1.03580386E-16  7.81076069E-17
  2.23887982E-17 -8.51152846E-17 -4.70736102E-17  2.64210416E-17 -6.45401087E-17
 -3.07750945E-17 -5.28252334E-17  3.84705032E-18 -7.80097781E-18  1.03172963E-17
  3.53889945E-17 -2.66747520E-17  2.67178000E-17 -5.03677581E-20  1.03737957E-17
  2.65792392E-14  1.55843451E-14  4.27755599E-03  5.19433874E-15  1.47792909E-03
  5.52260223E-17 -1.84020302E-17 -4.08664229E-18 -3.22252348E-17 -1.99689648E-18
  1.34800923E-17 -9.21761139E-18 -1.67694844E-17  9.47220978E-18  1.40327454E-17
  4.28237053E-18 -1.36522436E-17 -1.88784766E-18  5.99676726E-18  8.29255240E-18
  8.54236053E-18 -7.89079477E-18 -5.14726253E-18  2.91701637E-18 -6.53697223E-18
  1.22298695E-14 -2.50802405E-14 -4.31059124E-01 -3.06210157E-15 -2.07355588E-02
 -1.61050484E-15 -6.31504714E-16  8.52043032E-17 -2.00294856E-16 -8.77037077E-17
 -7.76768280E-17  2.85828458E-18  1.07771103E-16  7.10885923E-17 -9.48647918E-17
 -1.29804215E-18  1.24129937E-17  1.41468591E-17 -3.24171539E-17 -2.05066017E-17
  2.36926442E-17  2.94151726E-17  2.20054457E-17  1.26871411E-17 -2.15066270E-17
  8.36377277E-19  1.21890674E-18  1.31500372E-19 -5.77389796E-19  6.63569661E-19
 -4.47180522E-06  6.04995935E-17  1.92969930E-16  9.11761786E-07  1.54323189E-16
  2.27179433E-06  7.26484741E-17 -5.06671953E-06  1.08148443E-16 -8.21135527E-07
 -3.42058208E-06  7.66717697E-17  1.01525684E-06 -2.90919758E-16  1.60709690E-16
  4.81959053E-07 -1.71444145E-08  7.37333497E-17 -2.94488135E-06  1.42083795E-16
 -6.51681681E-19 -1.15924533E-18 -3.28004524E-19  4.41282395E-19  3.08496054E-19
 -2.54166396E-16 -7.12695298E-07 -3.55217149E-06  6.46820845E-17 -1.70860901E-06
  1.25513841E-16 -1.01253801E-06 -2.52624986E-16 -1.39430523E-06 -2.51404258E-17
 -1.70586114E-16 -1.15606087E-06  6.05820828E-17  5.74188706E-06 -2.09281822E-06
  2.48840742E-17 -4.20663616E-18 -1.18143451E-06 -1.71773515E-16 -1.79331276E-06
  4.88272501E-19  9.28427091E-19 -3.95076318E-19 -3.40392443E-19 -7.30674892E-19
  1.30359068E-05  5.74562591E-15  2.84613473E-14 -1.26272681E-05  1.88856993E-14
 -1.25417429E-05 -1.61858577E-14  2.24532753E-05  1.97264063E-14  9.45555581E-07
 -1.30222868E-05 -1.23167310E-15  9.32695980E-06 -1.17225544E-14 -1.16056079E-14
  5.07832773E-06  1.57000632E-05  2.16626971E-14  8.28339649E-06 -2.97037303E-15
  1.72542243E-20 -1.09239928E-19  1.67608534E-19  2.73486859E-19 -6.66426581E-19
 -1.66403088E-14  4.43206829E-06  2.24090339E-05  1.61221682E-14  1.45894716E-05
  1.56432904E-14 -1.28426723E-05 -2.85039324E-14  1.53331792E-05 -1.58931017E-15
  1.66482912E-14 -9.51415864E-07 -1.19137334E-14 -9.44478135E-06 -9.27753756E-06
 -6.38004545E-15 -1.98874504E-14  1.70016302E-05 -1.04798452E-14 -2.52410142E-06
  1.07912141E-19 -2.47868283E-19 -3.11338770E-20  3.94948464E-20 -9.91334507E-19
  5.42227292E-06  6.00805292E-16  1.10663486E-16 -2.98671995E-06  2.12458621E-15
  5.48362309E-05  1.09466473E-15  1.45186129E-05  1.52729995E-15  7.79891799E-05
 -7.70090432E-06 -9.28766133E-16  1.27852619E-05  1.28502783E-15  6.66025182E-16
 -1.44178812E-05 -1.17743474E-05 -5.25434116E-17 -1.01855653E-05  1.49983217E-15
  2.07099027E-19 -5.68181455E-19 -4.49068036E-19  1.70884533E-19  9.32079582E-19
  9.10920165E-17 -1.74781453E-05 -6.80593249E-07  1.28265974E-17 -6.02723106E-05
  1.69589004E-15 -3.36876905E-05  7.67017591E-16 -4.37926994E-05  2.46315550E-15
 -1.24159304E-16  2.61971541E-05  4.24251126E-16 -4.02561958E-05 -2.14635438E-05
 -4.36167715E-16 -3.25539976E-16  2.39173093E-06 -3.26505334E-16 -4.45405195E-05
  4.10727210E-19  2.05054204E-19 -1.89234759E-19  7.05716921E-20 -4.69361247E-18
  5.31219779E-05 -4.27876658E-15  1.92309502E-15 -5.61862181E-05 -1.23810439E-14
  9.50469302E-05 -2.38050824E-15 -7.00391367E-05 -8.18316585E-15  1.23940897E-04
 -6.94707844E-05 -3.68354909E-15  1.89606996E-05 -1.22635694E-14 -8.80398920E-15
 -2.51372212E-05 -2.03400183E-05 -4.38835606E-15 -1.39499685E-05 -7.97110307E-15
 -3.70041044E-19 -9.04053144E-19  2.66624146E-19  5.66584431E-19  1.65408671E-18
 -6.64463564E-15 -3.38221957E-05  1.48869236E-05  7.04707359E-15 -9.79131411E-05
 -1.19345398E-14 -1.78618799E-05  8.81626629E-15 -6.44033186E-05 -1.56375674E-14
  8.69798629E-15 -2.98847612E-05 -2.38779367E-15 -9.64388471E-05 -6.94116094E-05
  3.17110986E-15  2.58775678E-15 -3.51023768E-05  1.74902191E-15 -6.24658762E-05
  6.24734920E-19 -4.78096098E-19  3.90250073E-20  3.91155384E-19  1.86650011E-19
 -2.07275564E-15 -1.81417698E-06  1.71295853E-05  2.35932182E-15 -2.41349247E-05
 -5.16862948E-15  7.46744651E-07 -3.30404020E-15  3.43923557E-05  3.47802864E-15
  1.22679083E-15 -3.90483026E-06 -2.25577082E-15  4.18736227E-07 -7.07255667E-06
 -1.06387463E-15 -3.27738064E-15  2.24325228E-05 -2.25392638E-15  4.16182448E-07
  7.66821179E-19 -1.30819314E-20 -2.44254263E-19  4.75278211E-20 -1.12585709E-18
  1.15871199E-05 -3.09453121E-16  2.99911105E-15 -1.31495812E-05 -4.18664270E-15
  2.90348535E-05  1.17060598E-16  1.87413698E-05  6.02230132E-15 -1.97621977E-05
 -6.79819958E-06 -6.73500192E-16  1.26825753E-05  8.53892936E-17 -1.22545144E-15
  6.03786153E-06  1.85057484E-05  3.93382694E-15  1.27055175E-05  7.39018815E-17
  1.34030120E-17 -4.92706031E-19 -4.32988082E-18  4.75537753E-20  6.15447948E-17
  1.41443020E-16 -7.65137818E-04  5.95635801E-04  4.68592750E-16 -2.58710267E-03
  1.62642642E-15 -4.92644253E-04 -6.87889372E-17 -1.02163583E-03 -2.00061903E-16
 -1.48122126E-16 -1.46400995E-03 -3.47787632E-16 -2.40336602E-03 -2.05953619E-03
 -2.18379222E-16 -1.91178217E-16 -7.85495736E-04 -6.24520183E-16 -1.42395358E-03
  1.80127374E-17  8.17986478E-18 -6.52469706E-18  2.68616510E-19 -1.31044619E-16
  1.45671800E-03  4.00995167E-16  7.00798310E-16 -1.49077283E-03  2.03965227E-15
  2.33985543E-03 -8.93785426E-16  3.20537788E-04  8.11738022E-17  1.96064241E-03
 -1.53859297E-03  3.12050682E-16  9.06996978E-04 -5.60217486E-16  2.82484917E-17
  7.25087324E-05  9.02192753E-04 -9.42334482E-17 -2.51703484E-04  1.40872737E-16
 -3.03515785E-18  6.63838275E-18  1.14875283E-17  7.65608530E-18  1.54500722E-17
  1.20235096E-16 -4.28797704E-04 -1.51240524E-03 -5.51430380E-16 -4.31261566E-04
  3.65920348E-16  4.51862991E-04 -2.84191659E-16 -2.14641043E-03 -2.01628645E-17
 -1.89943817E-16 -2.16283509E-05 -1.63424305E-16 -6.57510832E-04  7.33290968E-05
 -1.18499058E-16 -1.17915097E-16 -1.54470760E-03 -5.28761188E-17 -4.97155607E-04
  2.71809546E-18  1.26286118E-18  1.40396763E-17 -3.72067802E-18  2.32951656E-16
 -2.65998043E-03 -9.20874819E-16 -1.20163211E-15  2.72908296E-03 -2.88601444E-15
 -3.09253581E-03  1.07874404E-15  3.31347387E-03 -4.07652911E-16 -3.42110384E-03
  2.56584310E-03 -4.59747542E-16 -5.49690777E-04  2.75616309E-16 -1.93728666E-18
  7.44412366E-04  6.27670035E-04 -1.20715230E-16 -1.22729861E-04  5.84765041E-17
 -8.87703388E-18  4.95938767E-18  3.82368869E-18 -2.92862974E-18  6.41200643E-17
 -5.67157764E-04 -3.48517889E-16 -1.04250988E-16  4.92679886E-04 -2.25248862E-15
 -2.28475787E-03  8.39336916E-16  2.39020901E-03 -1.89460712E-16 -4.30073888E-03
  1.17501267E-03 -3.24815480E-16 -2.60613362E-05  3.78139456E-16  6.96742165E-17
  5.62168372E-04  9.77883983E-04  9.68035263E-17  1.46745119E-03 -7.15039940E-16
 -1.06645984E-17 -1.28924328E-18  2.55416931E-17  8.73324461E-18  1.00010480E-16
  2.04653447E-16 -1.82864813E-03  9.50044819E-04  9.34721566E-16 -4.86222677E-03
  3.33681425E-15 -7.20250922E-04 -8.84262888E-17 -2.19725353E-03 -7.94999977E-17
 -1.23148752E-17 -1.01977372E-04 -3.95798213E-16 -2.28148906E-03 -1.55668985E-03
 -1.47816925E-16 -1.40217308E-16 -2.10204525E-04 -5.91475579E-16 -1.21388243E-03
 -2.12741238E-17 -1.18100701E-17  5.73208585E-18  1.38630659E-17 -5.39198146E-17
 -7.59332405E-17  1.18474394E-04 -2.34014241E-04 -3.82470470E-16  2.50513035E-03
 -8.38546757E-16  2.42813322E-03  7.50404666E-18  2.66856523E-03 -4.20242355E-16
  1.87980173E-16  7.48763320E-04 -4.51754465E-17  3.59201646E-04  1.45652345E-03
  3.58833121E-17  9.89203623E-17  6.83240816E-04  4.77789630E-16  1.11414021E-03
 -3.08700442E-17 -1.70658353E-17  1.87617981E-17 -1.57174765E-17 -5.18547647E-17
  3.23926742E-04  3.97866145E-17  2.24039721E-16 -3.65076595E-04  2.17755435E-15
  3.02953813E-03 -1.25641891E-15 -7.50153049E-04 -3.06491352E-16  7.23449752E-04
 -1.26893484E-04  1.18732780E-16 -8.48275966E-05 -3.74920909E-16 -1.02541901E-16
  4.38858657E-05  2.86405719E-05 -1.13682188E-16 -5.61591432E-04  2.17114898E-16
  3.46985812E-17  1.60238053E-17  2.53915964E-17 -1.75443341E-17  9.58309934E-17
  1.56756402E-16 -1.96399793E-03  2.15161965E-03  1.17155758E-15 -1.28015729E-03
  4.89420546E-16  1.38965595E-04 -1.37856831E-16 -2.75577788E-03 -2.18622576E-16
 -1.01014749E-16  5.89791990E-05 -3.57495558E-16 -2.36805478E-03 -8.78943283E-04
 -1.21463513E-16 -1.09342207E-16 -1.67612097E-04  6.94869750E-17  3.65879707E-05
  6.50562429E-17  2.66441971E-17  7.20562406E-17 -6.25817110E-17  2.06359138E-17
  1.52900426E-16 -3.20918249E-04  1.13405879E-03  5.64026506E-16  1.56270092E-04
  7.08149620E-16  1.22623288E-03 -1.72778046E-16 -4.87856556E-05  1.64133722E-16
 -3.10020920E-16 -1.09805541E-03  2.38893223E-16  8.56098983E-04  9.71521090E-04
  3.21140083E-17 -7.49665909E-17 -3.95091771E-04  5.48411958E-16  1.03204791E-03
 -1.49171271E-17  5.72694837E-18 -7.25032193E-17  4.29032956E-17 -8.77700963E-17
  8.28422638E-04  7.25065780E-17  7.03375118E-17 -1.79877084E-04  1.91165465E-15
  1.86725246E-03 -7.77405081E-16  7.91883660E-04  6.08828560E-17  2.00223405E-03
 -1.74882694E-04  2.15372113E-16  2.05731509E-04  1.37362023E-17 -1.16114833E-16
 -1.37566958E-03 -1.05022794E-03  1.31467883E-16  2.45086088E-04 -1.68332348E-16
  6.11820715E-18 -4.92498347E-18 -2.69912873E-16 -1.39254084E-18  6.69429086E-18
  1.76532850E-03  5.09071320E-16  9.68776809E-16 -2.30257350E-03  1.69572578E-15
  2.03134281E-03 -6.58736616E-16 -2.77981373E-04 -6.70636213E-17  3.09662506E-03
  2.38261341E-04 -8.41276933E-17 -2.36063399E-03  2.49193325E-16 -1.88247725E-16
 -8.92296438E-04  3.40788352E-04 -5.01307187E-17  4.40529199E-04 -3.10545625E-16
  7.27709680E-17  5.98122390E-17  2.23486379E-16 -1.31015005E-16 -3.70616078E-17
  4.24448676E-04  2.36320807E-17  7.73254609E-17 -5.28879889E-05 -1.51143626E-15
 -1.89212396E-03  9.01713082E-16  1.93159076E-03 -1.46684962E-16 -1.61252688E-03
  2.98198655E-03 -7.13628375E-16 -1.13383347E-03  6.55894100E-16  8.75114305E-17
 -9.54322824E-05 -6.16078802E-04  2.88237073E-16  1.00862705E-03 -5.75290814E-16
  7.35144685E-17  1.26678691E-16  1.71342069E-16 -5.85663289E-17 -1.54319716E-16
  5.88672559E-17  6.13522352E-04 -1.11655489E-03 -8.14355196E-16  1.82967236E-03
 -9.79810097E-16  8.21670850E-05 -4.17605568E-16  1.32717405E-03  1.91672457E-16
 -2.15601671E-16 -1.99842239E-04 -1.38494290E-16  2.44699473E-04  7.86961110E-04
  1.13647262E-16  3.35284281E-16  1.41250411E-03 -3.79770082E-16 -1.37699768E-04
  7.10558151E-18 -4.74188512E-17 -2.56538713E-17 -5.05013510E-17  1.68759777E-16
 -1.67737992E-03 -1.99065588E-16 -2.94875601E-16  1.11136026E-03  2.20942723E-16
  1.35867323E-04 -1.79651746E-16  3.42748407E-04  4.33123447E-17 -2.82149442E-05
 -1.58246516E-03  2.43177053E-16  1.70184586E-03 -3.58866037E-16  1.87108009E-16
  1.03630002E-03 -1.41583104E-03  3.14906841E-17  1.06577428E-04  1.90523884E-17
 -1.00962384E-16 -7.55392216E-17  1.20726471E-15  3.00334702E-18 -7.76775050E-16
 -2.25022118E-05 -1.69686153E-16 -4.74895882E-16  9.09296442E-04  7.13812741E-16
  6.32454016E-04 -1.72805381E-16  1.75341186E-03 -5.11664411E-17  1.48547363E-03
  7.66262462E-04  1.48738331E-17  1.18887919E-03 -2.27925973E-16  2.22023983E-16
 -1.30348381E-04 -7.64023259E-05  2.13025106E-16  1.37054776E-03 -7.65231406E-16
  1.13217412E-16  4.83154685E-17 -1.11220803E-16 -2.19837055E-16  3.25148602E-16
  2.13186592E-16 -9.49121348E-04 -2.85954234E-04 -3.86413311E-16  5.39680374E-04
 -9.97926750E-16 -5.97004620E-04  7.06024806E-17  4.44474188E-04 -3.43957342E-16
  3.57681605E-16  1.22395920E-03 -5.58186209E-16 -8.51746538E-04  1.40327497E-03
 -3.89643085E-17  1.81209201E-17  5.14190269E-05 -1.41508214E-16 -1.05858055E-04
  3.66469072E-15  5.50856463E-15  2.86352103E-02 -7.42796022E-16 -2.04726583E-02
 -1.56569880E-15 -5.42183116E-16  6.26915829E-17 -2.13325612E-16 -2.06036108E-17
 -3.42178552E-17 -5.74533064E-17 -1.25630038E-16 -1.80059176E-17 -3.90869601E-17
 -5.56698838E-17  5.70951104E-19 -8.80639741E-17 -3.70315656E-17  2.40112456E-17
  3.94546103E-18  1.82639169E-17 -2.26575516E-18 -6.65235615E-17  1.77529584E-17
 -2.98773028E-17 -4.97718129E-17  3.61132045E-16 -3.28044101E-16  1.85126177E-16
 -1.16327511E-03 -3.70790855E-16  1.31542627E-16 -6.94450742E-04  8.60564975E-16
  8.31329115E-04 -3.78106399E-16 -5.85873443E-04  1.51836927E-16  1.00635805E-03
 -9.83855319E-04  5.30070052E-16  1.64091150E-03 -5.78679205E-16  1.90672107E-16
  4.41500886E-04 -1.93325920E-04 -3.78613613E-17 -6.80365773E-04  3.63951992E-16
 -2.54741353E-16 -2.51580046E-16 -2.71738756E-16 -1.03670500E-16  2.00474583E-16
 -1.96862472E-16 -6.41953783E-04  2.22281650E-03  1.05233505E-15 -1.47773357E-04
  7.30277211E-16  1.22173501E-03 -1.50929422E-16 -7.11144867E-04 -1.12555212E-16
 -1.33008964E-16 -5.35841824E-07 -2.75642244E-16 -1.34080072E-03  6.98286346E-04
 -1.02115409E-16 -1.44098852E-16  3.54914778E-04  1.44127430E-15  2.59110125E-03
 -3.81251983E-16 -4.30188870E-16  2.33154315E-16 -3.40089007E-16  1.19055148E-16
 -3.80625016E-16 -1.57416754E-04  3.18702913E-05 -1.24200329E-16 -4.43460643E-04
  1.92734524E-16 -8.06609535E-04 -9.91331579E-17 -1.45730206E-04  2.74146302E-16
 -5.00440149E-16 -2.42642477E-03  6.78764857E-16  1.40826627E-03 -1.46754055E-03
  9.17512862E-18 -8.32620997E-17 -6.45646597E-04  7.75515209E-17 -4.09032058E-05
 -7.45035649E-02 -8.25188789E-02  4.88966563E-15 -1.42071220E-02  9.32446529E-17
  4.12182891E-17  1.05288370E-17 -7.74394929E-18 -2.51868832E-17  4.08337193E-18
 -3.24909844E-17  9.71290530E-18  1.88443024E-17  9.66684957E-18  1.44085648E-17
  1.52190787E-17  3.38675376E-17 -1.66377641E-17 -1.08497647E-17  1.72741720E-17
  3.53924360E-18  1.40044058E-18 -3.06902790E-18  1.45911025E-18 -2.41310270E-17
 -1.48820877E-14 -7.71459489E-15  5.58044395E-02  1.15654915E-15  2.37413884E-02
  1.81789497E-15  6.18324520E-16 -7.20308410E-17  1.65256108E-16  6.05256697E-17
  5.49329239E-17  3.38218273E-17 -2.16571684E-17 -2.20736050E-19  5.83962601E-17
  5.10327663E-18  1.23983754E-17 -8.10973313E-18  1.70763809E-17  1.85550404E-17
 -1.30275688E-18 -1.05585533E-17 -4.00258856E-18 -6.87048326E-18  1.53883379E-18
  4.95300703E-01  2.01811477E-01 -4.84860039E-15 -7.77694690E-02 -3.52236261E-16
  3.62551238E-17 -5.27540527E-17 -5.64532584E-17  2.23321878E-17 -4.07171007E-17
  2.85392698E-17 -2.42808996E-17 -5.28202458E-17 -3.87355025E-17 -2.32631691E-17
  2.97827509E-17  3.85108332E-18  3.49493850E-17 -2.18102897E-17 -3.77537945E-18
 -2.90390711E-17  6.42461828E-18  2.35920737E-17 -4.06145426E-18 -7.38914095E-18
 -3.80935371E-02  4.30256112E-01 -4.92384827E-15 -5.88535864E-02  4.14592908E-16
  2.65955062E-17 -8.01504701E-17 -4.99756059E-17 -5.43320532E-17 -3.28935560E-17
  3.57723000E-17 -3.84416550E-18 -2.79883546E-17 -2.77070838E-17  9.51650060E-18
  2.35792198E-18 -1.90524113E-17  1.26450384E-17  9.23408812E-18  1.03290005E-18
 -9.80476366E-18  1.38869465E-18  1.32893781E-17 -5.61803517E-18  9.70555882E-18
 -1.09321367E-20  8.68854612E-19  6.17917137E-19 -4.67242719E-19  2.60350282E-18
 -2.75410130E-05  9.89217336E-16  8.58555296E-16 -7.62475683E-06  1.17126126E-15
  1.44159709E-05  5.17786602E-16 -3.81932167E-05  1.06889166E-15 -5.96797565E-06
 -3.18825239E-05  1.62190106E-16 -2.92969959E-06 -1.80124090E-15  1.32899033E-15
 -1.87852927E-06 -1.94814603E-06  5.05314006E-17 -2.38536364E-07  1.09975665E-15
  5.90813223E-20 -1.01759708E-18 -4.65062572E-19  2.41750505E-19  8.07359646E-19
 -1.50833786E-15 -1.69212255E-05 -1.50629017E-05 -4.52965887E-16 -1.91691422E-05
  7.35591363E-16 -8.64423217E-06 -2.18562884E-15 -1.81586234E-05 -4.07395354E-16
 -1.78408261E-15 -2.88435013E-06 -1.78174507E-16  3.17889091E-05 -2.24313947E-05
 -8.92444613E-17 -9.35725603E-17 -1.05232527E-06 -1.50895905E-17 -1.83129775E-05
 -1.50870396E-19  3.39893153E-19 -5.12395776E-19 -4.91370482E-19 -1.63550955E-18
  2.83457883E-05  1.16198081E-14  6.58584240E-14 -2.87910407E-05  4.32899527E-14
 -2.19573922E-05 -3.24186180E-14  5.29770972E-05  4.58267848E-14  1.06225513E-05
 -3.07974964E-05 -1.15173996E-14  2.24688107E-05 -2.77974388E-14 -3.12768250E-14
  9.48642039E-06  3.44155623E-05  4.44217593E-14  1.75179438E-05 -5.12688454E-15
  2.41300772E-19 -4.87233322E-19  2.74989140E-19  1.00261280E-19 -6.70116169E-19
 -3.62258264E-14  9.12165687E-06  5.18588421E-05  3.68229556E-14  3.40711807E-05
  2.80428939E-14 -2.53805150E-05 -6.68626670E-14  3.60820027E-05 -1.32330961E-14
  3.93443338E-14 -9.33264543E-06 -2.84835188E-14 -2.19465935E-05 -2.47305284E-05
 -1.20989291E-14 -4.37700113E-14  3.48037426E-05 -2.22917842E-14 -3.98611366E-06
 -1.98677087E-19  1.03353888E-19  3.66849708E-20  3.06677699E-19 -4.15933576E-18
  5.47323657E-05 -3.65130206E-16 -6.06323512E-16 -6.23739678E-05 -2.30924016E-15
 -8.30627388E-05 -3.39164020E-15 -1.37915850E-04 -1.90439763E-15 -1.26733569E-04
 -5.47010468E-05  5.06412681E-15 -2.81714978E-05 -3.88025711E-16  9.55538948E-16
  2.12826424E-05  2.29458922E-05  2.38935741E-15  1.46201516E-05 -2.47197575E-15
  1.39125846E-19  2.42108464E-19 -7.31991632E-19  2.35576589E-19 -7.29095374E-19
  1.94150693E-15  1.07254274E-05  2.27790078E-05 -2.21705276E-15  6.25835695E-05
 -3.18266763E-15  9.21442444E-05 -4.67801798E-15  5.48235572E-05 -4.68961116E-15
 -1.96384477E-15 -1.41584977E-04 -9.67518304E-16  6.04386646E-06 -3.00877323E-05
  8.20055734E-16  9.39940793E-16 -6.37213872E-05  6.32210938E-16  6.64134323E-05
  8.50512531E-20  5.62237084E-19 -1.66022652E-19  4.40215976E-19 -2.18678541E-18
  1.75671094E-05 -3.65952111E-15  1.39752857E-16 -1.49109403E-05 -1.21715085E-14
  9.79724805E-05 -6.47413897E-15  5.33384673E-06 -8.70575250E-15  1.36932359E-04
 -2.61592820E-05  4.75863109E-15  2.58922507E-05 -9.47227180E-15 -4.83549647E-15
 -2.67518948E-05 -2.47221502E-05  1.64475510E-16 -1.40007550E-05 -9.37344392E-15
  8.89483037E-20 -6.05866089E-19  4.88707255E-19  5.68211936E-19  1.09988594E-18
 -2.16728533E-15 -2.92903195E-05  1.89753835E-08  1.83707639E-15 -9.85942864E-05
 -1.21790862E-14 -5.28712357E-05 -5.23849473E-16 -7.06034047E-05 -1.70487421E-14
  3.22723804E-15  4.10133681E-05 -3.19578129E-15 -7.48107570E-05 -3.72458447E-05
  3.34968379E-15  3.14665982E-15  2.41562458E-06  1.73988080E-15 -7.57001997E-05
  7.59329407E-19  6.65498345E-19  4.11946690E-19  1.09996646E-18 -1.59238894E-19
 -4.28686305E-15 -3.81903121E-06  3.54949027E-05  4.89063533E-15 -4.95657076E-05
 -1.07151396E-14  1.29778384E-06 -6.91415300E-15  7.04469049E-05  7.09639729E-15
  2.50997911E-15 -8.19588908E-06 -4.65792489E-15  7.34704326E-07 -1.45730319E-05
 -2.21677459E-15 -6.79428728E-15  4.61034921E-05 -4.63510270E-15  8.18774645E-07
  2.48528648E-19  1.20912742E-18 -1.22283953E-19  8.45073210E-19 -3.08469821E-18
  2.39405762E-05 -6.52888541E-16  6.17869922E-15 -2.72554996E-05 -8.53571991E-15
  5.99102026E-05  2.16940779E-16  3.86587191E-05  1.22464158E-14 -3.98526662E-05
 -1.40426360E-05 -1.44975545E-15  2.60245115E-05  1.39520820E-16 -2.53281095E-15
  1.24548688E-05  3.80879497E-05  8.00680733E-15  2.59426134E-05  1.49203626E-16
  6.96693246E-19 -3.75124634E-18 -1.04736949E-17  5.06998043E-18  1.05962065E-16
  5.87370410E-16 -1.90257301E-03  1.02346944E-04  2.03675822E-16 -5.05845648E-03
  1.91596362E-15 -3.89655694E-03 -5.18955409E-17 -3.03750417E-03  1.63524761E-16
  5.42785008E-16  3.23149556E-03 -4.84849361E-16 -1.89890474E-03 -1.67115341E-03
  4.17187840E-17  1.98795546E-16  1.58555436E-03 -2.23693763E-15 -3.92872909E-03
  1.48854353E-17 -2.87862634E-17 -9.28789079E-19  1.27225521E-17 -1.48924045E-16
  2.04411705E-03  4.99765872E-16  1.59822753E-15 -3.42038749E-03  5.46559519E-16
  1.00849185E-03 -5.77327951E-16 -8.63069410E-04  6.66706329E-17 -1.13563985E-03
 -3.41460117E-03  7.07135467E-16  1.07793725E-03 -5.43828890E-16  1.35423238E-16
  5.88558232E-04  1.74870228E-03  1.32231462E-16  1.27224849E-03 -7.80511619E-16
  2.33295489E-17  6.24175146E-18  2.24254510E-17  7.32145526E-18  3.42206863E-17
  1.87020279E-16 -7.58525591E-04 -3.60227084E-03 -1.13010402E-15 -1.19995459E-03
  7.96536716E-16 -3.18481994E-04 -7.40787856E-17 -5.01494923E-03  5.66057889E-16
  8.63034907E-17  2.33311872E-03 -1.89463574E-16 -5.97630227E-04  1.20106813E-03
 -8.05216163E-17  2.14491840E-18 -2.16934580E-03 -5.66444985E-16 -1.52912680E-03
  6.52425683E-18  6.28896890E-18  1.83166076E-17  2.11978377E-18  2.63738089E-17
  6.49865710E-04 -9.79634913E-17  3.14405185E-16 -1.13525287E-03 -7.48638824E-15
 -7.66155557E-03  2.68540362E-15 -4.64535634E-03 -2.49005421E-16 -9.85100165E-03
 -4.86618880E-04  1.04429363E-16 -2.01139183E-03  8.07394586E-16  1.65821208E-16
  1.64518594E-03  1.63456933E-03  1.35012458E-16  3.67152701E-04 -4.11423327E-16
  3.60108477E-19  2.50272935E-17  1.27976895E-17 -4.63249888E-18 -8.95524557E-17
  5.95939998E-04 -2.20290593E-16 -7.42413046E-17  6.84906054E-04  7.86004889E-16
  9.64733775E-04 -1.78000302E-16  6.40199254E-03 -3.61420769E-16 -1.29316258E-03
  2.08165215E-03 -5.37087632E-16  1.28849916E-03 -1.78550893E-16  5.96939189E-17
  3.85903369E-04  2.32894835E-03 -4.34124596E-16  6.42181321E-04 -1.53729262E-17
 -9.54440625E-18  4.91032032E-17  5.00144687E-17  2.55909096E-17  3.59786599E-17
 -9.21062790E-17 -7.65869989E-04 -2.89883717E-05  6.97439848E-16 -3.67218135E-03
  3.85361466E-15  1.99931925E-03  1.97059681E-16  1.16593332E-03 -4.49032730E-16
  2.45950740E-17 -1.63853238E-03 -5.76663439E-16 -3.78082297E-03 -7.66323791E-04
 -3.80061713E-16 -3.65097282E-16 -7.18504242E-04 -1.46477669E-16 -2.35917078E-04
  1.24778741E-17  6.48866655E-18 -3.45886724E-17 -1.05427501E-19  3.27563665E-17
  2.80502296E-16 -3.40678922E-05 -8.96660021E-04 -3.82827155E-16 -3.44999964E-03
  9.04433792E-16 -3.73536746E-03  1.78488417E-16 -2.98444639E-04  1.63793152E-16
  1.12406447E-15  6.43589500E-03 -7.86651253E-16 -1.28924442E-03  1.88761246E-03
  6.67974998E-17  2.03456802E-16  2.61821870E-03 -8.29979544E-16 -8.46420038E-04
 -5.43891823E-17  3.48611404E-17 -8.04716812E-18 -6.08624614E-18 -6.97515757E-17
  1.10557293E-03  5.69744386E-16  2.63674763E-16 -1.04914703E-03  9.31130773E-16
  2.12540046E-03 -1.07549162E-15 -3.73829574E-03 -1.66460639E-16 -3.70100696E-03
 -4.33609702E-04  1.73762269E-16 -7.60044320E-04 -1.87107930E-16  1.50239788E-16
  8.98398104E-04  9.68899315E-05 -7.89597487E-17 -1.23448924E-04 -5.36145658E-17
 -4.80450729E-17  6.34844338E-17  4.29468804E-17  2.45630587E-17  1.81848099E-17
 -2.12048139E-16  3.97149033E-04  3.74101084E-04  3.61421549E-16 -2.23793991E-05
 -1.71017972E-15 -2.06893371E-03  4.66781405E-16 -1.39059740E-03 -9.95117513E-17
  2.06227150E-16  5.76909908E-04 -6.82052958E-16 -4.45176888E-03 -8.91333881E-05
 -3.92185016E-16 -2.17179644E-16 -4.50934854E-04  8.62226527E-16  1.48083208E-03
 -3.62396344E-17  1.47252687E-16  3.85027580E-17  4.45072857E-17 -1.28578178E-17
  4.83295415E-16  5.52450353E-04  1.94958709E-04  3.64147103E-16 -2.02376388E-03
  9.94308868E-16 -2.00603762E-03 -4.12137568E-16 -1.17715517E-03  4.15422899E-16
 -3.06079670E-16  2.68958896E-05  4.14563984E-16  2.56256550E-03  2.24774038E-03
  3.52680449E-16 -3.64147396E-17 -2.40067364E-04  9.11294839E-16  1.63788805E-03
  2.50450525E-17 -6.96451367E-17 -6.60065660E-17 -4.08588855E-17  1.26564742E-17
  1.20082231E-03 -2.24620416E-17  6.10923780E-16 -1.21179715E-03  1.45927299E-15
  1.24440330E-03 -7.44869224E-16 -1.39690333E-03  2.41411360E-16  2.32477908E-04
 -1.82916447E-03  7.26986011E-16  5.75217959E-04  1.16485059E-16 -2.07916775E-16
 -2.37545234E-03 -2.64051667E-03  4.68230737E-16  1.57307290E-03 -1.00309600E-15
  1.48787075E-18  1.11639149E-16 -7.85859643E-16  8.34514191E-17  6.75412155E-17
  5.05201436E-03  1.20449865E-15  1.18760608E-15 -2.84011004E-03 -1.93730464E-15
 -2.17910464E-03  1.04729175E-15 -2.69830756E-03  1.24500366E-16 -6.09193994E-04
  2.39437818E-03 -1.39788797E-16  8.00543331E-04  1.66759233E-16  1.98183110E-17
 -9.49493489E-04  9.67648820E-04 -3.27049003E-16 -2.60822721E-04  1.85952595E-16
 -1.21556754E-16  3.87523474E-16  3.27396508E-16  6.71194112E-18  9.46550809E-17
 -1.71671681E-03  9.61257892E-17  4.93023398E-16 -8.57519731E-04  2.65277864E-16
  2.73120893E-04 -2.66453183E-16  1.74438515E-03 -2.51837723E-16  1.46570409E-04
  9.30746814E-04 -4.49393032E-16 -2.20204166E-03  5.87007232E-16  2.70815664E-16
  5.28434842E-04 -2.20725866E-03  7.01519208E-16  1.82345283E-03 -1.14578386E-15
  1.03072699E-16  1.81804103E-16  3.05629305E-16  5.82283083E-17 -3.25233875E-16
  7.74771192E-16  2.07951333E-04 -1.28457170E-03 -2.80209395E-16  2.07304332E-04
 -9.44697614E-16 -1.32770006E-03 -5.72704916E-16  3.36246865E-04 -3.31128133E-16
  7.25729650E-16  8.45544974E-05 -2.81886203E-16 -1.68399698E-03  8.00441579E-04
  1.29042995E-16  7.27610266E-16  2.87216613E-03 -1.24875435E-15 -8.68324490E-04
 -1.38160228E-16  2.11205824E-16 -4.88014627E-17  8.14234909E-17 -2.25077559E-16
  1.06326220E-03  5.35703818E-16  3.99386499E-17  7.87799125E-04  2.08312669E-15
  2.18535779E-03 -9.90249274E-16  6.29089430E-04 -2.95176041E-16  2.82116159E-03
  2.20196987E-03 -3.15423918E-17  5.65698273E-03 -9.36426319E-16  2.35558616E-16
 -9.68850266E-04 -2.51834391E-03 -1.50462705E-16 -4.58250355E-04  4.93360910E-16
 -1.31554201E-16 -1.09809642E-17  2.82667046E-15 -8.63177786E-17 -2.23250350E-15
  5.54714767E-04 -1.72818354E-17  1.43189459E-16 -8.36100131E-04  4.25778101E-16
  6.56841715E-04  1.13055615E-16 -1.60262623E-03 -6.33781943E-17  8.75584196E-04
 -1.47116304E-03  3.36265192E-16  1.75549007E-03 -4.41519975E-16  5.20551345E-16
 -4.18671975E-05 -6.05439172E-04  6.33343187E-16  4.07806904E-03 -2.41724893E-15
 -3.17848195E-16  7.96063801E-16 -7.52132212E-16  7.38783440E-17  9.54850270E-16
  3.82494708E-16 -3.55716665E-03  5.25183305E-04 -4.32994497E-17  1.45249655E-03
 -8.68082339E-16  1.45927693E-03  4.77395385E-16  8.11381882E-04 -4.14635269E-16
  3.79022743E-16  3.32931372E-04 -7.00971352E-16 -1.86216773E-03  1.34718818E-03
 -1.08638232E-16 -4.10469884E-17 -5.39762074E-04 -1.23461492E-15 -1.71523401E-03
  7.13683632E-15  9.50681717E-15  6.97630632E-02 -4.79451682E-16 -5.98351678E-02
 -4.78761656E-15 -1.69427760E-15  1.43571722E-16 -4.60240647E-16 -8.64726624E-17
 -1.91727566E-16 -1.09958535E-16 -5.24084613E-17 -6.84655377E-17 -1.32920753E-16
  5.39097192E-17 -5.54991170E-17 -8.26114553E-17 -2.54620370E-17 -7.34475948E-17
 -8.51986961E-17  4.98014031E-17 -3.64952033E-17 -2.06279798E-16 -1.18233766E-17
 -8.90388424E-16  1.20729464E-15  2.19504579E-16 -2.41303559E-17  4.64425131E-16
 -1.70383512E-03 -1.11690805E-15  6.53244505E-16 -2.30116177E-03 -1.84216212E-16
 -4.01708972E-04  3.20889416E-16 -5.60380417E-04  3.40909670E-16  3.96999153E-05
 -1.70706517E-03  4.46808622E-16  3.01709712E-04 -6.30942245E-16  5.01778203E-17
  1.18616532E-03 -1.64549950E-04 -2.71823726E-17 -1.72948081E-04 -1.09648515E-16
 -7.10126109E-16  2.54983509E-16 -6.17823827E-16 -1.81385285E-16  7.16161931E-16
 -1.03508215E-16 -3.09889289E-03  3.75629484E-03  1.60685191E-15  6.00523142E-04
  8.83975389E-16  2.31986852E-03 -3.92599327E-16 -2.78722055E-03  2.46230185E-16
 -3.08334943E-16  8.07114062E-04  5.51973384E-16  3.04342535E-03 -4.01792327E-04
  4.64640882E-16  1.76725179E-16  2.12111678E-03 -1.70968259E-16 -2.66407785E-04
 -1.81508124E-15  1.42929893E-15  1.40893451E-16 -1.19270304E-16  2.96862128E-16
 -1.03542862E-15  9.02549684E-04  9.83289883E-04 -4.08941229E-16  1.85629312E-04
 -1.48232208E-15 -3.51882566E-03 -2.01089590E-16 -5.06663911E-04  5.45603413E-16
 -6.76413311E-16 -1.87233765E-03  1.09341152E-15  3.74526800E-03 -6.94078995E-04
  1.40388942E-16  2.68418965E-17 -1.21755736E-04  8.82949753E-16  1.34653917E-03
 -1.83766097E-01  4.05070424E-02  8.32349971E-15 -2.12974497E-02 -7.32973586E-16
  7.39151827E-17 -1.79139310E-18 -3.84927644E-17 -1.54222817E-17 -2.32814640E-17
 -2.25462977E-18  5.27534904E-17  4.14053167E-17  2.56763205E-17  2.90461217E-17
  2.50891830E-17  6.39692940E-18 -6.03068144E-18 -6.39385898E-17 -1.40728425E-18
 -1.98185300E-17  1.36013126E-17 -1.58369001E-17 -1.93512582E-17 -4.48335233E-18
 -8.43564531E-15 -1.76328623E-14  1.21184125E-01 -3.72499855E-15  5.75862772E-02
  4.53974354E-15  1.57838058E-15 -1.57801346E-16  4.65024035E-16  1.24576079E-16
  1.32206519E-16  1.05657934E-16 -1.75564348E-17  2.95764166E-18  1.29294601E-16
  4.63304662E-17  5.01626331E-17  2.78855018E-17  3.66407187E-17  5.13495754E-17
  1.11367686E-17  1.13158139E-18  5.85244360E-18 -2.59110333E-17  1.01604999E-17
 -1.56010731E-01  5.92499132E-01 -2.81575756E-15  2.94136382E-02 -9.46921039E-16
  1.62219066E-17  1.85241623E-17  1.48402485E-18  2.30510350E-17 -1.24607296E-17
  4.05616422E-17  9.93978940E-18  4.51294631E-17  5.85601865E-18 -2.75099319E-17
 -7.03585102E-18 -3.32561873E-17  5.47276420E-18 -4.27363243E-17 -1.00220051E-17
 -1.00437042E-17  4.23204568E-18  1.70451280E-17 -1.57698882E-17  3.53693781E-18
 -9.81183067E-02 -1.73173672E-01  9.73523267E-15 -1.44391730E-01  4.08927771E-15
  1.06762655E-16 -6.06791770E-17 -5.68470646E-17 -6.45159568E-17 -4.33373939E-17
 -2.31516344E-17 -7.51990314E-18 -4.73540584E-17 -8.31544494E-18  7.91173226E-18
  1.61654444E-17  3.01132364E-17  9.78673934E-18  1.78880401E-17 -6.82182803E-18
 -1.95411421E-17  1.29033888E-17 -4.81231388E-18  3.52388452E-18 -3.86424315E-18
 -5.15414407E-19  6.14716149E-19  7.83842821E-20  1.96899422E-19 -2.27239859E-19
  1.17028286E-06  1.98268499E-17 -1.00176113E-16  1.01061926E-06 -5.14079983E-17
  1.81627507E-06 -1.25029052E-16  2.06055031E-06  2.07733452E-17  3.10902368E-06
  1.11051762E-06 -8.48734198E-17  1.60582630E-06 -1.61957556E-17 -1.09876945E-16
 -8.96410814E-07 -2.28572980E-06 -1.23692562E-16  3.36836718E-06 -5.08362535E-17
  2.86143246E-19 -5.59781238E-19  4.23917958E-20 -7.92520855E-20 -8.21462955E-20
  7.33815143E-17 -2.44463414E-07  1.82776630E-06  6.13651229E-17  1.15390263E-06
  9.97917459E-17  2.28207771E-06  1.31258312E-16 -1.98889007E-07  1.80275282E-16
  7.44542839E-17  1.51304218E-06  9.24971192E-17  1.93218717E-07  2.12366569E-06
 -5.03161277E-17 -1.27904282E-16  2.20947884E-06  1.89849139E-16  1.05121014E-06
 -4.01557194E-19  5.23253818E-19  1.35057605E-19  1.41759997E-21 -6.37849435E-20
  8.43188683E-07  4.37796736E-16  1.79860446E-15 -7.11369995E-07  1.25272390E-15
 -1.09182718E-06 -1.01276265E-15  1.32278800E-06  1.17077149E-15 -3.85833266E-07
 -6.68250518E-07  2.37713903E-16  5.47477671E-07 -4.80387069E-16 -3.60187557E-16
  3.84840216E-07  7.86553588E-07  1.49588940E-15  7.90466155E-07 -1.55304141E-16
 -2.56931077E-20  3.06599569E-20  1.65237670E-19 -8.93047624E-20 -8.45355140E-20
 -1.08035092E-15  3.41381693E-07  1.42394200E-06  9.09877409E-16  9.63336736E-07
  1.35633822E-15 -8.12282376E-07 -1.67799026E-15  9.00549677E-07  4.47662449E-16
  8.62174878E-16  1.84755001E-07 -7.05106751E-16 -3.88631635E-07 -2.97280395E-07
 -4.86453733E-16 -1.00333066E-15  1.17202584E-06 -9.83299804E-16 -1.39244521E-07
 -2.63955757E-20 -4.75009713E-20  2.73679847E-20  2.00077958E-20 -2.14568161E-19
  8.27073238E-07  2.64672506E-17 -7.62272709E-17 -1.72232543E-07  1.73122743E-16
  7.12729757E-06  1.36233622E-16  3.20994535E-07  1.92190663E-16  9.03378403E-06
 -2.42034519E-06 -5.75977094E-17  2.26799199E-06 -1.19170230E-17  5.85761960E-17
 -3.54358064E-07  1.49389859E-06 -3.16717442E-18 -4.96640539E-06  1.27672155E-16
  5.14355193E-20 -5.25790562E-19 -9.10365876E-20 -1.44627341E-20  2.05481541E-19
  2.02315828E-17 -8.01477545E-07  2.29341480E-06  5.66367561E-19 -5.13103005E-06
  2.37948010E-16 -4.28976319E-06  2.65572963E-17 -5.66917704E-06  3.02368587E-16
 -8.30281359E-17  1.71045237E-06  7.90567685E-17 -1.12607265E-07 -1.95068648E-06
 -8.08443933E-18  5.43405912E-17  1.02079050E-07 -1.66636324E-16 -3.90626777E-06
 -4.49564485E-20  6.49334694E-20 -3.32856007E-20 -1.83558886E-20 -4.34236270E-19
  4.65629469E-06 -1.44992784E-16  1.68403355E-16 -2.85720958E-06 -1.13586081E-15
  8.48710111E-06 -3.50095087E-16 -3.34169079E-06 -6.84429924E-16  1.16649793E-05
 -2.05768036E-06 -5.55949003E-16  1.94880568E-06 -9.35513249E-16 -8.35431721E-16
 -2.34304930E-06 -8.90434933E-07 -4.64502676E-16 -3.57110794E-06 -6.66396258E-16
  1.84924091E-19 -4.34450829E-19 -6.25450052E-20 -1.26287361E-20  2.46596851E-19
 -5.75834533E-16 -1.11253650E-06  1.24826661E-06  3.51858649E-16 -8.88937671E-06
 -1.05575797E-15 -2.64984334E-06  4.13287444E-16 -5.27399464E-06 -1.45747955E-15
  2.49872462E-16 -4.43638484E-06 -2.43410798E-16 -7.31467104E-06 -6.52804486E-06
  2.91196063E-16  1.07934960E-16 -3.67442771E-06  4.52300635E-16 -5.16644062E-06
 -9.26278399E-20 -6.85001849E-19 -6.61691724E-20  7.21632341E-20  1.07342327E-20
 -1.32633554E-16 -5.43130911E-08  1.00464010E-06  1.47564901E-16 -1.47926076E-06
 -3.16417948E-16  1.02440213E-07 -2.31821204E-16  2.36356953E-06  3.39323314E-16
  6.84927522E-17 -1.21819624E-07 -1.52884647E-16  1.63804213E-07 -3.63507074E-07
 -8.36740200E-17 -2.43464635E-16  1.55214283E-06 -1.75679173E-16  9.16569025E-08
 -2.80710596E-19 -4.65696302E-19 -3.36081453E-20  1.74438441E-19 -4.66300580E-20
  6.70170965E-07 -6.87708649E-18  1.57781809E-16 -7.39973898E-07 -2.28546423E-16
  1.58828318E-06  1.67668709E-17  1.20241995E-06  3.76249134E-16 -1.80409205E-06
 -3.39148172E-07 -1.56524346E-17  7.84680475E-07  2.90042618E-17 -5.45646561E-17
  4.38965796E-07  1.26444530E-06  2.49968814E-16  9.26212246E-07  1.61940117E-17
 -1.73345900E-17 -9.64668912E-18  2.41676046E-18  8.91684450E-18 -2.19557284E-18
  1.66750979E-17  3.95228393E-06  5.87463592E-05  1.21579947E-16 -2.38555458E-04
  3.79045079E-16  4.29211889E-05  1.16636742E-16 -5.79967536E-05  2.92482482E-16
  8.40413751E-17 -1.30139687E-04  3.28539409E-17 -2.17007219E-04 -1.20654254E-04
 -9.46635909E-17 -9.45686797E-17  1.39704403E-05 -9.07423879E-17 -8.48603641E-05
 -7.64609454E-18  1.74275414E-17  4.95788631E-18  9.81246813E-18 -3.30189992E-17
  1.97957827E-04  5.61444194E-17 -1.09580446E-16 -1.39307398E-05  3.85515777E-16
  3.67965692E-04 -3.27524973E-17  1.04600373E-04 -1.08936521E-16  3.93286783E-04
 -6.15680097E-05 -4.66544503E-18  1.71537211E-04 -1.39895916E-16  6.72010648E-17
 -2.27201846E-05  2.65309203E-05 -1.84525023E-16 -7.12613164E-07  4.84021937E-17
  8.02898380E-18 -8.17637407E-18  2.78584748E-18 -6.45111153E-18  9.35412280E-18
  1.24045953E-16  8.50555649E-06 -1.87593209E-04 -1.99928529E-16 -7.75970186E-05
  2.42540612E-16 -1.51724356E-05  2.11932416E-16 -9.77930324E-05  6.67675519E-17
 -1.13972218E-16 -5.02138280E-05  1.42784875E-16 -8.61776707E-05 -3.21081921E-05
  8.14482478E-18  1.30262911E-16 -1.12763617E-04  1.00964791E-16 -3.85669646E-05
 -2.01492170E-18 -6.01013280E-19 -1.37624569E-18  1.85112573E-18  3.36422099E-17
 -2.11543029E-04  5.38979677E-17  2.30387490E-17  3.18465282E-05  1.58839509E-16
 -1.25369644E-04  2.39802044E-16 -8.28139565E-05  2.34937154E-16 -2.32476660E-04
 -2.76999021E-04 -2.12633676E-16 -1.27329278E-07  1.59439947E-16  3.84299707E-17
  1.23607304E-04  8.44033428E-05 -4.91065017E-17 -2.62613045E-06  1.69862659E-16
  7.46851226E-18 -5.20397185E-18 -5.62273005E-18  2.41269535E-18  2.29775560E-17
 -1.34896265E-04 -7.74071136E-17 -1.22425107E-16 -8.83486307E-05 -4.25351598E-16
 -5.36208824E-04  1.95215782E-16  1.72617409E-05 -2.60644415E-16 -7.59894241E-04
  1.79320925E-06  9.74630929E-17 -2.17589255E-04  2.82979231E-16  1.11550576E-16
  9.55003929E-05  8.53644845E-05 -9.38990779E-17  1.42824647E-04 -9.67569581E-17
  1.78311390E-17 -9.19258201E-19 -1.49705373E-17  6.32524887E-18  6.69498872E-18
  2.39221412E-17  1.71231603E-04  1.29220057E-04  9.63948009E-19 -4.47685914E-04
  1.13752175E-16 -4.01601456E-04 -1.69254009E-16 -2.08909397E-04  1.53182535E-16
 -1.46816956E-16 -7.29646899E-05 -2.70310654E-17 -1.23403866E-04 -1.22425881E-04
 -6.72959694E-17 -1.11496314E-16 -9.47379248E-05 -1.40436791E-17 -1.12170142E-04
  2.78131077E-17 -2.76275541E-17 -6.43904997E-18 -1.93237509E-17  7.77022747E-18
 -1.91968646E-16 -6.63191382E-05 -5.78522079E-04 -1.51753312E-16  2.06799053E-04
  5.59181326E-18  1.67644480E-04  2.21929311E-16  4.79346985E-04  2.12631581E-16
  7.92782910E-17  8.54630059E-05 -4.89419563E-17 -5.70431728E-05  4.34537275E-05
 -2.56639518E-17 -1.01891241E-16  7.84014430E-06  2.94871141E-17  7.28423814E-05
  3.35486929E-17 -1.32948007E-17 -2.56895432E-17  3.38444819E-18 -3.38648157E-19
  1.91054434E-04  1.25311509E-16  9.86707546E-17 -2.19355070E-05  5.21219884E-16
  3.78512978E-04 -1.84026308E-16 -9.21289486E-05 -2.24123746E-17  2.70237718E-04
 -5.73119642E-05 -8.70762792E-17  1.23897822E-04 -1.19633514E-16 -7.60244230E-17
  7.73659337E-06  4.16576981E-05 -7.99929467E-17 -1.40622346E-04  9.88389129E-17
 -5.22025771E-17  1.62710047E-17  2.05705400E-17  3.17687917E-17 -2.30697852E-17
 -3.37300792E-17  5.17062096E-05  8.38617468E-05 -4.10458150E-18 -1.49739829E-04
  1.63560890E-16 -2.79841442E-04 -5.16782036E-17 -1.86007218E-04  3.52168909E-17
 -9.04330540E-17 -7.28910240E-06 -1.15543441E-16 -1.45734318E-04 -7.71038531E-05
 -2.33594388E-17 -7.45226809E-17 -9.34040493E-05  7.71504350E-17 -3.17299836E-05
 -2.45283348E-17  5.75728489E-19 -3.60544126E-17  5.01619659E-17 -2.60721654E-17
  6.58757426E-17 -1.46814936E-04  1.49671125E-04  1.33209311E-16  7.09521180E-05
  1.62803489E-17  2.69470768E-04  1.36015622E-16 -1.38361460E-05  1.93155341E-17
 -6.65020354E-17 -9.20863676E-05 -8.22971237E-17  8.67764862E-06  5.63989466E-05
  1.79237462E-17  1.16284511E-16 -2.54990420E-05  2.14889003E-17  9.19645521E-05
  4.18415155E-17 -3.25811541E-19  5.92246751E-17 -5.80408116E-17  8.65269822E-17
 -6.52480049E-04 -2.10630028E-16 -1.78706622E-16  2.47686472E-04  3.82204367E-16
  3.93784308E-04 -1.85662595E-16  2.28271084E-04  1.16535618E-17  2.07592669E-04
  4.25853523E-05 -4.69408328E-17  1.13003369E-04 -2.33796288E-16 -1.29422040E-17
 -1.36060051E-04 -2.51167914E-06  1.01113958E-17 -8.85939605E-05  5.90344046E-18
 -1.51826740E-18  6.69563211E-19 -7.96788171E-17  3.77957478E-17 -6.60696321E-18
  1.56071919E-04 -6.27002683E-17  2.42046893E-16 -2.82363199E-04 -7.49427386E-17
 -1.53558684E-05  2.18854887E-16 -1.38581942E-04 -5.55212122E-17  1.75664953E-05
 -3.45245354E-05 -1.28430550E-16 -4.56259331E-04  1.17863975E-16 -1.14084987E-16
  3.28310584E-05  2.47505665E-04 -8.22248301E-17 -2.12121487E-04  5.07237199E-17
  5.81841085E-18 -8.49642247E-17 -7.11153227E-17  7.99917803E-17  6.41850336E-17
 -7.59262744E-04 -4.19931864E-19 -8.55722530E-17  1.09971077E-04 -1.23561161E-16
 -1.64674901E-04  3.33159535E-17  1.47827499E-04  2.19741036E-17 -3.56449298E-04
 -7.37215580E-05  5.72020737E-17 -2.21671704E-04 -1.97525250E-17  8.26296412E-18
  5.18291995E-05 -7.94934494E-05  9.52140307E-17  1.71323654E-04 -3.33161048E-17
  3.68027912E-17  3.52902578E-17 -3.04136621E-17  6.68620766E-17 -1.61116335E-17
  1.02022454E-16  7.72550612E-05 -2.42082687E-04 -5.87396170E-17  1.68936746E-04
 -7.85564917E-17 -2.03577729E-05 -4.58269088E-17  1.99968760E-04 -9.60669231E-18
  4.17882316E-17  6.67078361E-05 -7.88068725E-17 -2.60297187E-05  1.02158101E-04
 -6.61577672E-17 -1.22338723E-16  1.03976156E-04 -1.05347639E-16 -1.23218548E-05
 -4.57925536E-17 -2.21483892E-17  1.53303579E-18  6.37840512E-17 -2.72463321E-17
 -2.33798972E-04 -1.15199122E-16 -1.53567451E-16  1.97253088E-04 -1.06470161E-16
 -1.29427180E-04  1.11484334E-16  3.95677643E-04 -8.67038309E-17 -1.43419265E-04
  4.65393673E-04  2.21368402E-17  3.64034835E-05 -3.37302366E-17 -7.50703302E-17
 -8.53845325E-05 -7.43830362E-05  7.05427691E-17  7.62794793E-05 -2.14315979E-16
  6.63697200E-17 -7.51356389E-17  6.63638424E-18 -5.68881985E-17  6.57739713E-17
 -9.47493106E-04 -2.42677564E-16 -3.48080629E-16  4.25347596E-04  2.67832558E-16
  3.09905616E-04 -3.67751848E-17  3.73204622E-04 -5.09279960E-18  1.26510066E-04
  1.12015138E-04  9.65648138E-17  2.12045265E-04 -1.82638945E-16  8.95237708E-17
 -5.98075834E-05  2.35778861E-05 -1.66294249E-16  3.50937168E-05 -4.79143837E-17
 -1.11793209E-17 -1.68523178E-16 -2.40351056E-16  1.49196031E-16  2.75618689E-17
  1.23440660E-16 -5.48758645E-05 -2.17769620E-04 -5.48312533E-17  4.71002846E-05
 -1.53714742E-16 -1.79703582E-04 -5.99740226E-17  9.32423279E-05 -1.74220118E-17
 -1.81378625E-17  1.51308323E-04  6.72967217E-17  5.94886705E-05  9.34146010E-05
 -6.46575011E-17  1.41938490E-17  1.41828090E-05  5.92310374E-17 -1.93842583E-05
  4.35274307E-15 -5.76577638E-15  1.10272424E-03  6.49735345E-17 -1.23045751E-03
 -4.48740926E-17 -4.90794474E-17 -1.28517254E-17 -3.79838533E-17 -1.25802749E-17
 -2.10362287E-19 -5.46645631E-18 -3.41376353E-17 -9.59613514E-18  7.52304285E-18
 -4.06980262E-18  8.44396849E-18 -4.64222810E-19  4.69951018E-18 -4.22919236E-18
 -9.84996490E-18  1.55397922E-18  3.00432466E-18 -9.21740894E-18  5.44588442E-18
  8.11260674E-17 -3.01878785E-16 -3.06791243E-16  1.38650989E-16  4.50824695E-17
  1.65071485E-05  7.99739690E-17 -1.39410814E-16  4.66344858E-05  3.27104419E-16
  3.28627678E-04 -1.33621297E-16 -5.31477131E-05  4.74301248E-17  3.60872195E-04
  7.76267000E-06  8.57396784E-17  4.36665193E-04 -9.77394552E-17 -2.23763854E-17
 -3.03453244E-05 -2.79163381E-05 -3.48617424E-17 -1.44932377E-04  9.83324373E-17
  9.53738276E-17 -2.62397881E-16 -5.08217950E-18 -5.07035390E-17  8.11051669E-17
  1.06911819E-16 -2.93330188E-04 -2.90688378E-05 -3.67309668E-17 -3.76458024E-07
  1.54779097E-16  2.84784056E-04  2.35808973E-17 -1.76167890E-05 -1.33918144E-17
  1.48498753E-16 -1.89062455E-04  1.92838473E-17  8.07868205E-05 -1.29492165E-04
 -2.79150650E-17  1.90905128E-18 -1.83823187E-05  1.98670947E-17  2.30095943E-04
  1.18329412E-16 -5.68155202E-16 -1.76282558E-16  8.39621732E-17  4.37450238E-17
 -1.17110641E-16 -6.81833856E-05  1.60405864E-04  1.20975342E-16 -1.40028984E-04
  1.69865188E-16  1.59594762E-04  1.30172587E-18 -9.60929037E-05 -9.61864675E-17
 -8.92544166E-17 -4.29370524E-04 -6.01479129E-17 -7.39344606E-05 -2.22157193E-04
  1.89579940E-17  6.48119337E-17 -1.37788799E-04 -7.07451393E-17  2.05773390E-05
 -6.62522754E-03 -6.39014783E-02 -4.56271715E-15 -1.29624974E-03  1.69536891E-16
 -1.13597422E-17  9.11650357E-18 -1.95641066E-17  2.97641922E-18 -7.13121199E-18
 -9.85563051E-18 -2.56846493E-18 -1.67159447E-17  3.44850604E-19  4.53756357E-18
  1.26414347E-18  1.78545612E-17 -4.15539180E-18  3.44519086E-18 -8.93284557E-18
 -1.10179818E-17  7.57035671E-18 -9.31252300E-18  1.04675866E-18  1.76028839E-18
  2.64407579E-14  6.09881009E-15  3.39054912E-03  4.45013754E-15  2.80160475E-03
  2.19945968E-16  9.37650841E-17 -1.50120221E-17  4.39750671E-17  2.20544629E-17
 -5.60308831E-18  1.04512023E-17  1.13045111E-19 -6.18651110E-18 -8.46790377E-18
 -7.90161707E-18  4.09318896E-19 -1.49876664E-17 -2.15024525E-20 -1.18659601E-17
 -1.03901923E-17 -3.18713874E-19 -7.99668935E-19 -2.32254580E-18  1.59097436E-18
 -4.70249578E-01  2.71430577E-02 -4.98229826E-15  4.21013515E-02  4.98270739E-15
  1.45475544E-19  5.67624183E-17  1.93387426E-18 -1.34449531E-17  3.13730802E-17
 -9.91414463E-18 -5.24635364E-18 -3.06520276E-17  1.77894474E-17 -7.52960599E-18
 -2.48002225E-17 -2.07186414E-17 -4.38744526E-18  2.02825545E-17  7.61558669E-18
  1.21689553E-17  5.23107934E-18 -4.87804525E-18 -1.28892671E-18  1.66424962E-17
  1.18171862E-03  5.21716060E-01 -2.23944859E-14 -2.64893508E-03 -2.57049444E-15
  3.44343782E-17  1.94063361E-17  2.36858656E-17  2.42507089E-17  1.23323340E-17
 -6.17905791E-18  2.60370027E-17  1.83454006E-17 -1.81029355E-17  1.25514932E-19
 -1.67833782E-17 -2.60282197E-18  2.26347373E-18  6.14939294E-18 -3.01988477E-18
 -3.75318298E-18 -8.58229083E-20  1.21591661E-17 -1.50604566E-18  1.40900756E-18
 -2.20264986E-19 -4.37278398E-19  4.93446336E-20  5.42933970E-19 -1.65984564E-19
 -3.57024611E-06  1.31323367E-15 -1.17174478E-15 -2.29250566E-06 -1.02458657E-15
 -3.70287884E-05 -1.02178399E-15 -3.58690706E-06  1.13189584E-15 -5.31812871E-05
  8.23514916E-06 -4.30080069E-15 -2.65481242E-05 -2.39812314E-15 -2.64345296E-15
 -7.29014233E-06 -3.21588360E-05 -3.60157555E-15  9.75529026E-05 -4.15676221E-16
 -1.01937965E-18  5.37729031E-19  7.01049000E-20  9.11835231E-19 -2.54825356E-19
 -1.93620255E-16 -2.33403035E-05  2.06457075E-05 -1.08367120E-16  1.75201845E-05
 -2.12483264E-15  1.84305431E-05 -1.83006237E-16 -2.00169986E-05 -3.03175531E-15
  5.05131278E-16  7.63379020E-05 -1.51122791E-15  4.21503950E-05  4.69544021E-05
 -3.96019886E-16 -1.78434042E-15  6.39754443E-05  5.49421541E-15  6.29589619E-06
  2.39116700E-19 -4.50094431E-19  1.58948821E-19 -1.78669720E-19  1.11089985E-19
  1.05130840E-07 -3.06011444E-15  4.88955510E-15 -2.71855084E-06  4.77857366E-15
 -2.94038901E-06 -1.17556359E-15  2.12393770E-06 -8.43651856E-16 -5.68550743E-07
 -1.66972849E-06  7.66414738E-15 -6.69965128E-07  4.41814611E-15  2.25105520E-15
 -2.66459531E-06 -5.01587346E-06  1.86549684E-15  5.17259669E-06  3.01294673E-17
 -1.31625611E-19 -4.02632311E-21  6.00828008E-20 -1.21081297E-19  1.78588821E-19
 -1.45760355E-16 -2.36258127E-06  3.94132005E-06  3.40095991E-15  3.77809618E-06
  3.81928045E-15 -1.01297846E-06 -2.70381561E-15 -7.28453727E-07  8.77198216E-16
  2.04089423E-15  5.86804257E-06  9.09578120E-16  3.85043355E-06  1.67437478E-06
  3.26070444E-15  6.05512967E-15  1.45129214E-06 -6.17146917E-15  3.43018178E-08
 -8.80596320E-20  7.29837817E-19 -2.24541959E-20  1.37489576E-19 -7.23569861E-19
  6.09449952E-06 -1.88151016E-16 -1.44802459E-15  2.18650858E-05 -5.15621668E-16
 -2.93528981E-05  9.19289949E-16  2.07342150E-05  1.13015373E-15 -4.15803810E-05
  4.20131935E-05  9.02616863E-16 -1.58386382E-05 -5.07149403E-15  6.03290579E-16
  2.95106853E-05  8.39242704E-05 -4.59554900E-16 -1.01457023E-04 -2.51711931E-17
 -2.53113915E-19  4.08823369E-19 -2.40728606E-19 -6.02045506E-20  3.47738344E-19
  2.34804853E-16  5.92760994E-06  4.08857036E-05  8.22945215E-16  1.36161322E-05
 -1.06945096E-15 -2.66526573E-05  8.96460325E-16 -3.18480615E-05 -1.38198195E-15
  1.60382940E-15 -2.81447819E-05 -5.02564547E-16  1.44430685E-04 -1.86996076E-05
  9.75939872E-16  2.85867608E-15  1.09793261E-05 -3.42977968E-15  2.26028757E-06
  2.67800511E-19  3.31102646E-19  1.13240360E-19 -2.58533347E-19  6.46360244E-19
 -8.31114775E-06  3.03316855E-15  1.34569897E-17 -1.70350690E-05 -1.40217943E-15
  2.83726702E-06 -2.52158038E-15 -6.22053693E-05  7.36815108E-16 -2.72416094E-05
 -5.28511502E-05 -9.39582195E-15 -1.09103858E-05  4.01259819E-15 -5.26070890E-15
  2.62155345E-05  3.49845520E-05 -4.37744660E-15 -4.85051370E-05  2.61060649E-16
 -4.88672037E-19 -1.20037874E-19 -1.11396543E-19  1.63120600E-19 -3.35070173E-19
  1.03474324E-15  2.40324586E-05 -8.53351236E-07  2.11654497E-15 -1.14879922E-05
 -3.51554329E-16 -1.95003409E-05  7.80242131E-15  6.50132862E-06  3.43541056E-15
  6.59564288E-15 -7.43523922E-05  1.38118130E-15  2.88638901E-05 -4.15453570E-05
 -3.32586144E-15 -4.48888857E-15 -3.51169856E-05  6.23567351E-15  1.79490360E-06
  1.52158900E-19  6.12136242E-19 -3.54243137E-19  3.27569091E-21 -4.37994691E-20
 -2.45203187E-16 -1.05440726E-06  2.75985707E-06  6.02689174E-16 -2.85992084E-06
 -7.23538408E-16 -1.29420673E-06 -5.16490046E-16  5.25322536E-06  2.02270600E-16
  1.79473777E-16 -2.83768387E-06 -5.53596422E-16 -1.05413684E-06 -1.39234298E-06
 -4.56414282E-16 -9.45486833E-16  6.14139759E-06 -5.48271338E-16  4.59912852E-08
  6.69035408E-19  4.09928757E-19 -4.61916900E-20  2.05255966E-19 -1.51202847E-19
  1.40074115E-06 -1.94918006E-16  4.97139370E-16 -3.38053664E-06 -4.92379059E-16
  4.05751947E-06 -2.24323517E-16  3.03111435E-06  9.14808720E-16 -1.16029422E-06
 -9.16357885E-07 -4.70129193E-16  3.12330758E-06 -1.66505652E-16 -2.27873290E-16
  2.53271078E-06  5.26706048E-06  1.10486816E-15  3.28293998E-06  7.82403934E-18
 -2.40628830E-17 -3.82096579E-18  1.78080270E-18  1.75631597E-17 -5.91296381E-18
  6.63163936E-17 -1.27277151E-04  3.52143812E-05  1.31552640E-16 -1.96105190E-04
  3.46292051E-16  6.26639378E-05  2.27684923E-16 -2.08612893E-04  3.08795960E-16
  1.52663318E-16  1.35479695E-04  1.82011801E-16  1.86083149E-04  5.78029692E-06
 -3.33610084E-17 -1.88858616E-17  1.83231473E-04 -1.05105398E-16 -1.08060466E-04
 -1.74101178E-17  1.02958615E-17  1.25157846E-17  1.09131074E-17  3.04274580E-17
 -3.50095286E-04  5.05491977E-18  7.72433547E-17 -1.29456208E-04 -9.59025083E-16
 -1.07900182E-03  4.93798504E-16 -5.82940682E-04  1.58981976E-16 -1.25988789E-03
 -6.92422218E-05 -1.45740650E-16 -9.00696051E-04  1.35027533E-16  2.18880594E-17
  1.36569532E-04  8.21011193E-06  6.74183862E-17  2.59381154E-04 -9.80126557E-17
  1.27674993E-18  9.37126825E-19  3.98252392E-18  1.11861617E-17 -1.74658015E-17
 -1.22835538E-16  5.35694290E-04 -2.57090646E-04 -3.13823794E-17 -5.57630180E-04
  5.41538462E-16 -1.11919078E-04  2.88212787E-17  6.15654540E-04  2.20003020E-16
 -3.46143428E-17 -5.94808999E-04  6.53117707E-17 -4.36616925E-04 -3.63014745E-04
 -1.18404195E-16 -1.64107086E-16  9.95188570E-05 -6.33509195E-17 -4.21030877E-05
 -1.80349223E-17  2.75233299E-18  9.67197531E-19  1.89687127E-17 -4.39860024E-17
  3.52139423E-04  1.80853881E-17 -2.08902047E-16  7.07809197E-04 -3.51566569E-16
 -7.31143903E-04  5.40030894E-16  1.56945354E-03  9.08248058E-17 -3.02941083E-04
  1.72854144E-03 -6.14909911E-16 -1.13958947E-04  2.42756712E-16 -4.25119341E-17
 -2.84953380E-04  1.49748256E-04 -1.22530264E-16  1.67940338E-04  1.40189398E-16
  3.09204510E-17 -3.27954107E-17 -2.73791836E-18 -1.03894571E-17 -6.43070638E-19
  1.40088456E-04 -1.21121515E-16  4.30086901E-17  5.94287676E-05  4.86401050E-16
  5.19564573E-04 -2.02255090E-16  5.83358202E-04 -7.37016527E-17  1.76271217E-03
  3.92819128E-04  1.70511639E-16  6.67681138E-04  4.43568738E-17 -4.72133869E-17
 -4.68212215E-04 -7.40219642E-04  1.05919510E-16 -2.33060832E-04  5.79187043E-17
  8.41257567E-18 -5.53634277E-18 -3.10013685E-17 -8.63964592E-18 -4.13801687E-17
 -3.36152438E-16  2.18427797E-03  1.62732579E-04 -1.40368912E-16 -1.23133500E-04
 -4.84220858E-16 -1.70553417E-03 -1.80647172E-16  1.11503562E-04  1.49200997E-16
 -6.01745389E-16 -2.50855106E-03  3.81097935E-16  8.10086592E-04 -1.08473089E-03
 -1.00277800E-16 -2.51642606E-16 -9.26678443E-04  3.70879053E-16  9.33829131E-05
  1.37783009E-17  1.64013719E-17  2.69116757E-18  2.92085657E-18 -2.26670681E-17
 -1.89116703E-16  1.40826948E-04 -2.93366341E-03 -1.08057138E-15 -4.06696987E-04
  7.27554105E-16  2.60832912E-04  4.28343286E-16  1.31397299E-03 -1.47048882E-17
  1.66821172E-16 -3.44879242E-05 -5.31830481E-16 -3.11366595E-03 -1.31331353E-05
 -3.75541693E-16 -3.12987114E-16 -6.36344602E-04  5.19403579E-17 -8.70775576E-05
  3.54529529E-18  3.60414697E-17 -3.03970907E-18  1.91297771E-17 -6.17737383E-17
  3.94561807E-04  2.78865629E-16 -1.05916292E-16  4.16899728E-04 -4.96023856E-16
 -5.60059861E-04  1.06203245E-16 -3.19116679E-04  3.41786168E-16 -2.31903518E-05
  8.04949660E-05 -4.34712674E-16  1.55669881E-05 -4.72479015E-17 -1.26443520E-16
  3.88548746E-04  9.92707383E-04 -2.98643598E-16 -5.31517700E-04  4.18173509E-16
  3.14739880E-17 -1.25029409E-17 -9.37893344E-18 -4.01480154E-17 -9.40823870E-18
 -4.75055633E-16  1.52216385E-03 -5.45572706E-04 -3.28415934E-16 -4.70661563E-04
 -1.17559667E-16 -1.28952163E-03 -6.21402732E-17  9.46401549E-04  1.20414004E-16
 -5.32307692E-16 -1.50077131E-03 -1.71036931E-16 -3.63799591E-05 -6.21539739E-04
 -7.89270125E-17 -3.52089935E-16 -1.23290804E-03  4.80426898E-16  1.79296829E-04
  4.62338527E-18  9.11543697E-18  3.15352448E-17 -1.53806650E-17  2.37154389E-17
  4.37985813E-18 -7.83939142E-04 -2.42798555E-04 -1.43133554E-16  3.14004011E-04
 -1.15681998E-17  7.62869007E-04  2.08747151E-16 -3.47148100E-04 -1.80100066E-16
  9.23049279E-17  9.90850602E-04 -4.07476273E-16 -4.17943232E-04 -1.73813564E-06
  2.52744730E-16  1.94016375E-16  4.77331163E-04 -1.36423775E-16  1.40602002E-04
 -2.18735410E-17  1.03608289E-17 -3.85182451E-17  2.42805435E-17  2.24765476E-16
 -2.57702984E-03 -2.01172281E-16 -7.54472111E-16  7.36233620E-04 -1.31333837E-17
  2.55938141E-04 -3.54188897E-17 -1.61343228E-04  2.86668250E-16 -4.47401156E-04
 -2.09617005E-04 -7.79423636E-17 -2.63646123E-05 -5.64443454E-16 -5.59318690E-17
  6.18753290E-04  7.09676374E-04 -2.98710893E-16 -4.63436052E-04  2.42218932E-16
  4.38322489E-17  3.21054001E-17  4.12597959E-17 -4.77803829E-17 -5.49138214E-17
  7.44497477E-04 -4.33887462E-17 -1.35378366E-17  2.87812973E-04 -2.80738238E-17
 -9.80651654E-05  1.11306684E-16  4.53635895E-05 -1.43723265E-16 -2.97094529E-04
  5.57315628E-04 -4.36036771E-16 -1.97007371E-04  1.20916846E-16 -2.56127456E-16
  5.00634122E-04  1.75153647E-03 -3.99013200E-16 -2.55120070E-03  1.26368679E-15
 -8.45388264E-18  2.95807819E-17  7.03757211E-17 -6.36299154E-17  2.78610728E-16
 -2.84335217E-03 -4.81422258E-16 -7.04716468E-16  6.30158944E-04 -2.39971253E-16
 -1.16042775E-04 -9.20675685E-17  1.31442142E-04  3.25180532E-16 -3.35432738E-04
 -1.23331958E-03  2.86570191E-16 -2.92194320E-04 -3.45011405E-16  2.06314817E-16
 -4.40565161E-04 -5.72172296E-04  1.83532114E-17  1.07054135E-03 -5.41874911E-16
  7.03177670E-18 -1.99183649E-17  3.94608337E-17 -5.52162165E-17 -1.14904301E-17
  6.20320170E-16  1.62944273E-04 -8.51409333E-04 -6.20172963E-16 -3.60795104E-04
  3.31231260E-16  1.62484630E-04  9.25389982E-17  6.57088923E-04  2.30672431E-16
  3.47944400E-16  5.49903111E-04 -2.50545255E-17 -8.66151819E-04  1.30628313E-04
 -4.52651521E-17  1.05876896E-16 -5.81989226E-04 -1.35024533E-16  2.67704019E-05
  3.28463540E-17  1.06461423E-17  7.51637079E-18 -4.27848343E-17  6.47691466E-17
 -4.94483672E-04 -6.83620300E-16 -1.34859514E-16  3.20921851E-04 -3.57119891E-16
 -2.61766337E-04  4.06951272E-16  7.12714876E-04 -2.43420970E-16 -1.42317107E-04
  1.49402075E-03  3.03393392E-17 -7.55281151E-05  1.54406363E-17 -8.67281881E-17
 -8.45670285E-04  1.47835023E-04  8.37432948E-17  2.28364868E-04 -5.61344736E-16
 -3.50455363E-17  5.58126191E-17  5.01599518E-17  2.08663897E-17  3.11485625E-16
 -3.81861530E-03 -5.02211839E-16 -1.06334140E-15  1.11929554E-03  5.93536254E-16
  6.84732830E-04 -4.34746068E-16  2.12740573E-04  3.26530391E-16 -9.98132424E-04
 -1.33959629E-04 -9.94406857E-17 -2.28144085E-04 -5.75672231E-16 -1.52735291E-16
  1.91924308E-05 -1.40087916E-04 -7.26401290E-17 -3.03719518E-04  1.91749628E-16
  6.11336968E-17  1.24775188E-16  1.49994293E-16 -1.22750770E-16 -2.15702787E-17
  4.56861973E-17  8.69110480E-04 -5.01425113E-04 -4.12886040E-16  4.21827994E-04
 -4.21052024E-16 -4.20646206E-04 -1.29121858E-16  2.81979082E-04  1.69131731E-16
  1.73474684E-16 -4.63809951E-05  3.50945983E-16  4.19482929E-04 -6.78638344E-04
  5.20668945E-18 -2.25261471E-16 -7.36915414E-06  1.25861648E-16  1.68276990E-06
  1.61999697E-15 -3.50006949E-15  1.00224890E-03 -7.53401759E-16 -8.77093554E-04
  1.07627580E-16 -2.51408701E-17 -1.71287947E-17 -5.98129373E-17  2.14065713E-18
 -1.89067918E-17 -8.65732258E-18 -2.46762409E-17 -5.26873078E-19  4.00957542E-17
  2.90136210E-18 -7.25529979E-18  3.42990976E-18  2.61750399E-17 -2.12741538E-17
  5.60761956E-18  3.60124858E-17  5.42821854E-19 -2.63968656E-17 -3.73137578E-18
  4.13185148E-17  2.63255555E-16  1.95967988E-16 -9.67506704E-17 -8.33279347E-17
  4.77047090E-04  3.21651561E-16 -4.25180325E-16  7.55218399E-04  5.74454006E-16
  5.69805599E-04 -4.28961942E-16 -8.31425736E-05  1.44642048E-16  5.01445662E-04
 -3.88906652E-04 -4.46381308E-17  6.29228817E-04 -1.98582425E-16  1.43719877E-16
  5.38957911E-05  4.01320858E-04 -8.83603388E-17 -4.20646453E-04  3.77889824E-16
 -5.37817055E-17  1.45681188E-16 -5.43355522E-19  3.97086194E-17  4.74011461E-17
  2.45953039E-16 -2.11079689E-03 -2.81854509E-04  2.79145592E-16 -1.26097765E-04
  6.73754530E-16  1.05139609E-03  2.02611338E-16 -5.70631414E-04  1.79434034E-16
  3.16870756E-16  1.89238858E-04  5.98180854E-16  1.42123038E-03 -3.30826924E-04
  1.60372903E-16  4.90414979E-16  2.60437427E-04 -6.75521389E-16 -3.96928224E-04
  2.36041115E-17  4.49230690E-16  1.10988721E-16 -4.81480972E-17  7.57244777E-18
  2.43853357E-16 -2.61347435E-04  7.46493780E-04  6.28127670E-16 -7.26381859E-04
  9.76468426E-16  1.24041564E-03  3.48983265E-17 -5.07589877E-04 -2.14213907E-16
  5.56560361E-17 -6.55372043E-04 -2.91458410E-16 -9.21333820E-04 -3.60493076E-04
  1.32974325E-16  2.93584815E-16 -4.50699960E-05 -3.17555977E-16 -1.51876494E-04
  8.96343880E-04  4.79547164E-02 -9.71009668E-16  1.45862768E-03  8.10888772E-16
  8.44257097E-18 -8.83903778E-19 -5.65255495E-18 -2.81895341E-18 -1.27676180E-18
 -5.40959263E-18 -2.36199927E-17 -1.53685183E-17 -7.03394011E-18 -1.15018537E-17
 -8.09954815E-18  6.39950944E-18 -3.64439495E-18  1.13409374E-17 -5.12038521E-20
  2.85936657E-19 -4.66776176E-19  7.78023203E-18 -8.52340135E-19 -1.37596517E-18
 -1.55981502E-14  4.41770663E-15 -1.64717777E-03  8.97882620E-16 -1.40738556E-03
 -3.84618816E-17 -2.22242438E-17  1.21152707E-17 -1.57257991E-17  7.79184303E-19
 -1.47123224E-17  7.97421827E-18  1.08364176E-17 -9.76901107E-18  7.46282768E-19
  6.89635826E-18  1.32014702E-17  1.80290366E-18 -2.06551368E-18  4.37345309E-18
  4.32686999E-18  8.48900911E-18 -3.58171193E-19 -9.81554306E-19 -8.49796047E-19
  5.12457489E-01 -8.60923538E-03 -5.03348432E-15 -3.53330847E-02  2.37901584E-15
  4.43508157E-17 -4.53199267E-17 -1.13556983E-17 -1.76774409E-17 -1.42457474E-17
  6.09480391E-18 -8.92802465E-18 -1.93716549E-19 -2.53045642E-18  3.11014931E-18
  1.84103896E-17  2.20332656E-17  5.00377181E-18 -6.79356841E-18  3.11894009E-18
 -1.21187634E-17 -7.81398290E-18  5.49725732E-18  1.86646763E-18 -4.25861493E-18
 -3.37174176E-02 -4.82157447E-01  1.27425071E-14 -1.38720489E-04 -1.13805682E-15
  3.61033356E-17  6.76416338E-17  3.56902570E-17  2.40543645E-17  3.80392475E-17
 -2.36400368E-17 -3.40561704E-18  1.32957228E-17  2.72844408E-17  2.16857251E-17
  1.09147493E-17  1.81666854E-17 -9.03867377E-18 -1.04758282E-17  1.57601286E-17
  8.66131048E-19 -2.38973187E-18 -7.42621109E-18  1.81405688E-18  3.98451610E-18
  2.68273188E-19 -6.25078989E-21 -3.14097113E-20 -3.18254204E-19  1.63220208E-18
 -1.16562775E-05  6.67830416E-17 -1.12032261E-15 -2.90851301E-05  3.44173179E-15
  2.19081531E-05  3.54142188E-15 -9.54752312E-05  3.54392125E-15  3.18084597E-06
 -1.63989335E-04  6.20806380E-16  1.48855941E-07 -2.65667316E-15  3.79356028E-15
  5.53151431E-05 -1.02190123E-05 -3.23980275E-16 -1.00044955E-05  7.58999281E-15
 -9.51456194E-19 -1.14459308E-19 -3.83071774E-20 -4.07044415E-19  6.63711374E-19
 -6.64420505E-16 -1.13364993E-06  1.99662676E-05 -1.66619009E-15 -6.02362709E-05
  1.27106696E-15 -6.21221930E-05 -5.43061263E-15 -6.14936713E-05  1.62167056E-16
 -9.34854086E-15 -1.01576390E-05  3.37378651E-19  4.62866599E-05 -6.61519974E-05
  3.14994337E-15 -5.86684617E-16  6.66604167E-06 -6.02919953E-16 -1.33013493E-04
  1.43083342E-18 -3.22116771E-19 -1.65250435E-18  1.66170579E-18  2.39082523E-18
 -1.55776594E-05 -2.85611407E-14  9.14358656E-15 -2.42054076E-05  4.75131640E-14
 -3.95464855E-05 -2.52531240E-14  9.06436341E-06 -1.47920096E-14  5.84768429E-06
 -1.34914248E-05  5.42648549E-14 -2.38255061E-05  8.26898675E-15  1.31651371E-15
 -4.34225589E-05 -8.14798659E-05 -1.43543833E-13 -7.39060491E-05 -1.18686794E-14
  2.87635414E-19 -3.52965724E-19 -1.22969264E-18  3.71287413E-19 -5.24361302E-20
  1.98162994E-14 -2.23858500E-05  7.13462423E-06  3.08894333E-14  3.72999922E-05
  5.01534992E-14 -1.99823328E-05 -1.12273124E-14 -1.16539539E-05 -7.42131268E-15
  1.75182593E-14  4.24553065E-05  3.03637922E-14  6.44267700E-06  8.65419782E-07
  5.50968875E-14  1.03562763E-13 -1.13112012E-04  9.39460787E-14 -9.40586966E-06
  3.05159815E-19  6.87633776E-20  8.87656102E-19  3.40647185E-19  1.35516652E-18
 -9.32932017E-06 -1.29412113E-15  8.99454436E-16 -3.61043273E-05  5.07197730E-16
  2.52475123E-06  1.99799329E-16 -7.33624368E-05 -1.29556503E-15 -1.80838407E-05
 -1.01206382E-04  2.45383017E-15 -3.96657309E-05  2.08224408E-15  6.36957842E-16
  2.26093025E-05 -1.94142731E-05  1.23157368E-15  3.03362701E-05 -1.60918838E-15
  1.10087716E-18 -9.51559187E-20 -4.31366257E-19  1.31434419E-18 -7.21702111E-19
 -4.15507396E-16  3.48521960E-05 -2.44679915E-05 -1.31866208E-15 -1.16486740E-05
 -1.50044140E-16 -8.07698911E-06 -2.38345110E-15  3.55340578E-05 -7.56379770E-16
 -3.45754063E-15 -6.67528466E-05 -1.57546527E-15 -5.76495169E-05 -1.91157492E-05
  6.04695090E-16 -1.03466968E-15 -4.61592251E-05  1.16726792E-15  4.39086547E-05
 -3.92187623E-20 -9.57423522E-20  5.74356165E-19 -3.76942685E-19 -1.43514454E-18
  1.49664548E-05  3.71643399E-16  1.14380123E-15 -1.46933781E-05 -8.06003165E-15
  5.44616818E-05 -7.06108149E-15 -6.63136013E-05 -6.44116540E-15  4.77717218E-05
 -6.50383918E-05 -8.52586995E-15  4.11634929E-05  6.47004842E-15 -1.13277858E-14
  2.34738557E-05  4.37804327E-05 -4.41160579E-15 -1.09922064E-04 -1.13601100E-14
  3.94315651E-19 -1.81500788E-19  4.79537585E-20  1.81285520E-19  2.96353374E-19
 -1.91303622E-15  2.31967154E-06  9.59429988E-06  1.84100240E-15 -6.46179347E-05
 -6.90061512E-15 -5.55670050E-05  8.35705519E-15 -5.15753230E-05 -5.95499980E-15
  8.15790485E-15 -6.69333371E-05 -5.17587857E-15  5.26780999E-05 -8.96323292E-05
 -3.02607127E-15 -5.64560699E-15 -3.29045049E-05  1.36019929E-14 -9.14566971E-05
  8.85479523E-19 -1.46156471E-20  4.38724282E-19  1.25600247E-19 -9.41774316E-19
  5.95978768E-15  9.97365663E-06 -5.28934898E-05 -8.29905102E-15  7.11422727E-05
  1.53670522E-14  3.31929561E-06  1.01563081E-14 -1.04939374E-04 -9.46625172E-15
 -3.07922393E-15  2.09004207E-05  7.43723191E-15  2.66164217E-06  1.75731767E-05
  4.76418286E-15  1.07796568E-14 -7.56271533E-05  7.51317421E-15 -4.44761181E-07
 -6.40096887E-19  9.65611311E-20 -9.03798927E-20 -1.52118690E-18  3.01459727E-18
 -3.38611514E-05  1.75220889E-15 -9.34703358E-15  4.68671072E-05  1.24796004E-14
 -8.76309934E-05  6.18561470E-16 -5.75895442E-05 -1.84905455E-14  5.36050391E-05
  1.73453938E-05  3.68484922E-15 -4.22786375E-05  4.74369228E-16  3.09266074E-15
 -2.70355636E-05 -6.12906077E-05 -1.33258353E-14 -4.24512090E-05 -6.17890010E-17
  5.81876494E-18  1.74119965E-17 -1.43963016E-17  8.51187899E-18 -1.14574135E-16
 -6.47943993E-16  2.33529937E-03  1.65087881E-03  2.67240710E-16  5.53991048E-03
 -2.46916395E-15  3.75363101E-03  1.17139514E-17  5.67688108E-03 -8.20948875E-16
  4.59857409E-17 -8.27747327E-04 -4.02672774E-16 -1.57879085E-03  3.52006538E-03
 -2.29164091E-16 -1.23024962E-16  8.52171720E-04  2.51691795E-15  4.87453513E-03
  5.94820090E-17 -6.14202938E-19  2.15852757E-17  8.59077508E-18 -5.20220843E-16
  5.23421436E-03  3.74071173E-16  1.32050604E-17  5.24934663E-04  2.40019085E-16
  4.10647190E-04  1.13381948E-16  9.67618852E-03 -8.32663920E-16 -1.80442887E-03
  4.38429457E-03 -8.74909911E-16  1.84368721E-03 -3.22873213E-16  1.80516772E-16
  1.09471730E-03  2.96637207E-03 -2.89018240E-16  2.41242780E-03 -9.75714213E-16
 -1.00924189E-17  9.26297033E-18 -7.34749078E-18  2.91808012E-18 -2.01301075E-17
 -2.03858439E-16 -4.47867421E-04 -4.71270708E-03 -2.49416156E-15  5.69942409E-03
 -4.47040947E-15  8.67782019E-04 -6.29751031E-16 -5.67109414E-03 -3.13259778E-16
 -8.96955799E-16  3.52352924E-04  1.97380711E-16  1.88207720E-03  2.14330831E-03
  1.74404725E-17 -5.35947772E-17 -5.23732474E-03  1.74311345E-15  1.90819154E-03
  1.73101571E-17  9.09432486E-18 -7.99482446E-18 -5.21435654E-19 -2.47959441E-16
  2.19549827E-03  4.18247962E-16 -1.54887789E-16  4.01965137E-05  4.72918172E-15
  4.63593008E-03 -1.59620107E-15  1.40952261E-03 -2.14321017E-16  7.61832220E-03
  2.87155172E-04  2.02387590E-16  6.98335452E-04 -6.34081715E-16 -1.40245578E-16
 -9.41428099E-04 -1.22399561E-04 -6.06565992E-16 -3.01693259E-03  1.71827373E-15
 -3.42269882E-17 -2.04667284E-17  6.16182006E-18  1.30344167E-17  7.50872889E-17
 -1.89529254E-04  1.06115674E-15  2.18003445E-15 -5.18137767E-03  8.61657273E-15
  1.09286931E-02 -5.00570928E-15 -4.64582799E-03 -1.12364388E-17 -2.00613275E-03
 -9.93986442E-03  1.64962545E-15  2.72909447E-03 -1.55809270E-15  1.75815778E-16
  1.33721711E-03  3.44004685E-03  1.09104717E-16  1.47058109E-03 -1.11797202E-15
  2.52051675E-17 -8.81947794E-18  2.49126854E-17 -1.65983052E-17  1.83070818E-16
  8.94526095E-16 -6.12489967E-03  3.26475173E-03  1.41345077E-15 -3.23174862E-03
  3.16559056E-15 -3.09425784E-04 -4.06797598E-16  3.90318515E-03  1.20857218E-15
  3.37308990E-16  4.56464054E-03  1.49947160E-15  8.79912117E-03  9.55854620E-04
  1.13384528E-15  1.06670119E-15  4.79842232E-03 -5.75471190E-16 -7.11775204E-05
  1.82346624E-18 -1.22824169E-17  1.02140370E-17 -6.71013676E-18 -2.47955388E-17
 -5.38421118E-16  2.54475143E-03 -1.61802975E-03  1.09798694E-16 -1.11313146E-02
  8.20573395E-15 -2.30036582E-03 -2.58874367E-16  3.85218133E-03  5.53232803E-16
 -1.66979703E-15 -9.19488528E-03  9.35992975E-16  1.09486769E-03 -8.97780977E-03
 -1.58202454E-16 -5.94034924E-16 -4.29656457E-03 -2.85392533E-16 -1.70342304E-03
  2.27076634E-17 -1.81609536E-17 -1.24521188E-17  3.51282179E-18 -2.17595220E-16
  2.79869796E-03  6.64648990E-16  2.97053678E-15 -7.96451937E-03  5.07400410E-15
  7.33867282E-03 -3.24275054E-15  7.67399695E-03 -2.27130056E-15 -7.23757222E-03
  4.77990897E-03 -5.99946063E-16  3.35185043E-04  1.48130291E-15 -3.34791902E-16
 -1.01638872E-03 -1.72404524E-03  5.12326890E-16  9.19542209E-04 -7.69568636E-16
 -1.80267847E-17 -3.04414580E-18  1.72246802E-17 -2.54183071E-17 -1.36545998E-16
 -3.80516403E-16  4.72206430E-03 -4.67023180E-03 -1.67799068E-15  6.05192817E-03
 -8.17539337E-15 -4.77845043E-03 -3.23631705E-16 -9.08006806E-03  1.28134827E-15
 -6.40798395E-16 -6.59427993E-04  1.47500727E-15  6.19079672E-03 -3.39577995E-03
  8.60026741E-16  7.96259452E-16  2.64254157E-03 -4.13159903E-15 -7.08526967E-03
  7.98676169E-17 -1.19161295E-17  2.15146605E-17  1.37494853E-19  1.83697857E-16
  1.14280853E-15 -4.87537245E-03  5.88683107E-03  2.50224030E-15 -1.37868693E-03
 -8.73326859E-16 -5.63456405E-03  1.97874369E-16  5.05548578E-03 -3.58176961E-16
  3.20373778E-16 -2.86366663E-03 -5.27792422E-16 -1.89090001E-03  5.59244511E-03
 -1.07078281E-15 -1.16641956E-16 -4.00837252E-03 -2.69597916E-15 -5.49182891E-03
 -2.16591374E-17 -2.90809380E-17 -1.78565927E-16  7.47459911E-17 -6.91469221E-16
  5.53714373E-03  1.43310016E-16 -5.42849928E-15  1.18145903E-02  9.57961777E-15
  1.01554831E-02 -5.61435965E-15 -9.98485955E-04 -5.22810519E-16 -2.57293960E-03
 -1.12229702E-03  2.18970304E-16  1.01948450E-03 -1.84056331E-16 -8.46239829E-16
 -4.68235017E-03  2.17688966E-03 -7.80998869E-16 -9.76795025E-03  5.47882651E-15
  2.51373941E-17  1.30673117E-17  3.25144360E-17 -4.37588886E-17  5.17745149E-16
 -8.53794923E-03  5.13979332E-16 -1.80561902E-17 -1.80592911E-04 -3.22883457E-15
 -3.39082155E-03  1.85232596E-15 -9.85995147E-03  1.37589828E-15  1.19580856E-03
 -1.22360654E-02  2.73411239E-15  2.84879931E-03 -9.67622000E-16  5.63995577E-16
  6.85378417E-03 -1.51778878E-04 -5.47713359E-16  6.92892869E-04 -8.69851938E-16
  6.27144693E-17  3.21007308E-17  5.87514085E-17 -7.79048856E-17  2.59426794E-16
 -2.27624042E-03 -2.91712839E-16  3.31224303E-15 -7.47295515E-03  1.05611050E-14
  1.12308553E-02 -5.69231298E-15 -3.49795763E-03 -4.15044120E-16  6.62648836E-03
 -1.76047467E-03 -4.21442340E-16  4.13969315E-03 -3.18336167E-15 -6.06289392E-16
  1.02551877E-02 -2.36910130E-03 -5.45417715E-16 -1.34466300E-02  7.30077117E-15
  2.66561534E-16 -3.88308324E-17  7.71272741E-17  9.89448745E-17  6.24813652E-16
  1.31873272E-15 -1.17781443E-02 -6.46276852E-05 -3.78333184E-16  5.94046004E-03
 -1.11375832E-14 -9.78907618E-03 -1.08699434E-15 -1.98050840E-03 -1.64641372E-15
 -1.90508963E-15 -9.29241427E-03 -8.68284879E-16 -4.66301862E-03 -2.56079171E-03
 -6.73036464E-16 -4.50037576E-16  8.66197888E-03  2.19622247E-15  8.21892733E-04
  1.79102988E-16  1.65883497E-17  4.43348322E-17 -6.58325790E-17  8.56074107E-17
  5.17290176E-04  1.06906578E-15  4.20956948E-15 -1.01833979E-02  3.18153468E-15
  4.74883626E-03 -2.08214412E-15 -1.01282277E-03 -5.78394844E-16 -2.68851732E-03
  9.32234758E-04 -7.67028568E-16 -4.68430160E-03  9.32029696E-16 -2.79143425E-17
  3.25498171E-03 -5.74582304E-03  3.85488516E-16  1.60527315E-03 -1.19000255E-15
 -3.14413156E-16  1.80433669E-17  3.69620718E-16 -1.78767225E-16  1.34673861E-15
 -7.48675110E-04 -1.64005909E-15  1.45539964E-15 -4.13047623E-03  1.52862676E-15
  2.71362660E-03 -1.01525663E-15  3.29339820E-03  1.29299301E-16  1.38439266E-02
 -1.72383006E-05 -7.30443819E-16  9.67859374E-03 -4.08404859E-15  7.53713050E-16
  6.98831453E-04  1.58012682E-02 -1.87594152E-15 -5.23779361E-03  2.89789644E-15
  2.34951575E-16  3.78599934E-17  1.08057567E-16 -1.15526612E-16 -8.71017996E-17
  1.64352874E-15 -1.03282383E-02 -4.82692861E-03 -6.28720075E-16 -1.25921621E-02
  8.38794036E-15 -4.59259566E-03 -1.11682999E-15 -2.09973815E-03  3.06770431E-16
 -3.54608834E-15 -1.15719560E-02 -2.82344345E-16 -7.17835698E-05  9.33378400E-03
 -8.55948936E-16 -1.88494021E-15 -6.45405655E-03 -1.17988465E-15 -2.63256719E-03
 -9.56190757E-16 -1.66418608E-15  4.03567000E-03  1.68256371E-15  3.27946359E-02
  2.41074075E-15  9.78919645E-16 -3.03145006E-16  4.75084454E-16 -1.34325907E-16
 -1.72061919E-16 -1.24318021E-17 -3.33733976E-16 -2.31753651E-19 -5.13982916E-16
 -1.29774304E-16 -2.61808820E-16 -3.79372043E-16 -1.89259205E-17  4.77529626E-17
 -8.14944982E-18 -6.68545170E-16 -1.61023278E-16  2.61251069E-16 -2.50037891E-17
  2.55186604E-16  1.02792788E-16  2.68002358E-16 -3.47709919E-16 -6.91285810E-16
  5.92161798E-03  3.49165619E-16  2.42259339E-15 -7.82847147E-03  1.26489829E-15
  4.01038812E-03 -8.93448290E-16 -1.22247568E-03 -1.90764752E-15  2.43821220E-03
  2.22989871E-02 -3.65331488E-15 -2.42666241E-03  6.20640534E-16 -1.95410106E-16
  4.14165812E-03  5.17046087E-04 -8.00908214E-16  3.74128455E-03 -2.34848917E-15
 -2.88888942E-16  2.97951250E-17 -2.11951428E-16 -2.73801454E-16 -1.02940185E-15
 -3.63332590E-15  2.21982244E-02 -1.43579111E-02 -6.29948085E-15  2.54110679E-03
 -6.18468055E-15 -9.03073639E-03  7.37582777E-16  8.70618166E-03 -1.12438663E-15
 -1.74514283E-15 -1.89182817E-02 -2.22103251E-17 -8.68271152E-03 -1.41135068E-02
 -1.11561346E-15 -1.05078145E-15 -5.10676827E-03  6.95297717E-16  4.07871081E-05
  4.98791937E-16  1.59456405E-16  4.24099850E-17 -6.92303425E-16 -1.98260301E-16
  1.69860532E-16 -3.90516663E-04  5.17002257E-03  1.40733410E-15  5.21826492E-03
 -1.50759005E-15  4.31768709E-03 -5.10887727E-16 -1.89163213E-03  2.21194969E-16
  1.64291908E-15 -4.09992550E-04 -4.78569629E-16 -1.09923893E-03  1.01463535E-02
 -6.10553556E-18  7.16939894E-16  7.20889473E-03  3.09886410E-15  6.89250737E-03
  2.70212545E-02  1.18340527E-02 -4.18291039E-15 -5.94365824E-02  1.71626068E-15
  5.54788179E-17 -4.94059125E-18  1.32383081E-16  1.01842719E-16 -6.08195502E-17
 -1.15075390E-16  4.68623588E-17  7.24643928E-17  8.11478016E-17 -6.59905962E-17
 -1.48683523E-16  1.61035621E-16 -4.62890502E-17  9.61954112E-18 -1.39998123E-16
 -8.09460172E-17 -3.80801338E-17 -1.93399101E-17  9.81022124E-18 -7.26452627E-17
  3.09340318E-14  4.43757081E-15  8.74777222E-02 -3.08610368E-15  3.58775465E-03
  1.31767621E-16  1.60287233E-16 -7.88250713E-18  6.74968702E-17  5.14576071E-17
 -1.36869569E-16 -2.33668846E-17 -4.04485080E-17 -3.44334955E-17 -6.76093523E-17
 -1.63599093E-16  3.97710811E-18 -2.29272111E-17 -3.13374393E-17 -8.03750025E-17
 -1.20400260E-16 -1.04146240E-16  8.94625342E-18  3.79611624E-17 -6.06218413E-18
  5.31547536E-02  9.04197197E-02  2.50361818E-15  9.37584848E-03 -2.54064824E-16
  6.01047377E-17  1.98206589E-16  7.56144825E-17  1.23313141E-16 -1.85823601E-17
 -1.34546342E-16  6.79577517E-17  6.49767851E-17 -2.96919873E-18 -6.38351758E-17
 -1.06248389E-16  3.62373182E-17 -3.07956648E-17 -1.11862258E-17 -3.31899871E-17
 -3.20789002E-17 -2.59275919E-17  3.82986311E-17  5.58546437E-17 -3.13351682E-17
  6.83720571E-01  6.62255923E-03  1.56012222E-14  2.16802783E-02 -5.37289343E-16
  1.51222883E-16 -3.89531596E-17  3.37164546E-17 -7.31082044E-18 -4.99452822E-17
  6.25901616E-18  1.11660041E-16  8.25195483E-17  8.83363928E-17  5.24191907E-17
  7.88091571E-17  5.88996077E-18  1.01581139E-17 -2.19991491E-17 -4.91253724E-17
 -2.53987719E-17 -5.83905960E-19 -8.39893494E-18 -2.37371344E-17 -9.00136207E-18
  3.06620747E-19  2.00505646E-20  2.24427261E-19  1.47835784E-20  2.41351941E-19
  1.67764277E-15 -2.50043754E-05 -3.46632476E-05  1.14718295E-17 -5.36967720E-06
 -7.40665001E-16  1.35179033E-05  4.36355338E-16  6.38541546E-06  3.77891658E-16
 -2.19595761E-15  9.82597050E-07 -9.33570283E-17  6.77662378E-06 -3.70598811E-06
  1.85007563E-15 -7.19112044E-16 -1.05820964E-06 -7.35870776E-17  4.25422220E-05
 -3.21979433E-19 -2.96003929E-20 -3.30762425E-19  4.86756081E-19  2.58308901E-18
 -2.95864099E-05 -1.42235970E-15 -1.95975231E-15 -4.38488535E-07 -2.87964363E-16
  1.33723043E-05  7.60839861E-16 -7.51919985E-06  3.56531586E-16 -6.62657466E-06
  3.89040597E-05  5.14009156E-17  1.76532176E-06  4.07277168E-16 -2.03149333E-16
 -3.27553657E-05  1.27066384E-05 -6.71017100E-17  1.91522402E-06  2.41775821E-15
 -1.52110736E-19  6.74166534E-21  1.67134366E-19 -4.61262052E-19 -8.79670053E-19
  4.39573138E-14  2.73356057E-05  3.01425917E-05  8.85886608E-15  2.48205418E-05
 -3.59328473E-14 -2.47649104E-06  2.20198346E-14 -1.06149706E-05  1.54867059E-14
  8.62426914E-15  4.55130352E-06 -2.18461087E-14 -9.91577534E-06  4.12141277E-05
  2.71366406E-14 -6.65878056E-14 -4.98672276E-05 -4.01426137E-14 -1.83742101E-05
  3.41302416E-20  9.68716044E-20  6.50120597E-19  2.85250826E-20 -2.91846315E-18
  3.45893024E-05 -3.47478645E-14 -3.83578257E-14  6.96633002E-06 -3.15761215E-14
 -2.82697462E-05  3.19674994E-15  1.73004807E-05  1.35369595E-14  1.21506772E-05
  6.79081137E-06 -5.73324397E-15 -1.72034772E-05  1.24292669E-14 -5.23440923E-14
  2.13809354E-05 -5.23128892E-05  6.33937677E-14 -3.16986378E-05  2.33732618E-14
 -4.07930849E-19 -1.17707888E-20 -2.07636427E-19  1.85073620E-20  1.16044206E-19
  2.15712109E-17  5.29083110E-07  1.38555577E-05 -2.03967356E-16  4.83100803E-06
  1.88779865E-16 -7.43756543E-06 -1.32357017E-16 -1.22999612E-05  4.94016574E-16
 -4.57238363E-16 -8.59430710E-06  7.93352995E-17  4.99406521E-05 -5.55326562E-06
 -2.60910637E-16 -1.25061585E-15  3.01314351E-06  1.18739039E-15  7.14483054E-07
 -3.43369065E-19  1.37543088E-19 -4.38443059E-19  2.66318240E-19 -2.33348702E-19
  3.03313199E-06  7.11328295E-17  5.72086141E-16  6.48611920E-06  2.51041470E-16
 -8.23978195E-06 -2.42731217E-16  5.01120288E-06 -4.67000810E-16 -1.27259025E-05
  1.27146805E-05 -2.13229932E-16 -3.59749556E-06  1.70799140E-15 -3.06194922E-17
  1.01383065E-05  3.08540822E-05 -5.61887148E-18 -3.72682703E-05 -1.02037117E-17
 -1.75226964E-19 -3.08246803E-20 -8.48277177E-20 -4.79234410E-20 -1.72551789E-19
 -2.45335916E-16  8.21386301E-06  4.74886378E-07 -9.19464851E-16 -6.89247870E-06
  4.85042331E-16 -8.36897443E-06 -3.03851723E-15 -3.20726804E-07 -7.10944728E-16
 -2.45826537E-15 -2.91690935E-05 -5.96272142E-16  1.08411872E-05 -1.74437763E-05
  1.01263890E-15  1.37275496E-15 -1.49496260E-05 -2.41508690E-15  5.82907105E-07
  2.34373810E-20  7.63054873E-20 -2.86862377E-19 -1.25477020E-19  2.93974809E-19
 -2.24447912E-06 -9.93219702E-16 -3.08549830E-17 -7.51774344E-06  9.09310703E-16
  4.24107050E-06  1.05896136E-15 -2.44210298E-05  3.66996014E-17 -5.52097317E-06
 -1.98953405E-05  3.68833707E-15 -4.55430929E-06 -1.42883793E-15  2.27028483E-15
  7.74907339E-06  1.07139889E-05  1.78929029E-15 -1.82788650E-05 -7.50198221E-17
  1.83764651E-19 -6.19349383E-20 -1.06804522E-18  1.78157862E-19 -5.02076669E-19
  7.62777683E-07 -9.23370381E-16  2.07781405E-16  5.16029186E-06 -1.50350773E-15
 -8.26683072E-06  1.70925571E-16  5.60214619E-07  8.05911212E-16  6.79713034E-06
 -3.57502380E-06  2.20003152E-16  2.50532502E-06  7.64011970E-16  1.53635586E-15
 -2.77753062E-06  1.08923311E-05 -1.77882005E-15  5.90032347E-06 -4.00246571E-16
  1.73796286E-19 -9.32484641E-20 -3.01990418E-19  8.20099475E-19 -3.70113931E-19
  1.30491034E-16  5.22032627E-06 -1.16544337E-06  9.07068118E-16  8.49859007E-06
 -1.45782004E-15 -9.27595979E-07  1.07496211E-16 -4.52368029E-06  1.19197048E-15
 -6.16850543E-16 -1.20460176E-06  4.45818884E-16 -4.36055854E-06 -8.64236318E-06
 -4.94465953E-16  1.93025009E-15  1.00875707E-05  1.04411921E-15  2.27366296E-06
 -8.77798036E-18 -2.03068151E-18  8.04502981E-18  9.41412785E-18  4.33637806E-17
 -5.73464244E-04 -3.14907704E-16 -1.20912145E-16 -9.49734518E-05 -3.84844847E-16
  1.17866326E-04 -3.39730986E-16 -1.31441007E-05 -5.44829271E-16 -2.04771940E-04
  5.31569459E-04  1.10133794E-16 -2.13913281E-05  2.23204895E-16 -2.31816279E-16
 -2.62072871E-04  1.72699742E-04 -2.18214723E-17  5.27632505E-05 -4.12907941E-16
 -8.09607326E-18  1.37053212E-17 -9.81200964E-18 -5.13069439E-18 -2.15347845E-17
 -6.05060662E-16  2.97044289E-04  4.69670873E-04  1.69192766E-16  2.88824297E-04
 -1.91548785E-16  3.36793219E-05 -8.56290149E-16  6.93907869E-04  1.14842290E-17
 -3.33353401E-16 -4.59542865E-04 -1.60638855E-16  7.80394119E-05  9.01490839E-05
 -1.21630183E-16 -3.02177214E-16  4.11346478E-04  7.03000606E-17  4.77658347E-04
 -1.96004700E-17  1.53393250E-18 -8.55972713E-18 -1.24052708E-17  1.45827928E-16
 -1.67151027E-03 -1.44364102E-16  3.93277581E-16  1.35191239E-04 -5.29155198E-16
 -2.08382611E-04 -1.31520809E-16 -1.11156024E-03  5.15987037E-16 -1.17270728E-04
  1.93209064E-04 -3.24068772E-18 -4.97819490E-04  7.18885549E-18 -2.36636941E-16
 -5.66419783E-04 -6.85340143E-04  5.20491331E-16 -4.04171066E-04  3.42103767E-18
 -4.24118924E-17  5.19931249E-18 -4.49782637E-18  1.56969924E-17  2.47655339E-17
  3.83989351E-17 -7.53384969E-04  4.02849813E-04  3.96155812E-17  1.81700914E-04
 -3.56452386E-16  4.48399710E-04 -4.13806276E-16 -5.16273763E-04 -6.10595669E-16
 -8.73158857E-17  5.24704501E-04 -1.02868675E-16  1.75852748E-04  2.16959321E-04
  1.07379416E-16  3.80270797E-17  1.70615731E-05  2.36803143E-16  4.64801116E-05
  2.16276688E-17 -2.38204275E-17 -1.48311726E-17 -1.34044545E-17 -1.73095267E-17
 -6.16900828E-17  1.11785236E-03  1.58553044E-03  1.21706788E-15 -6.71425659E-04
 -2.50032398E-16 -1.89830413E-04  4.23487068E-16  6.52261730E-04  2.32266579E-16
  9.22436472E-16 -1.02628645E-04 -2.96894903E-16 -8.91978286E-04 -3.49942276E-04
 -1.24626745E-16 -2.60687381E-16  1.00867075E-03 -7.16758455E-16 -6.68999622E-04
 -2.15624348E-17  4.59158042E-18 -4.27118397E-17 -9.22479646E-19  3.25901587E-17
 -2.19296735E-04  6.73680786E-16 -3.15734645E-16  2.96965581E-04  1.13748659E-15
  8.64689230E-04 -3.76641602E-16  3.99261409E-05 -1.12311942E-16 -8.50297047E-04
 -7.92452017E-04 -2.41145497E-16  5.71008475E-04 -1.05615809E-15  4.28179427E-17
  6.00253578E-04  1.02978417E-03 -4.96583765E-16  8.44833557E-05 -3.21771839E-17
  3.51199114E-17 -5.78417709E-18 -7.10269994E-18 -8.09130450E-18 -6.42519181E-17
  3.22794683E-04  5.81963531E-17  1.85537784E-16  1.11302828E-04  1.47451239E-15
  9.81835693E-04 -5.17834375E-16  3.46950194E-04 -4.04851704E-16  7.61314065E-05
 -1.23955584E-03  8.66915613E-16 -2.65435221E-05 -1.86896726E-16  6.82338560E-16
  5.53430435E-05 -1.14724736E-04  3.70791408E-16  4.91982556E-04 -2.51002104E-16
  2.17932940E-17  1.04184425E-17 -5.34715346E-18  4.10776499E-17  2.24091337E-17
  1.49581644E-16 -1.07823456E-03 -4.47776961E-04  4.64081318E-16 -1.37870230E-03
  6.24007104E-16  4.92121826E-04 -4.49490915E-16  1.10542270E-03  4.82841182E-16
 -6.08333204E-16 -2.60943315E-04  8.80204831E-17  5.61916611E-04 -3.44553307E-04
  2.31426312E-16  1.57799552E-16  6.93425104E-04  4.25798109E-17  3.12762547E-04
  5.14395092E-18  1.29689621E-17  1.62983742E-17 -5.28127352E-17  6.40655192E-17
 -1.80908651E-04 -1.40276164E-16 -3.48871428E-16  6.89842988E-04 -1.49632165E-15
 -1.45423416E-03  8.30741335E-16 -3.93810529E-04  9.77240371E-16  3.46900593E-04
 -1.47534547E-03  1.60499649E-16 -1.07267587E-06 -6.92980481E-16  3.53348221E-16
  9.16739344E-04 -4.36729154E-04 -2.97360865E-16 -3.97479881E-04  7.73072562E-16
 -5.58461675E-17 -8.87664390E-18 -7.23822605E-18 -3.00179715E-17  1.63895276E-16
 -1.43522843E-03  2.40303878E-16  3.32889549E-17 -1.72020856E-03  6.22492174E-16
  8.58595320E-04 -7.83141089E-17 -5.83077975E-04 -4.04990244E-16 -1.22910542E-04
  4.20389685E-04  3.33607742E-16  7.72040712E-05  2.43318300E-16 -5.57172098E-16
  4.29130766E-04 -5.65334999E-04  3.59078342E-16  6.64432340E-06  4.68211720E-16
 -3.62969737E-17  1.23243709E-17 -4.37199036E-17  1.00796009E-16 -6.33313262E-17
 -4.34888697E-16  1.48592383E-03 -1.48703777E-04 -9.04268921E-16  3.05104549E-05
 -5.53612835E-16  6.16299189E-04 -1.97016333E-17  2.81137524E-04  1.87958733E-16
 -4.72045612E-17  9.63640922E-04  1.00765839E-17  6.65352636E-04 -5.57616748E-04
  6.19169972E-16 -1.46792114E-16 -1.15418605E-03  1.01144839E-15 -6.55809696E-06
  5.33636786E-17  4.16184934E-18  6.01479834E-17 -1.35569213E-16 -3.93440812E-17
  4.10244515E-16  1.30828355E-03  7.03262964E-04  5.47133215E-16  1.00613992E-03
 -1.05298075E-15 -6.58915902E-04  6.74924487E-16 -2.61717266E-04 -2.42296348E-16
  9.07082793E-16 -7.93023556E-04  2.63519812E-16  9.83687065E-04 -1.49997204E-04
 -4.99312357E-16 -5.62252587E-17  2.28249526E-04 -8.86132621E-16 -1.02469279E-03
 -2.09763799E-16  1.78436429E-19  4.95424798E-17 -3.39936375E-17  9.78268353E-17
  1.49231375E-16 -1.49824258E-03 -3.42494965E-04  6.59989241E-17 -5.44489536E-04
 -5.81057707E-16 -1.33476063E-03 -1.11588320E-16  1.18150321E-04 -9.32473652E-17
 -3.68683767E-16 -2.54999705E-04 -8.65400067E-17  1.12282152E-04  1.27936057E-03
 -7.20038833E-16  4.75153132E-16 -1.16693105E-03  1.12124113E-15 -4.01411136E-04
  2.33119459E-17  9.04735496E-18  1.64070497E-16 -1.00963814E-17 -5.17295614E-17
  3.91693164E-04  1.09279659E-15  4.27849670E-16 -7.96291302E-04  2.27858445E-16
  6.59557275E-04  6.38105415E-16  3.56713972E-04 -1.35484545E-17  1.46233883E-03
  1.54329140E-04  6.56030846E-16  9.84792347E-04 -2.13833262E-16  1.17567244E-16
  1.18984859E-03  1.87199258E-03 -6.75293466E-16  1.25338724E-03 -7.64291004E-16
  7.30381071E-17 -5.61193244E-17  9.40537040E-18 -3.49599321E-17  9.40527649E-17
  1.79025739E-17 -2.00918799E-03  9.87924771E-04  1.11580941E-15 -7.83669321E-04
  5.55035890E-16 -1.16127642E-04 -3.87038913E-17 -2.81192870E-04  3.95785095E-16
  2.60593963E-16 -2.15670379E-04  5.47577632E-16  1.18625794E-04  8.19843153E-04
 -5.49071554E-16  5.26195375E-16 -5.96475657E-04 -1.03781023E-16 -1.20365307E-05
 -2.20266529E-16  2.52147769E-18 -6.63626999E-17  2.71927152E-16 -1.41625907E-17
 -1.13119401E-16  1.36804595E-03 -4.38579051E-04 -2.51705618E-16 -1.56732475E-04
 -2.87944435E-16 -4.77875876E-04 -5.16793654E-16  1.00866496E-03 -1.07990438E-15
 -3.31699153E-16 -1.67916367E-03 -8.11449334E-16 -7.40433332E-04 -1.26523508E-03
  1.11918298E-16 -1.43360511E-15  2.11757662E-03  3.46203789E-16  3.11136168E-04
 -1.86791459E-16 -2.88865897E-18  1.82811253E-16 -3.01759181E-16 -3.49531695E-17
  5.72195837E-04  6.03505436E-16  9.60253209E-16 -1.50283538E-03  4.02831773E-16
 -3.31713683E-04  5.20765856E-16 -5.69339385E-05 -1.19194662E-16 -1.20470251E-04
  1.04374199E-03  5.71708477E-16 -6.91435596E-04  3.18724291E-16 -7.24218505E-16
  1.20461171E-03 -1.66605199E-03  2.94736630E-16 -8.39152081E-04  4.86295079E-16
  1.15860607E-04  2.23659073E-05 -6.08604270E-16  7.98167101E-03 -2.87400342E-15
 -1.48290690E-17 -2.74851571E-17  2.52301222E-17  7.92681856E-18  3.00174548E-17
 -1.65702162E-17  4.12174537E-18 -1.71845748E-17 -6.45076863E-17 -1.37041696E-17
 -1.74808101E-18  5.91313794E-17 -9.36510110E-18  4.74389366E-17  4.06202786E-17
  1.11740843E-17 -2.12038963E-17 -8.42519090E-17 -2.38069734E-17 -2.62979368E-17
 -6.97236503E-16  9.29570488E-18  2.16170695E-16 -1.97943071E-16  9.99697293E-18
 -3.97734155E-16  8.30278242E-04  1.28260672E-03  9.31482738E-16 -8.50874267E-05
 -2.71199840E-16  6.43786744E-04  1.14898216E-16  4.93127263E-05 -3.72859010E-16
 -1.59302364E-15 -3.70285881E-04 -4.05840876E-16 -8.88493034E-04  1.41876618E-03
 -1.84382518E-16 -2.72746992E-16 -7.75312831E-05 -2.26311329E-16  1.28869435E-05
  4.64722049E-17 -4.71671162E-17 -2.85566325E-17 -4.93062202E-17 -2.76063455E-17
  8.98204239E-05 -1.57725387E-15  9.03243157E-16  1.55402189E-03 -7.05581351E-16
 -7.42252211E-04  5.72452220E-16  9.03275441E-05 -8.94273965E-16 -3.25443945E-04
 -4.89621364E-04  1.47186461E-15  9.01976493E-04  9.06346741E-16  9.49658626E-16
  8.25395675E-05  1.44961681E-03  3.78088805E-16  2.38373904E-05 -3.65267310E-16
 -8.25150957E-16 -6.12920106E-18 -4.48069433E-17 -1.06297077E-16 -1.67005316E-16
  2.57133964E-03  5.01740300E-16 -7.61653859E-17  1.31090449E-03  1.26360347E-16
 -9.43404779E-06 -5.61835249E-17  9.44000320E-04 -2.79214100E-18  6.68623130E-04
  4.37223804E-04  1.14052587E-16  1.01343959E-04 -3.55819220E-17 -2.05545077E-16
  3.39767816E-04  2.24966563E-04 -3.92329342E-16  4.69447320E-04 -7.24787214E-16
 -3.12173021E-15  1.48640759E-15 -2.85853583E-02  6.18772469E-15  1.25490941E-02
  9.39237350E-16  3.33237736E-16 -2.91560454E-17  5.97952031E-17  2.19994865E-17
  2.24311080E-17  1.49361950E-17 -1.05560428E-17  9.70461121E-18  1.16094643E-17
 -1.25947655E-17  1.66709612E-17  6.22907074E-18  1.60633072E-17 -2.38575161E-18
 -3.03639914E-18  3.67224310E-18 -1.39486676E-17 -2.76844927E-18 -4.01021010E-18
  5.38236982E-01  3.07284151E-03 -1.26292430E-14 -5.09010305E-02 -1.80452229E-16
  5.96096092E-17 -3.62216009E-17  8.12248987E-18 -1.47387933E-17  6.90477852E-18
 -8.00665319E-18  1.09359947E-17  3.45896352E-17 -1.36035472E-17 -1.81181937E-20
  6.79291117E-18  2.29941081E-17 -8.92807380E-18 -6.51783666E-18 -1.41292177E-17
 -1.74769507E-17 -1.31597030E-17  4.33331879E-19 -3.55037575E-18 -4.79498862E-18
  2.20144618E-14 -2.84888699E-15 -1.95723100E-03  2.14175273E-17 -7.23200531E-04
 -5.21581305E-17 -2.85092608E-17  1.96323859E-18 -1.14770045E-17 -6.64982810E-18
 -3.52999742E-18  9.93639240E-18 -1.79476298E-17 -1.27305317E-17 -1.07427976E-17
 -8.66974258E-18  4.68827471E-18  3.94340691E-18 -1.47134601E-18 -9.25855575E-18
 -8.51860218E-18  6.22316109E-20  5.39869200E-18  4.99774137E-18  4.20426848E-18
 -3.34609276E-14  2.06585586E-14  4.54442577E-01 -1.01628706E-15  3.97039516E-03
  2.82867441E-16  1.12925983E-16  6.20107821E-17  4.53614506E-17  3.97833338E-17
  3.39507102E-18  2.97183965E-17  1.19079104E-18 -1.44804424E-17  2.55971370E-17
  1.15512645E-17  8.82384710E-18 -1.64708741E-17 -8.21323453E-18  2.59242506E-17
 -1.09021794E-17 -9.26857924E-18 -1.97227956E-17  3.86578599E-18  5.26180627E-18
 -5.28355764E-19 -6.46563636E-19 -2.89644244E-19  9.81466797E-19 -2.28069755E-18
  3.49705315E-06 -2.53156733E-15  3.04737337E-15  8.44342152E-06  1.40633001E-15
  7.02813820E-05  1.55736481E-15  2.34899408E-05 -3.06593668E-15  1.03593452E-04
  2.08125720E-05  8.42369957E-15  5.50498928E-05  5.02699507E-15  4.61835521E-15
 -3.66254813E-06  6.36590418E-05  7.33191644E-15 -1.87839966E-04 -1.03097103E-15
 -5.44225936E-19  4.64061739E-19 -1.63993737E-19  8.87034878E-19 -1.55938036E-18
  1.83791926E-16  4.44813773E-05 -5.37525594E-05  4.88010688E-16 -2.31367985E-05
  4.00642467E-15 -2.77485213E-05  1.38990306E-15  5.41722240E-05  5.89690062E-15
  1.21577569E-15 -1.47710437E-04  3.12947543E-15 -8.89088955E-05 -8.08834768E-05
 -2.17598367E-16  3.62661955E-15 -1.29319495E-04 -1.06858936E-14  2.02370986E-05
 -1.79960727E-19 -2.34231811E-19  1.27779975E-18 -2.22821198E-19  6.96203564E-20
  2.13190830E-06  1.38436648E-14 -1.54297148E-14  1.47903310E-05 -2.08682668E-14
  1.55561992E-05  1.06039742E-14 -1.29942137E-05 -5.30220682E-15  8.70515401E-07
  9.53471927E-06 -2.06005741E-14  3.00743805E-06  1.21930166E-15  7.41354617E-15
  1.42854698E-05  1.32262320E-05  2.09289348E-14  8.16714650E-06  9.87503598E-16
 -2.54407237E-19 -1.07966009E-20 -2.62341194E-20 -1.36665752E-18  4.66041993E-19
 -2.73359620E-15  1.08685517E-05 -1.20576560E-05 -1.88895659E-14 -1.66132579E-05
 -1.99257859E-14  8.16147229E-06  1.63739003E-14 -4.37907271E-06 -1.33215727E-15
 -1.22363314E-14 -1.62539075E-05 -3.89152997E-15  1.17331302E-06  5.66792412E-06
 -1.81948830E-14 -1.70436009E-14  1.64633104E-05 -9.95430161E-15  5.96396465E-07
  1.20519698E-19  5.88752997E-19  2.20894616E-19 -2.39979914E-19 -2.10547567E-18
 -1.17860708E-07  7.86650916E-16 -1.41962443E-15  4.21117792E-05  1.54381464E-15
  4.30154269E-05  2.42909437E-15  7.45948266E-05  3.01493005E-15  6.51501692E-05
  6.48595378E-05 -1.67856438E-15  2.49411505E-05 -4.23942070E-15  8.26120919E-16
  6.97048954E-06  7.15380900E-05 -1.39223450E-15 -1.28237315E-04  2.42031448E-15
 -7.74871660E-19 -1.30032418E-18  2.25675514E-19 -5.54313627E-19  1.39692340E-18
 -4.74166184E-17 -2.17680538E-05  3.93119605E-05  1.66204684E-15 -4.52299859E-05
  1.45247970E-15 -6.87411861E-05  2.84167551E-15 -8.71369074E-05  2.24142567E-15
  2.55189829E-15  4.55775161E-05  9.04211496E-16  1.20282941E-04 -2.36810003E-05
  2.70203437E-16  2.54301623E-15  4.07596509E-05 -4.44263997E-15 -6.73008738E-05
 -4.63612440E-19 -4.54787897E-19  6.70778813E-20  8.49440664E-19 -1.95222661E-18
  2.20743392E-05  1.67012753E-15 -6.40920572E-16 -4.63462190E-05 -6.91400360E-15
  4.58088789E-05 -2.67803754E-15 -9.88478789E-05 -1.28352490E-15  3.26242146E-05
 -9.13472943E-05 -1.24293856E-14  3.36376540E-06 -4.81952045E-15 -9.45280208E-15
  1.30123671E-05  1.32520091E-05 -7.70178861E-15 -4.14218930E-05 -2.92318380E-15
 -2.14427401E-19  8.94092329E-20  1.15573757E-19 -5.74570107E-19 -1.34284112E-19
 -2.77108860E-15  1.34429878E-05 -5.86503391E-06  5.82557128E-15 -5.42104048E-05
 -5.70609231E-15 -1.97802261E-05  1.23501240E-14 -8.55206173E-06 -4.11657649E-15
  1.14384254E-14 -9.95823452E-05 -4.19333429E-16 -4.06202669E-05 -7.46061898E-05
 -1.62799082E-15 -1.68506168E-15 -6.19991441E-05  5.24982739E-15 -2.20893905E-05
 -2.89575363E-19 -5.65974986E-19 -4.83511186E-20  2.05434496E-19 -6.55660231E-19
 -1.09469517E-15  1.01330391E-05  1.92655404E-06 -1.85783948E-15 -4.79739940E-06
 -7.52261054E-16  8.52296727E-06 -3.95656518E-16  3.23475612E-06  1.44231438E-15
  1.51611046E-15  1.07855910E-05  3.91336717E-16  3.01883564E-06 -1.22891187E-05
  2.41112276E-15 -2.77413434E-16 -3.43569681E-06  3.35522188E-16  3.01527652E-06
  4.20580261E-21 -5.72637681E-19  1.61601146E-19  8.22554905E-19 -1.08706586E-18
  6.17178932E-06  1.79182360E-15  3.30607529E-16  1.06505724E-05 -8.40842988E-16
  4.33892432E-06  1.49083458E-15  2.42880981E-06  5.74506203E-16 -8.11269905E-06
 -8.39832132E-06  1.89582995E-15 -2.15380487E-06  5.38812467E-16 -2.17225563E-15
 -1.36810406E-05  1.63320933E-06 -6.17951354E-16 -2.02809795E-06  5.34574344E-16
 -7.49386785E-17  2.57074214E-17 -6.66573692E-18  3.32787758E-17  1.31468901E-17
  2.91393485E-16 -1.69647822E-03  1.25185022E-03  3.71287583E-16  9.76515125E-04
 -8.14678873E-16 -3.29604834E-04 -1.21178551E-17 -1.52721971E-03  4.36610131E-16
  4.95964296E-16  4.53340351E-03  3.07964352E-16  2.75799250E-03  1.98751332E-03
  4.38957983E-16  4.48576362E-16  2.50355248E-03 -6.07530154E-16 -4.91344489E-04
 -1.50880193E-17 -4.90119091E-18  4.90484784E-17  7.15709386E-18  1.18867154E-16
 -1.07248007E-03 -3.62132111E-16  2.43398306E-16 -4.29822803E-04 -2.81605414E-15
 -2.98428633E-03  1.10350126E-15 -5.00075270E-04 -1.45838844E-16 -3.42193714E-03
 -3.67899221E-04  4.07798130E-17 -1.25012535E-03  7.15757645E-16  7.04838873E-17
 -1.45354972E-04 -1.12067031E-03  5.01318100E-16  2.70352983E-03 -1.57644052E-15
  1.18414447E-17 -1.05588682E-17  2.43392197E-18  7.09259230E-17  1.45670624E-17
  1.58905461E-17 -9.52393516E-04  7.59518544E-04  6.12099690E-16 -1.90708385E-04
  4.42532189E-16 -1.40748534E-04  4.03331797E-16 -1.05564916E-03  5.62939467E-16
  3.55073337E-16  1.60829710E-03  3.42196180E-16  1.20336615E-03  7.43276561E-04
  1.77002944E-16  2.76039656E-16  9.14197561E-04 -4.78362432E-16 -3.19826577E-04
 -1.76105442E-17 -1.86172463E-17 -1.04915478E-17  5.23915394E-17 -7.00516834E-16
  8.23821534E-03  2.00724285E-15  2.74906581E-15 -6.18302074E-03 -1.20017741E-15
 -1.22283864E-03  7.15533466E-16 -8.79768258E-03  6.50582860E-16 -7.18692603E-04
 -5.75589392E-03  8.07411446E-16 -7.74152895E-04  1.02614069E-16  1.21406754E-16
  7.33812589E-04 -9.39457456E-04  3.64256445E-16  1.15330805E-03 -7.68114752E-16
  3.26263275E-17  7.77138513E-18  1.91884849E-17 -1.57165804E-17 -2.73104993E-16
  3.04334733E-03  6.20341912E-16 -2.58428197E-16  5.36096651E-04  4.93938674E-15
  5.20023398E-03 -1.95024882E-15  7.97998641E-04  9.50092998E-17  6.76321442E-03
  2.45793754E-04  2.01268971E-16  3.29717265E-03 -1.40400944E-15 -1.15894449E-16
 -5.58799533E-05  1.55070358E-03 -8.59799376E-16 -4.52406822E-03  2.63881665E-15
 -3.08980341E-17 -3.77532827E-18 -1.48221349E-17  1.10242447E-17 -2.03009499E-16
 -7.23998310E-16  4.21078160E-03 -5.93349799E-03 -2.95887302E-15  6.37676001E-03
 -2.51442541E-15  4.96344144E-03  4.73163707E-16  7.61133944E-03 -7.85862289E-16
  1.21076416E-17 -2.29477315E-03 -3.14133348E-16 -2.85996600E-03  2.41312889E-03
 -5.37914356E-16 -4.00732750E-16 -1.46696338E-03  1.39981180E-15  2.53591391E-03
  5.38362796E-17  5.49251973E-17  3.86513221E-18 -1.41896137E-17  5.20033795E-18
  2.02359677E-16  2.02715466E-03  6.46656051E-04  1.02841653E-15 -9.97235020E-03
  2.61366306E-15 -1.18696501E-02  2.67477778E-16 -6.68712244E-03  1.84495043E-15
 -5.13132832E-17  4.21702298E-04  4.98718347E-16  1.52425808E-03 -3.04563446E-03
  1.20362303E-16  2.24268858E-17 -5.96122912E-04 -1.53316862E-15 -2.98500065E-03
 -6.35963510E-17  2.36586442E-17 -1.80795354E-17  5.50598156E-17 -4.59337779E-17
 -1.26640445E-04  8.25978951E-16 -1.21438774E-15  8.20913976E-04 -4.23863769E-15
 -5.25885810E-03  1.69038612E-15 -1.48455722E-03  8.78369165E-16 -5.62115974E-03
  1.40285260E-03 -8.92247912E-16 -3.10911541E-03  9.63012334E-16  1.71127918E-17
  8.48118222E-04 -1.42226447E-03  2.10864164E-16  2.67281016E-03 -1.31151855E-15
  5.59528983E-17 -2.21782015E-17 -8.76440195E-17 -1.33018163E-16 -4.29581070E-16
 -1.69358375E-15  1.32678396E-02 -1.23653152E-02 -5.75620565E-15  2.32499929E-03
 -4.64723590E-15 -7.52806114E-03  1.38788124E-15  1.05208830E-02 -9.73027694E-17
  3.01574201E-16 -4.01607569E-03 -2.76720663E-16 -2.84353328E-03 -8.70722484E-04
 -6.98158985E-16 -5.49310098E-16 -2.82284981E-03  1.31941727E-15  1.80539477E-03
 -1.53423731E-16 -3.30860602E-17 -2.29208616E-17  1.22467828E-16 -1.57253989E-16
 -6.02998668E-16  5.71591715E-03 -6.32259188E-03 -2.51420401E-15 -3.98157160E-03
 -9.24016507E-16 -7.27410853E-03  3.70670534E-16 -6.31639510E-04  1.53497384E-16
  4.64159757E-16  3.13810925E-03 -4.11574282E-16  1.55305487E-03  1.60176661E-03
  1.76028957E-16  2.14027247E-16  6.72894541E-04 -3.29042148E-16 -9.06316389E-04
 -1.92543328E-16 -9.09827347E-17 -5.16809737E-17  6.25479965E-18  7.31914910E-16
 -6.19501439E-03  1.00880290E-16  2.82642004E-15 -7.45957215E-03 -5.35047798E-15
 -4.96988332E-03  1.84699320E-15 -1.11047029E-02  8.77556404E-16 -6.39345630E-03
 -9.28823360E-03  9.78145652E-16 -2.15803501E-03  1.18828269E-16  1.90090125E-16
  1.44673212E-03 -9.53651579E-04  5.53934359E-16  2.15447070E-03 -1.38011851E-15
  2.56510044E-17  1.61015595E-16  2.55652764E-16 -3.33637806E-17 -3.44956040E-16
  2.99078960E-03 -2.15377764E-16 -3.34141418E-15  7.70209880E-03 -4.41918536E-15
 -6.10638405E-03  1.78761504E-15 -1.68895851E-03  3.78324573E-16 -5.50097164E-03
  3.64330839E-03  4.05356883E-16  1.44731519E-02 -2.07250062E-15  4.91589622E-16
  6.01221925E-04  1.13700724E-03 -9.21873194E-16 -5.43736263E-03  3.39007630E-15
 -6.07886381E-16  8.60700108E-18 -3.41618168E-17  1.42009050E-17  2.36725717E-16
 -5.39548205E-04  2.32727483E-15  1.33754741E-15 -4.84839341E-03  6.21975527E-15
  8.10817435E-03 -3.61207935E-15 -1.31430256E-02  1.36084253E-15  4.46869564E-03
 -2.01561515E-02  3.48374484E-15  2.83538854E-03 -2.83278973E-15  6.25160168E-16
  5.28956491E-03 -2.29783920E-03  5.26756547E-17 -1.54007761E-03  7.83648269E-16
 -1.93746339E-16  1.85450070E-17  9.96380282E-17 -1.02284867E-16 -4.82485313E-17
  2.83380547E-16  2.65905807E-03  9.66489398E-04  3.54348251E-15 -7.88222754E-03
  5.63871139E-15  2.16406252E-03  2.92759294E-15 -2.03324123E-03 -2.56735222E-16
  3.57003134E-15 -1.09754401E-03  8.47669392E-16 -3.18127737E-03 -4.90702121E-04
 -1.23441906E-15  6.41898401E-17 -1.36934015E-03 -1.54889499E-16  4.98147390E-04
 -7.94980646E-17  3.28751631E-16 -6.32249005E-17 -9.84297372E-18 -3.80515272E-16
  3.22363177E-03  6.98053650E-16  2.34425528E-16 -1.11598928E-03  5.01656720E-15
  6.49584517E-03 -2.40765571E-15  1.55139012E-03 -1.73036110E-15  2.38420299E-03
  1.94378344E-02 -2.03311992E-15  4.02758509E-03  1.45444321E-16 -5.81335848E-16
 -8.08799238E-03  3.43297428E-03 -7.48590539E-16 -2.89637574E-03  1.68698323E-15
 -3.59258430E-16 -3.65012718E-18  1.23643937E-16  1.24032970E-17  2.59970351E-16
 -2.63078530E-03  1.42269706E-15  1.92601753E-15 -5.20877585E-03 -6.47808040E-16
  8.22417545E-04 -9.84885153E-16 -1.88199618E-02  1.37686154E-15 -7.93596552E-03
 -1.28332792E-02  9.25399231E-16 -5.92318596E-03  5.06941541E-16 -1.99150561E-16
  2.37569935E-03 -2.06080375E-03  3.76416872E-16  2.81352474E-03 -1.92403779E-15
 -8.51907953E-16  3.60847777E-16  4.76969897E-16 -1.11836702E-16  2.46646998E-16
  6.06451181E-16 -2.29822965E-03  8.44590318E-03  4.55252389E-15 -2.79265154E-03
  2.84485989E-15 -5.14252220E-04  4.23374819E-16 -2.54931228E-04  1.83654108E-15
 -9.79591178E-16 -6.70194835E-03  2.76775374E-15  3.12300341E-03 -6.44718764E-03
  2.71081305E-16  9.93015862E-17 -2.26900827E-03 -2.39006138E-15 -3.75327994E-03
 -1.76181137E-15 -4.08225668E-15  3.31794775E-03  2.32436002E-16 -3.76465896E-03
 -1.77124551E-16 -1.93101639E-16  2.44487194E-16  2.36909938E-16 -3.99582891E-17
 -1.75725739E-16 -1.60180957E-16  8.48958836E-16 -1.33824749E-16  2.38336460E-16
  6.59010365E-16 -5.15445481E-17  3.83300232E-16  2.67069399E-16 -1.68648256E-16
 -1.79991167E-16  1.10805805E-16 -1.05258395E-17 -1.65380285E-16 -1.07480046E-16
 -2.77604958E-15  7.91874506E-16  1.19687777E-15  2.67555274E-16  4.99374712E-16
 -3.38809017E-03  5.40918924E-16  3.39157836E-15 -8.72299364E-03 -6.57611034E-15
 -5.68154259E-03  1.94713900E-15  5.24571422E-03 -2.07434019E-16 -8.69817577E-03
  6.25911285E-04 -3.00110362E-15 -1.37004866E-02  3.44111426E-15 -1.30128436E-15
 -2.95371485E-03 -8.85422646E-04  5.02481295E-16  5.34445977E-03 -3.33629829E-15
 -1.18802360E-15  5.08546003E-16 -7.10326209E-19  1.35001117E-16  2.15414506E-16
  9.34012227E-16 -3.42455178E-03  1.22527706E-02  4.81079105E-15 -1.17949273E-03
 -3.37700473E-15 -9.62983200E-03 -7.57126585E-16 -1.63198523E-02  3.19591340E-15
 -6.67034356E-16  3.36617477E-03  4.79950403E-15  2.42780529E-02 -7.22871888E-03
  2.74411529E-15  2.19201192E-15  4.82400798E-03 -1.01181139E-14 -1.74129637E-02
 -7.36270779E-15  1.86308891E-15  6.07493406E-16  6.67643920E-16  5.61159240E-16
  2.29488974E-15 -1.88683307E-02  7.09726983E-03  9.83694100E-16  7.40173566E-03
 -2.38947908E-15  8.65721925E-03 -4.92732342E-16 -3.40580679E-03 -1.05546410E-15
  2.56290858E-15  1.95522505E-02 -2.47704223E-15  9.31374533E-04  8.70873493E-03
  5.64192079E-16  9.23281362E-16  5.44370690E-03  1.72740595E-15  3.73056460E-03
  1.36389730E-02  2.62892054E-01 -4.74395505E-15  5.91199265E-03 -3.50089280E-16
  3.80323765E-17  2.50649221E-16 -1.96445590E-16  8.74984334E-17 -7.85316909E-17
  3.97789760E-17 -2.83393043E-17 -1.76657313E-17  1.10138036E-16  6.88992338E-17
  2.65809549E-17 -2.77283143E-16  1.06092433E-16 -1.72887704E-16 -7.10151214E-17
  6.78689624E-18  3.39968934E-17 -7.76651339E-17 -5.63564570E-17  6.14365570E-17
 -2.22281547E-14  3.73988068E-14 -3.55322691E-02 -3.14629797E-15  2.86984638E-03
  6.06483189E-16  2.15061717E-16  6.00587867E-18  1.82029528E-16  2.50777580E-18
 -7.98707505E-18 -3.08491389E-18  1.34666624E-16 -7.00834404E-18  9.98080631E-17
  2.01221431E-16 -3.42731890E-17  1.68795998E-16 -3.72895236E-17  1.39540412E-17
 -5.59556220E-18  5.33344991E-17 -2.39397160E-18 -3.80361748E-17  5.46989729E-18
  4.18476461E-01 -3.49741827E-02  4.05281189E-14  1.76188707E-01 -2.45436059E-16
  6.98212283E-17  1.19859825E-16 -3.30243105E-17 -1.33488647E-17  2.80175729E-17
  2.16305436E-17  1.43968824E-17  1.98891933E-16  1.62567605E-16  1.03321852E-16
  3.80841816E-17  1.03559798E-17  3.49887529E-18 -1.05171161E-16 -4.60131927E-18
 -2.75944922E-18 -6.12287971E-18 -4.54756874E-17 -4.13798348E-17  5.59155171E-18
 -3.45414187E-02  4.61555322E-01 -2.06424226E-14  4.94482900E-03  1.26012794E-16
 -4.08305439E-18  2.05156181E-16  1.52439328E-16  7.74037110E-17  1.27446069E-16
 -1.04302985E-16  7.15932532E-17  7.11084130E-17  4.95029116E-17 -2.01441481E-17
  1.81339682E-17 -1.15135352E-17 -2.85478213E-18 -2.32709842E-17  3.34749246E-17
  1.72185894E-17  4.97092508E-18 -7.98554342E-18 -3.99649434E-19  2.06952480E-17
 -3.84051572E-19 -3.72209960E-19 -2.16050224E-19  5.56907538E-19  2.83686896E-19
  2.76415867E-16 -1.08900615E-05  2.32337079E-06  3.38313200E-17  5.03535321E-06
  5.45300113E-16  8.28385381E-06  1.11181271E-16 -5.91583688E-06  9.68600863E-16
 -4.65484737E-16  2.45139128E-05  4.66762049E-16  1.44101069E-05  1.49712541E-05
  4.00308314E-16  5.39118699E-16  1.97284554E-05 -1.78433796E-15  8.00766708E-06
 -2.74228865E-20  2.33579842E-19  2.90923298E-19  3.26173533E-20 -2.36823679E-19
 -4.82701155E-06 -6.21831677E-16  1.22001169E-16 -5.86343583E-07  2.69055525E-16
 -9.38301176E-06  4.73361110E-16 -1.99852280E-06 -3.36837530E-16 -1.66953735E-05
  8.24504141E-06  1.38688493E-15 -8.06521173E-06  8.04955142E-16  8.42775999E-16
 -7.11545694E-06 -9.54675788E-06  1.11407794E-15  3.12342761E-05  4.28577695E-16
  7.07115257E-20 -3.75377693E-20 -1.87747369E-19 -1.02984064E-19  1.20553246E-19
  1.46143780E-15 -7.21815999E-07  3.00855326E-06 -3.04242315E-15  1.15966860E-07
  2.77510906E-15 -1.02160940E-06  4.73497427E-15  3.90837466E-06  1.68256033E-15
 -2.95960173E-15 -1.64326090E-06  5.44542394E-15 -1.46653249E-06 -4.19259973E-06
  2.60181262E-16  1.03405079E-14  1.11738433E-05  1.00971939E-14  1.54246366E-06
 -9.22466834E-20 -6.01408732E-20  1.19780259E-19  7.68805002E-20 -1.26926006E-19
  1.13636401E-06  9.23162733E-16 -3.81021181E-15 -2.38788751E-06 -1.46740347E-16
  2.17342772E-06  1.29027051E-15  3.73473955E-06 -4.97641016E-15  1.30217942E-06
 -2.31167747E-06  2.07690889E-15  4.29234718E-06  1.87796153E-15  5.32849163E-15
  2.02627888E-07  8.14385166E-06 -1.42102593E-14  7.95204477E-06 -1.94211102E-15
  1.85816337E-19 -1.71742625E-19  3.98833345E-20 -1.08520059E-19  1.34068444E-19
  7.19404945E-17 -5.12872059E-06 -5.54269025E-06 -5.93136619E-17 -4.37221177E-06
 -2.66389083E-16  2.75726063E-06 -9.26344505E-17 -7.31561015E-07 -3.86778974E-16
 -1.40539783E-16  9.14786516E-06 -4.40958825E-16 -1.31552119E-05  2.30565033E-07
  2.61989133E-16  3.83896702E-16  2.98300940E-06 -2.20698894E-16 -1.27452788E-05
  2.48266384E-20  4.97382533E-19  1.58249787E-19 -1.14006390E-19 -1.96625229E-19
 -2.01577842E-06 -2.09854171E-16 -2.01006137E-16  1.58858584E-06 -1.92612352E-16
  7.67775200E-06  8.56695502E-17  3.16376463E-06 -4.52829548E-17  1.07497462E-05
  3.98761205E-06  3.56647810E-16  1.26674469E-05 -5.38552040E-16 -1.58636475E-17
 -7.11400544E-06 -9.48509026E-06  1.41589701E-16  5.88595560E-06 -5.06193074E-16
  3.95438597E-20  7.76376957E-19  1.70605804E-20  2.84793731E-20 -6.24050551E-19
 -7.92760180E-16  9.36804589E-06  5.97256816E-06  4.38659159E-16  1.63900485E-05
 -2.57756699E-15  3.64522512E-07  3.05542543E-17  8.82336776E-06 -4.02473587E-15
  7.69580182E-16 -1.25676343E-05 -2.02159624E-15  2.96892661E-05  4.33278671E-06
  1.29383833E-15  2.28296783E-15 -1.58225302E-07 -1.17325019E-15  2.01312628E-05
 -2.82883610E-19 -5.40799066E-19 -2.74211412E-20  1.00187990E-19  1.03289753E-18
 -6.26871690E-06 -1.17769927E-15 -7.39169557E-16  3.51174967E-06 -2.07685197E-15
 -2.05875466E-05 -4.21273485E-17  2.18997192E-07 -1.10274319E-15 -3.22004203E-05
  6.12903238E-06  1.56125344E-15 -1.63976914E-05 -3.70818851E-15 -5.54645531E-16
  1.03887755E-05  1.82033632E-05  4.00815852E-17 -9.60173102E-06 -2.50578266E-15
  3.14393036E-19 -9.29369763E-21 -2.28689537E-19  2.45708077E-19 -1.13127606E-19
  2.67045252E-06  1.20518785E-16 -8.08573290E-16 -4.91324263E-06  5.53244717E-16
  5.52698136E-06  4.68729191E-16  5.77021974E-06 -1.52220628E-15 -1.62498180E-07
 -2.56351877E-06  1.00603453E-15  6.79228186E-06  5.62889898E-16  8.59496687E-16
  4.07214878E-06  1.29931770E-05 -2.61326283E-15  8.29764906E-06 -1.33695542E-16
  1.77464386E-19  5.98031570E-19 -6.42776426E-19  3.94003975E-20  1.23390171E-19
  4.70025139E-16 -7.03483605E-07  4.58318528E-06 -8.62818020E-16 -3.12805301E-06
  9.77379291E-16 -2.65666633E-06  1.01552244E-15  8.59444239E-06 -2.37501578E-17
 -4.50459629E-16 -5.64680411E-06  1.19906005E-15 -3.24073946E-06 -4.86454913E-06
  7.11776226E-16  2.28127887E-15  1.48313704E-05  1.46956724E-15  7.09913165E-07
 -3.77415910E-18 -2.35970515E-17 -5.40661437E-18  4.36170154E-18 -3.30220985E-17
  3.94878840E-05 -1.53530182E-16  1.66518871E-17  1.58225259E-04  1.21112838E-15
  1.34956948E-03 -6.20921482E-16 -1.16983378E-04 -1.02428320E-16  1.66455229E-03
 -2.36238818E-04  5.99927212E-16  8.11757978E-04 -2.14951143E-16  1.42589557E-16
 -3.00553506E-04 -4.47058005E-04  2.38719277E-16 -2.80569257E-04  2.20741361E-17
 -3.38220378E-17  7.41755759E-18 -1.49514255E-18  2.74716267E-17  5.66470509E-18
  2.18842607E-16 -9.70134737E-05 -3.47634437E-04 -2.83143963E-16 -2.76447614E-04
  1.51114689E-16  2.51350606E-04  8.95657949E-17 -7.26838839E-04 -2.93489105E-16
 -1.66326684E-16 -3.77084831E-04  1.68327713E-18 -1.61078564E-04 -1.54194583E-04
  6.95285553E-18  1.52213033E-17 -7.54869808E-04  3.54794130E-16 -1.19801641E-04
 -1.21112481E-17 -1.70787686E-17 -6.60806231E-18 -1.34894330E-18 -3.33943089E-17
  3.68464454E-04 -1.44379284E-16 -1.42735119E-16 -3.04835976E-04  1.00018290E-15
  1.18983987E-03 -5.00782827E-16  7.67762003E-04 -5.33422345E-16  6.12677363E-04
 -3.20823686E-04  4.87754240E-16  1.04269183E-03 -2.88003248E-16  1.84150867E-16
 -6.67161617E-05  3.47597522E-04 -1.64086492E-16  4.55551140E-04 -3.63685993E-16
 -1.20033824E-17 -2.31991953E-17 -1.15891443E-17  7.78381751E-18 -1.94500014E-17
  5.37454983E-16  7.83784416E-04  1.20442564E-04 -6.14881674E-16  2.08715645E-03
 -1.45050359E-15  1.12368488E-03 -7.62103442E-16  1.36906189E-03 -4.92006319E-16
 -5.85128482E-16 -1.07310836E-03  1.55585906E-16  1.50831471E-03  4.73680349E-04
  2.14372120E-16  1.07694550E-16 -9.13307323E-05  6.75486806E-16  1.26684189E-03
  4.67772823E-17 -2.58537235E-17 -1.93939595E-17 -3.86990669E-17 -9.43882894E-18
  1.85135309E-16  1.41040768E-04 -2.60075707E-04 -1.91818881E-16  1.38970319E-03
 -5.15422567E-16 -1.14239893E-05  2.86884702E-16 -5.79269707E-04  3.37022940E-16
 -5.14047743E-17  8.48667623E-04  4.12376985E-16  8.54895879E-04  9.57996635E-04
  1.74562377E-16  4.55168207E-16 -2.12754069E-04 -1.71643976E-16  2.21336020E-04
  2.09160120E-17 -7.03958057E-18 -2.33740415E-17  7.07268064E-18 -2.90052492E-17
  8.60057191E-04  3.20876175E-16 -5.07794631E-17 -1.14917268E-03  8.41447746E-16
  8.04485632E-04  2.83962058E-16 -1.41942195E-03  9.49104109E-16  2.01967896E-03
 -1.17092324E-03  1.61390080E-16  2.75911166E-04 -5.55399365E-16  1.49680907E-16
 -5.35371468E-04 -8.02483401E-04  9.16674116E-17  3.73441059E-04 -1.12645077E-16
 -4.86528086E-18 -3.05240980E-17 -3.35908179E-17  6.83809556E-18  1.56458835E-16
 -1.22649411E-03 -2.79821388E-16 -6.71222621E-16  1.20739574E-03 -1.28379882E-15
 -2.34645976E-04 -9.14658188E-16  2.36823960E-03 -4.80826063E-16  1.32608600E-03
  1.25758698E-03  2.19553186E-16  1.78863653E-04 -3.19066121E-17 -2.82364727E-16
 -3.72769703E-04 -9.19149723E-04  1.29011510E-16  8.31983998E-04 -7.62359328E-16
 -8.09906274E-18  5.72204018E-18 -3.23334708E-17  1.61156219E-17 -1.79461968E-18
  5.92955390E-17  6.19274464E-04  1.02529802E-05 -4.74660320E-16  8.41447988E-04
 -7.74784649E-16 -3.94726161E-04 -2.32167349E-16 -4.35156953E-04 -7.69930785E-16
 -3.54880969E-18 -1.13310551E-03 -2.99954812E-16  1.45857359E-06 -9.80216285E-04
  4.18172782E-17 -2.42157779E-16 -2.02061647E-04  4.35329627E-16  2.60289455E-04
 -3.14092538E-18 -5.49859801E-17 -2.51746114E-17 -4.23927496E-18 -1.47735330E-17
  1.09917386E-03  1.56406899E-15 -3.09386317E-16 -1.74547930E-03  1.63040847E-15
  1.74431675E-03 -1.47054360E-15 -1.02809780E-04  4.42910911E-16  6.83169111E-04
 -1.27758611E-04 -2.86925960E-16 -1.84427347E-03 -1.42180538E-16 -9.52844590E-17
 -4.09271901E-04 -6.86527130E-04 -6.37362078E-18  9.06461508E-04 -4.14319926E-16
 -1.43970677E-17  6.60128285E-17 -1.52550194E-17 -1.78211459E-17  1.41511124E-17
  3.51968133E-05  3.85159290E-16 -2.55791882E-17  1.07985609E-04 -1.69768273E-15
 -1.45647878E-03 -4.26243376E-16  7.16123920E-04 -1.96284085E-17 -1.15267611E-03
  7.79912578E-05 -3.33962595E-16 -2.18889114E-03  8.22917779E-16  4.42855720E-16
 -1.59535915E-04  1.95967503E-03 -2.28127055E-16 -2.38936159E-04  2.26216306E-16
  6.42576170E-17  2.29324082E-16  3.57024979E-17  3.56106942E-17 -1.87497493E-17
 -1.68061101E-16 -1.28457893E-03 -1.76391692E-03 -8.80307812E-16 -6.07739823E-04
  1.05322393E-15  7.78729386E-04 -9.24496474E-16  5.00606296E-04 -6.86790076E-16
 -7.28111544E-16  2.87470489E-04 -5.97009010E-16 -3.51092736E-03  6.30057043E-04
 -7.65944611E-16 -8.38222145E-16  6.50143791E-04 -1.08810718E-16 -4.38990755E-04
  1.47714094E-17 -8.20787342E-17  2.19903547E-17 -1.29234936E-16  8.24366069E-17
  2.69398069E-16 -1.00761605E-03  1.85396030E-03  1.22761090E-15 -1.13830491E-03
  6.25299758E-16  7.59970205E-04 -8.52051722E-16 -6.76889906E-04 -4.28315722E-16
 -1.72830652E-16 -8.33216063E-04  1.06882760E-15 -3.56163200E-04 -4.24664441E-04
  2.66896383E-16  3.30495781E-16 -6.76351365E-04 -7.05767509E-17  5.08621425E-04
 -4.88575502E-17  1.17829877E-16  1.72931363E-17 -1.17989717E-17  3.36135373E-17
 -2.24474618E-16 -3.86365727E-04 -4.07056318E-04 -9.53829476E-16  1.28118513E-03
  5.25840109E-16  1.63200012E-03 -7.69928018E-16  6.69151795E-04  1.91564435E-16
 -1.18271932E-15  1.93677699E-03 -5.47526320E-16 -2.08238717E-03  5.57859366E-04
  5.68428121E-16 -9.35953800E-16  1.09100115E-03  4.53739993E-16  1.55748466E-03
 -4.27095987E-17 -1.93023615E-16  2.05514920E-17  5.30477201E-18  1.42911268E-16
 -7.80141215E-04 -4.39918815E-16 -7.98953741E-17  9.94514240E-04 -4.90286002E-16
 -3.22784108E-05 -5.40662971E-16  6.47713603E-04 -4.25124656E-16 -1.20855652E-04
 -1.84761984E-04 -6.58205760E-16  4.49162099E-04  3.67157004E-17 -2.34712439E-16
 -9.75723363E-04 -2.17633943E-03  4.46653738E-16 -2.95229600E-04 -3.70480862E-17
  6.27194422E-17 -1.26976822E-16  7.02230505E-17 -3.45838980E-17 -5.35704536E-17
  5.46859463E-16 -3.67696509E-05 -2.50597060E-03 -1.28444648E-15  3.13739477E-04
  5.23076424E-16 -1.01799389E-04  3.44509581E-16  9.91002153E-05  4.55814737E-16
  2.14852372E-15  1.71991746E-03  7.82789388E-16 -1.19665995E-03 -1.12685931E-03
 -6.52540464E-16 -3.10620763E-16  9.92532793E-04 -1.82990641E-15 -2.93608906E-03
 -1.24005536E-17 -3.44320126E-16  2.74913906E-17  1.07590364E-16 -3.46126553E-17
 -1.37947990E-16 -1.82221550E-03 -2.70054013E-03 -1.64444359E-15 -1.93374873E-04
  1.21497456E-15  1.84865408E-03 -1.21906509E-15  9.26029491E-04 -8.03293611E-17
 -6.93987877E-16  2.60706453E-03 -4.28580010E-16 -3.37526780E-03  1.34973811E-03
 -4.17757280E-16 -3.35815904E-16 -1.39445771E-03  7.02355748E-16 -5.95271019E-04
 -2.67763652E-16 -6.15365382E-18  5.57049771E-17 -1.38036218E-16  1.57110776E-16
 -8.70229958E-04 -1.01189615E-15  3.16177150E-17  1.49390664E-03 -6.60888976E-17
  2.27464379E-04 -1.27923508E-16  8.00834464E-04 -3.95803616E-17  1.14795875E-03
 -2.31848311E-04 -5.23552251E-16  1.91041894E-03 -2.67680599E-16  1.53059154E-17
 -1.26967371E-03 -4.58968455E-04 -7.57066950E-17  1.45528097E-03 -1.30194920E-15
 -1.18528551E-03 -1.76640000E-02  3.37736121E-15  2.57865553E-03 -6.68072971E-16
 -1.01229541E-17  7.71932209E-17  1.32100552E-16  1.44123610E-17 -1.23645439E-17
  2.27854572E-17 -8.24913720E-17  2.18246285E-17 -3.50772444E-17  2.44246779E-17
  1.67707157E-17 -1.32577364E-16  1.06972362E-17  1.71879526E-16 -7.18765759E-17
 -1.59445661E-17  7.10901401E-18  4.68358164E-17  1.05724754E-17  2.46085166E-17
 -6.69801745E-16  2.84993322E-16  4.11478460E-17 -1.45642056E-16  3.85771320E-17
 -3.48238758E-16  1.15994134E-03 -2.58038232E-03 -1.93128007E-15 -1.48151608E-04
 -3.80063058E-16 -6.46239102E-04  4.65933723E-16  4.53712147E-04 -2.98837634E-16
  5.70975492E-16 -4.93135847E-04 -6.83831532E-16  2.98659622E-04 -1.06648834E-03
 -1.71509769E-16 -2.53911935E-16 -3.34451236E-04  5.55303497E-16 -5.22506106E-04
  1.41374917E-16  4.79009573E-16  9.60781102E-17  1.94264933E-18 -5.63641105E-17
 -8.84546420E-04 -9.64540218E-18  8.11314571E-16 -2.61413716E-04  1.88335364E-17
  7.01651161E-05 -9.97531785E-16  1.79668177E-03 -1.49029389E-15 -1.02170918E-03
  3.45116986E-03 -9.14275672E-16 -2.01809040E-03  2.59075919E-15 -1.15789544E-15
 -6.02550850E-04  4.75627847E-04  2.24339690E-16 -8.31942124E-04 -7.10655968E-16
 -3.35687020E-16  8.07723224E-16  8.56432448E-17 -9.90577616E-17  8.61791164E-17
 -5.95173289E-04 -1.12757017E-15  5.58235800E-16  5.15781359E-05  7.05901971E-17
 -6.21848826E-04  5.97141358E-16 -1.91404518E-03 -3.57522060E-16 -2.17114549E-03
 -2.75511134E-04  8.74672027E-16 -1.02836570E-03  9.40999398E-16  6.04490590E-16
  1.22747021E-03  2.33170790E-03  1.49938864E-16 -2.84355788E-03  2.26915735E-15
  2.03988475E-15  2.31138438E-14 -1.23909462E-02 -3.12372455E-15 -2.58920201E-03
 -1.65673389E-16 -5.14380993E-17  3.85588005E-17 -1.98294580E-17 -1.69692365E-17
  2.66010319E-18  3.95865449E-18 -6.94167769E-18 -1.15429603E-17  1.67444201E-17
 -3.72940076E-17  1.47096421E-18  2.52351159E-17  9.17538945E-18  1.05527992E-17
  4.41006780E-19 -3.07770873E-17  6.71188391E-18  3.87128929E-17  2.29868136E-18
 -3.55848162E-02 -6.26303077E-01  1.47287706E-14  9.41586958E-03  1.71045338E-15
 -5.20172834E-18  4.03470301E-17  5.81270435E-17  3.98485448E-17  4.36678033E-18
 -1.00982157E-17 -1.74654522E-17 -8.93816292E-18  2.05924268E-19 -5.53976895E-18
 -1.06167938E-18 -9.80552834E-19 -3.38369405E-18  8.27785943E-18 -4.33552211E-18
  4.44012953E-18 -1.36115854E-17 -3.30327304E-18  8.39706011E-18 -1.61338270E-17
  2.76466386E-14 -5.03565077E-14 -3.20762613E-01  1.59158163E-14  2.58534351E-02
  1.89558912E-15  6.44734888E-16 -4.92543355E-17  1.29887644E-16  5.92135987E-17
  7.44420885E-17  3.12023666E-17  1.86236289E-17  5.45720936E-17  6.23815111E-17
 -4.15752456E-18  1.04316076E-17  2.05483809E-17  2.93203841E-17  2.58889733E-17
  8.14167459E-18 -9.89282762E-18  5.48028721E-18  3.71398791E-18  4.23487248E-18
  6.90161695E-15  3.11993218E-14  4.55226355E-02 -2.36883256E-15 -3.64853650E-03
 -1.60483220E-16 -4.73396547E-17  5.79468911E-18 -1.01146199E-17 -2.69874348E-18
 -3.09235373E-17  1.46639396E-17  4.30864960E-17 -5.16729002E-18  1.04323106E-17
  1.17313040E-17  5.99748701E-18 -7.93098060E-18  6.83875794E-18 -5.15203123E-18
  2.74360431E-18  4.24463531E-18 -2.61791234E-18  3.60883675E-19 -1.58438660E-18
Number of independent functions            I               60
Alpha MO coefficients                      R   N=        3600
  6.98966323E-01  3.18976919E-02 -1.38360414E-03 -2.79181589E-04 -1.65344969E-16
 -1.98015592E-02 -8.16077605E-03 -2.67804321E-03  3.56140886E-03 -3.24526444E-17
  1.83447142E-02  8.11473140E-03 -1.06022483E-03 -4.31958841E-03  2.28090740E-16
 -6.98966323E-01 -3.18976919E-02 -1.38360414E-03 -2.79181589E-04  5.35937754E-18
  1.98015592E-02  8.16077605E-03 -2.67804321E-03  3.56140886E-03 -6.67874751E-17
 -1.83447142E-02 -8.11473140E-03 -1.06022483E-03 -4.31958841E-03 -1.45384331E-16
  3.50465642E-04 -3.52620434E-04 -3.50465642E-04  3.52620434E-04  3.38384923E-02
  6.59031374E-03  3.79198412E-03  8.85350297E-04 -1.54800665E-16  3.60489490E-05
 -5.52188384E-04 -3.08236275E-04  5.95640924E-05 -1.14122196E-16 -3.77895490E-04
  3.08530545E-05  1.49015289E-04 -3.38384923E-02 -6.59031374E-03  3.79198412E-03
  8.85350298E-04  1.51856744E-17 -3.60489487E-05  5.52188384E-04 -3.08236275E-04
  5.95640924E-05 -1.00907437E-16  3.77895490E-04 -3.08530545E-05 -1.49015289E-04
 -6.98909772E-01 -3.16729423E-02  1.03555522E-03  2.06586865E-04  1.14573697E-16
  2.10744975E-02  7.29174153E-03  3.07552305E-03 -3.40398555E-03 -3.07297181E-17
  1.94416620E-02  7.20954580E-03 -1.50577006E-03 -4.33315828E-03 -9.30789340E-17
 -6.98909773E-01 -3.16729423E-02 -1.03555522E-03 -2.06586865E-04 -5.05918495E-17
  2.10744975E-02  7.29174153E-03 -3.07552305E-03  3.40398555E-03  1.10266414E-17
  1.94416620E-02  7.20954580E-03  1.50577006E-03  4.33315828E-03  2.23463168E-16
 -2.16146870E-04 -2.14894377E-04 -2.16146870E-04 -2.14894377E-04  3.44896238E-02
  6.68725653E-03  3.84141472E-03  8.96187510E-04  1.12749832E-16  2.15244466E-05
 -5.58748572E-04 -3.18095793E-04  6.27909215E-05  1.15437661E-16 -3.92204327E-04
  2.97124350E-05  1.36352028E-04  3.44896238E-02  6.68725653E-03 -3.84141472E-03
 -8.96187509E-04 -1.42876451E-16  2.15244462E-05 -5.58748572E-04  3.18095793E-04
 -6.27909215E-05  1.81000160E-16 -3.92204327E-04  2.97124350E-05  1.36352028E-04
  3.42359334E-02 -3.37606465E-03 -4.08323645E-03 -6.64701198E-04 -2.92075304E-16
 -1.40888125E-02 -8.73907015E-04  2.35907578E-05  2.09262726E-04  1.19034046E-16
  9.30016224E-03  6.60159035E-04  1.07839812E-04 -1.62168163E-04  2.96598861E-16
 -3.42359335E-02  3.37606466E-03 -4.08323646E-03 -6.64701199E-04 -2.34417489E-16
  1.40888126E-02  8.73907017E-04  2.35907576E-05  2.09262727E-04  2.32222197E-16
 -9.30016221E-03 -6.60159034E-04  1.07839813E-04 -1.62168162E-04  3.61182738E-17
  1.07100027E-04  3.49378121E-05 -1.07100027E-04 -3.49378119E-05 -6.99499203E-01
 -3.06123455E-02  1.34770791E-03 -1.04758742E-03 -4.30439092E-16  5.56940263E-03
  7.78972051E-03  3.22534002E-03 -3.35575772E-03  2.33977977E-16  6.36589998E-03
 -2.02767500E-04 -1.70778444E-04  6.99499201E-01  3.06123454E-02  1.34770791E-03
 -1.04758742E-03  1.73123007E-16 -5.56940262E-03 -7.78972049E-03  3.22534001E-03
 -3.35575771E-03  1.27187527E-16 -6.36589997E-03  2.02767500E-04  1.70778444E-04
 -3.46571358E-02  3.31389488E-03  4.04760705E-03  6.22127582E-04  1.18010983E-16
  2.02181259E-02  1.03381891E-03  4.92092244E-05 -2.80252097E-04 -9.40299358E-17
  9.52209686E-03  3.75563619E-04 -5.62701309E-05 -2.67004386E-04 -2.54134745E-16
 -3.46571357E-02  3.31389487E-03 -4.04760704E-03 -6.22127581E-04  1.83485564E-16
  2.02181259E-02  1.03381891E-03 -4.92092245E-05  2.80252097E-04  1.37589039E-17
  9.52209688E-03  3.75563621E-04  5.62701307E-05  2.67004386E-04 -1.70808174E-16
 -1.37566467E-04  6.48075170E-05 -1.37566466E-04  6.48075171E-05 -6.99326874E-01
 -3.05864165E-02  1.36041189E-03 -1.04561389E-03 -1.28184931E-16  5.55951514E-03
  7.78686362E-03  3.22217078E-03 -3.35538026E-03  1.35632752E-16  6.36244462E-03
 -2.03115964E-04 -1.72955457E-04 -6.99326876E-01 -3.05864165E-02 -1.36041189E-03
  1.04561389E-03 -2.16580876E-16  5.55951515E-03  7.78686364E-03 -3.22217079E-03
  3.35538026E-03  1.45602138E-17  6.36244463E-03 -2.03115965E-04 -1.72955457E-04
  2.64183548E-02 -7.76829484E-03  3.28674064E-03 -1.83294367E-03  1.15398963E-16
  6.66892292E-01  3.19492454E-02 -1.80667560E-03 -1.44273335E-03  1.74680042E-17
 -2.11145650E-01 -1.59620390E-02 -4.51931682E-03 -5.12862850E-04 -1.68065780E-17
 -2.64183548E-02  7.76829484E-03  3.28674064E-03 -1.83294367E-03  4.92638439E-17
 -6.66892292E-01 -3.19492454E-02 -1.80667560E-03 -1.44273335E-03 -2.90250984E-16
  2.11145650E-01  1.59620390E-02 -4.51931682E-03 -5.12862850E-04  8.48289424E-19
 -6.04315101E-03  2.08458647E-03  6.04315101E-03 -2.08458647E-03 -1.50557433E-02
 -8.10043061E-04  4.63057820E-05 -5.13535863E-05  9.37201270E-17  7.56195183E-04
  2.86854720E-04  1.39520313E-04 -6.42824770E-05  1.26281449E-17  1.93749513E-04
  2.49018466E-06 -1.00907134E-04  1.50557433E-02  8.10043061E-04  4.63057820E-05
 -5.13535863E-05  1.77877015E-16 -7.56195183E-04 -2.86854720E-04  1.39520313E-04
 -6.42824770E-05 -1.49475605E-16 -1.93749513E-04 -2.49018467E-06  1.00907134E-04
  1.44349972E-02 -3.33645791E-03  2.20934177E-03 -4.64551320E-03 -6.80369666E-17
  6.56833058E-01  3.15519363E-02 -1.85831782E-03 -1.16247278E-03  1.60647767E-16
 -2.41528654E-01 -1.70587594E-02 -4.34025177E-03 -4.55258205E-04  6.19368525E-17
  1.44349972E-02 -3.33645791E-03 -2.20934177E-03  4.64551320E-03 -7.51561224E-17
  6.56833058E-01  3.15519363E-02  1.85831782E-03  1.16247278E-03  3.24855790E-17
 -2.41528654E-01 -1.70587594E-02  4.34025177E-03  4.55258205E-04  4.29875247E-17
 -6.01142127E-03  2.26560435E-03 -6.01142127E-03  2.26560435E-03  1.50497919E-02
  6.53385990E-04 -9.04432531E-05 -3.81376982E-05  3.87991821E-17 -2.23101232E-04
 -1.84559641E-04 -1.03285775E-04  1.01288192E-04  3.78796238E-16 -1.63740188E-04
  2.34732360E-06 -1.10842212E-04  1.50497919E-02  6.53385990E-04  9.04432531E-05
  3.81376982E-05  2.91458356E-16 -2.23101233E-04 -1.84559641E-04  1.03285776E-04
 -1.01288192E-04 -7.39653406E-17 -1.63740188E-04  2.34732360E-06 -1.10842212E-04
  1.23353528E-02 -4.06321404E-03  5.19914730E-04  4.95301711E-03  1.23532020E-16
 -2.12690077E-01 -3.02268982E-03 -4.05761893E-03 -5.78907860E-04  3.69670166E-19
 -6.67505089E-01 -2.78795483E-02  4.69994671E-04  1.12489854E-03  4.51575274E-17
 -1.23353528E-02  4.06321404E-03  5.19914730E-04  4.95301711E-03 -2.39080896E-17
  2.12690077E-01  3.02268982E-03 -4.05761893E-03 -5.78907860E-04 -3.57829660E-17
  6.67505089E-01  2.78795483E-02  4.69994670E-04  1.12489854E-03 -9.11912382E-17
  1.73398838E-03  5.96717496E-03 -1.73398838E-03 -5.96717496E-03 -4.04021274E-03
 -2.64197181E-04 -9.91771584E-06  7.26572416E-06  2.17918912E-16  1.24965384E-03
  1.74489507E-04  1.09841393E-04  5.90227615E-05 -2.75601419E-17  6.77929464E-05
  2.23159060E-05 -2.34950836E-04  4.04021274E-03  2.64197181E-04 -9.91771588E-06
  7.26572417E-06  1.44917134E-18 -1.24965384E-03 -1.74489507E-04  1.09841393E-04
  5.90227615E-05 -7.05726816E-17 -6.77929463E-05 -2.23159060E-05  2.34950836E-04
 -2.75659615E-02  7.26074411E-03 -2.25668716E-03 -2.82433865E-03  1.29687813E-16
 -2.41573300E-01 -4.47397581E-03 -3.91131290E-03 -6.78826094E-04 -7.74930248E-17
 -6.57138625E-01 -2.69762283E-02  8.53907895E-04  8.53385727E-04 -2.01668580E-16
 -2.75659615E-02  7.26074411E-03  2.25668716E-03  2.82433865E-03  3.50082152E-17
 -2.41573300E-01 -4.47397581E-03  3.91131290E-03  6.78826094E-04 -1.03723287E-16
 -6.57138626E-01 -2.69762283E-02 -8.53907895E-04 -8.53385728E-04  4.25905744E-17
  2.15557053E-03  6.00822425E-03  2.15557053E-03  6.00822425E-03 -1.46578444E-02
 -6.65404468E-04  1.69824573E-04 -4.50627203E-05 -6.46229634E-17  1.66766102E-03
  3.66148503E-04  2.03196460E-04 -1.28363231E-05  7.54166124E-17  2.28571345E-04
  2.03888478E-05 -2.35416641E-04 -1.46578444E-02 -6.65404468E-04 -1.69824573E-04
  4.50627203E-05 -5.65764579E-17  1.66766102E-03  3.66148503E-04 -2.03196460E-04
  1.28363231E-05 -1.43479673E-16  2.28571345E-04  2.03888478E-05 -2.35416641E-04
 -3.75429084E-04 -1.96407885E-04 -4.45168466E-05 -4.38320169E-05  1.10014916E-16
 -6.44122711E-04  1.00314838E-04  2.02783498E-05 -3.42953390E-05 -6.30035888E-17
 -1.45134488E-03  3.35179657E-05 -1.50640654E-04  3.69873754E-06  2.90383936E-17
 -3.75429084E-04 -1.96407885E-04  4.45168466E-05  4.38320169E-05 -1.58733712E-16
 -6.44122711E-04  1.00314838E-04 -2.02783498E-05  3.42953390E-05 -1.33655843E-16
 -1.45134488E-03  3.35179657E-05  1.50640654E-04 -3.69873755E-06 -1.24257794E-17
  1.86699271E-05 -1.63351583E-04  1.86699271E-05 -1.63351583E-04 -6.42495051E-03
  7.25530466E-03 -3.20201289E-03  3.31715705E-03  9.27231359E-17 -7.00486480E-01
 -3.10936945E-02 -1.00803450E-03  1.02094503E-03  2.82166975E-16 -8.58833793E-05
  6.34173522E-03  6.36337548E-03 -6.42495051E-03  7.25530467E-03  3.20201290E-03
 -3.31715705E-03 -2.77210808E-16 -7.00486480E-01 -3.10936946E-02  1.00803450E-03
 -1.02094503E-03 -2.06185241E-16 -8.58833793E-05  6.34173522E-03  6.36337548E-03
  3.67168196E-04  1.97475597E-04  4.61798762E-05  4.55841469E-05 -4.69078017E-17
  2.36109598E-04 -1.57195257E-06 -1.03942107E-04  1.08246862E-05 -5.57705001E-17
 -1.38187409E-03  1.42689087E-05 -1.66263183E-04 -1.61157099E-06  9.52284187E-17
 -3.67168197E-04 -1.97475597E-04  4.61798763E-05  4.55841469E-05 -3.95425676E-16
 -2.36109598E-04  1.57195262E-06 -1.03942107E-04  1.08246862E-05 -1.77263597E-16
  1.38187409E-03 -1.42689087E-05 -1.66263183E-04 -1.61157099E-06 -1.01905872E-16
 -1.13935689E-05 -1.63450798E-04  1.13935689E-05  1.63450798E-04 -6.41919369E-03
  7.25549211E-03 -3.20263550E-03  3.31772828E-03  3.80920982E-16 -7.00486870E-01
 -3.10941244E-02 -1.00835670E-03  1.02108743E-03  8.84108764E-17 -8.63266409E-05
  6.34171361E-03  6.36326376E-03  6.41919368E-03 -7.25549211E-03 -3.20263550E-03
  3.31772827E-03 -2.89407612E-16  7.00486870E-01  3.10941244E-02 -1.00835670E-03
  1.02108743E-03  1.94303416E-16  8.63266409E-05 -6.34171361E-03 -6.36326376E-03
  1.08167328E-01 -2.71073535E-01  4.91973501E-02  1.06744058E-02  2.45314449E-17
  9.90830973E-02 -2.46949373E-01  1.38224052E-02  5.89865231E-02 -1.66594005E-17
  9.96183673E-02 -2.48119316E-01 -3.48734220E-02  4.89367161E-02  6.64826791E-17
  1.08167328E-01 -2.71073535E-01 -4.91973501E-02 -1.06744058E-02 -1.34748458E-16
  9.90830973E-02 -2.46949373E-01 -1.38224052E-02 -5.89865231E-02  1.74199262E-16
  9.96183673E-02 -2.48119316E-01  3.48734220E-02 -4.89367161E-02  1.77146196E-16
 -4.32521460E-02 -4.43955268E-02 -4.32521460E-02 -4.43955268E-02  4.36206100E-02
 -1.11965385E-01 -2.45911966E-02 -1.39279853E-02 -3.40380812E-16  2.29772566E-02
 -5.74195887E-02 -1.89142770E-02  1.17054393E-02  2.53983395E-16 -2.18868106E-02
 -9.33410066E-03 -1.36273048E-02  4.36206100E-02 -1.11965385E-01  2.45911966E-02
  1.39279853E-02  3.12828244E-17  2.29772566E-02 -5.74195887E-02  1.89142770E-02
 -1.17054393E-02  1.63356746E-16 -2.18868106E-02 -9.33410066E-03 -1.36273048E-02
 -1.01900643E-01  2.67310150E-01  2.61262865E-02 -3.97714782E-03 -9.99656237E-17
 -3.61468442E-02  9.40533511E-02  6.23445334E-02 -2.74722277E-02 -1.72671300E-17
  4.87804910E-02 -1.26878953E-01  4.57875957E-02  4.85842063E-02 -1.53770021E-16
  1.01900643E-01 -2.67310150E-01  2.61262865E-02 -3.97714782E-03  1.42174869E-17
  3.61468442E-02 -9.40533511E-02  6.23445334E-02 -2.74722277E-02  2.17630745E-16
 -4.87804910E-02  1.26878953E-01  4.57875957E-02  4.85842063E-02 -1.62375319E-16
  2.42095608E-02 -3.52695973E-02 -2.42095608E-02  3.52695973E-02  1.11272095E-01
 -2.89949227E-01 -1.81558403E-03 -4.17395096E-02 -1.11632121E-16  8.43637047E-02
 -2.16680525E-01 -5.06720652E-02  4.04957659E-02  1.99591408E-16 -6.45227402E-02
 -4.45149342E-02 -5.15515568E-02 -1.11272095E-01  2.89949227E-01 -1.81558403E-03
 -4.17395096E-02 -1.04217670E-16 -8.43637047E-02  2.16680525E-01 -5.06720652E-02
  4.04957659E-02 -4.61664452E-16  6.45227402E-02  4.45149342E-02  5.15515568E-02
 -3.60255696E-03  1.30376796E-02  9.08998815E-02  6.81505793E-03 -1.54630278E-16
  4.32797796E-02 -1.11928328E-01  3.21628597E-02  1.83491836E-02 -5.70757925E-17
  3.50741279E-02 -9.04903453E-02 -4.87466412E-02  1.66074253E-03  9.98969664E-17
 -3.60255696E-03  1.30376796E-02 -9.08998815E-02 -6.81505793E-03 -1.61554233E-17
  4.32797796E-02 -1.11928328E-01 -3.21628597E-02 -1.83491836E-02  2.87471918E-17
  3.50741279E-02 -9.04903453E-02  4.87466412E-02 -1.66074253E-03  3.14887788E-17
 -2.11668888E-02 -9.56803438E-03 -2.11668888E-02 -9.56803438E-03 -1.20322199E-01
  3.16253013E-01 -5.89143489E-02  5.48167236E-02 -9.81827640E-18 -1.20801951E-01
  3.15922856E-01  5.37050464E-02 -5.40717416E-02  1.17315575E-16  7.53972813E-02
  7.46185790E-02  7.57753679E-02 -1.20322199E-01  3.16253013E-01  5.89143489E-02
 -5.48167236E-02 -3.48299365E-16 -1.20801951E-01  3.15922856E-01 -5.37050464E-02
  5.40717416E-02 -5.81250529E-16  7.53972813E-02  7.46185790E-02  7.57753679E-02
 -1.91012162E-02  5.12546234E-02 -3.03766123E-02  1.30125287E-01 -1.92018583E-16
 -1.35698501E-01  3.62763302E-01 -5.05995988E-02 -5.82352253E-03  3.00314803E-16
 -1.16832153E-01  3.11921171E-01  6.80821436E-02  3.66014040E-02  2.43388582E-16
  1.91012162E-02 -5.12546234E-02 -3.03766123E-02  1.30125287E-01 -6.16376616E-16
  1.35698501E-01 -3.62763302E-01 -5.05995988E-02 -5.82352253E-03 -1.80762755E-16
  1.16832153E-01 -3.11921171E-01  6.80821436E-02  3.66014040E-02 -1.13908317E-16
  9.77657684E-02  8.56258757E-02 -9.77657684E-02 -8.56258757E-02  2.98214819E-03
 -9.52413274E-03 -1.79219111E-02  2.16214049E-02 -1.63563710E-16 -1.25723184E-02
  3.25240626E-02  5.83168721E-03  3.04446451E-03 -1.44244873E-16 -1.13519379E-02
  7.39913363E-03  1.48048540E-02 -2.98214819E-03  9.52413274E-03 -1.79219111E-02
  2.16214049E-02 -5.11947820E-16  1.25723184E-02 -3.25240626E-02  5.83168721E-03
  3.04446451E-03 -3.27343647E-16  1.13519379E-02 -7.39913363E-03 -1.48048540E-02
  1.02140925E-01 -2.78168251E-01  5.97650982E-02  2.47545169E-02 -3.82798267E-17
  3.98953494E-02 -1.09279309E-01 -9.66907198E-02  3.85938496E-02 -3.97263687E-17
 -7.77127534E-02  2.12448764E-01 -4.32660621E-02 -6.10977087E-02  2.70525568E-16
 -1.02140925E-01  2.78168251E-01  5.97650982E-02  2.47545169E-02 -2.99960214E-17
 -3.98953494E-02  1.09279309E-01 -9.66907198E-02  3.85938496E-02 -7.48764221E-17
  7.77127534E-02 -2.12448764E-01 -4.32660621E-02 -6.10977087E-02  9.40182359E-17
 -3.03055703E-02  5.36804403E-02  3.03055703E-02 -5.36804403E-02  5.57466959E-02
 -1.46704232E-01  1.20757501E-01 -4.38762008E-02 -3.11775087E-16  1.07719334E-01
 -2.90632902E-01 -1.63715977E-02  3.88157419E-02 -3.27438129E-16 -3.91184304E-02
 -8.56395467E-02 -7.23333855E-02 -5.57466959E-02  1.46704232E-01  1.20757501E-01
 -4.38762008E-02  3.50174011E-16 -1.07719334E-01  2.90632902E-01 -1.63715977E-02
  3.88157419E-02  3.75924067E-17  3.91184304E-02  8.56395467E-02  7.23333855E-02
 -6.22009396E-02  1.81644231E-01  4.76388661E-02  1.51971986E-01 -2.56188276E-16
 -2.19788737E-02  6.37499334E-02  1.70070023E-01 -2.13722760E-02  2.08322125E-16
  9.04965926E-02 -2.57856694E-01  6.68478497E-03 -5.74616792E-02  3.72962599E-16
 -6.22009396E-02  1.81644231E-01 -4.76388661E-02 -1.51971986E-01  1.81841490E-16
 -2.19788737E-02  6.37499334E-02 -1.70070023E-01  2.13722760E-02 -1.30468141E-16
  9.04965926E-02 -2.57856694E-01 -6.68478497E-03  5.74616792E-02 -1.53138993E-16
  4.17141966E-02 -1.23784712E-01  4.17141966E-02 -1.23784712E-01 -5.46768511E-02
  1.65871386E-01  9.93056950E-02 -8.95339241E-02 -2.85869880E-16  7.00508110E-02
 -2.01966498E-01  3.01709903E-02 -4.71923372E-02 -4.05849047E-16  9.16357910E-02
 -8.09770554E-02 -9.96008248E-02 -5.46768511E-02  1.65871386E-01 -9.93056950E-02
  8.95339241E-02 -6.92010423E-16  7.00508110E-02 -2.01966498E-01 -3.01709903E-02
  4.71923372E-02 -7.80228378E-16  9.16357910E-02 -8.09770554E-02 -9.96008248E-02
 -6.45529833E-02  1.89959219E-01  7.59126639E-02 -1.67798573E-01  4.38113608E-16
  1.08737204E-01 -3.18124984E-01 -3.99167305E-03 -8.58328481E-02  3.34498909E-16
 -4.30921225E-02  1.26323406E-01 -1.68305723E-01 -1.13966142E-01  2.05571798E-16
 -6.45529833E-02  1.89959219E-01 -7.59126639E-02  1.67798573E-01 -4.49493983E-16
  1.08737204E-01 -3.18124984E-01  3.99167305E-03  8.58328481E-02 -2.30038630E-16
 -4.30921225E-02  1.26323406E-01  1.68305723E-01  1.13966142E-01  2.77843252E-16
 -1.61934122E-01  5.81219666E-02 -1.61934122E-01  5.81219666E-02 -1.47674392E-02
  4.71034637E-02  9.38751046E-02  2.37091216E-02  1.66137185E-16  5.14759776E-02
 -1.53307123E-01  5.87690081E-02  4.08099809E-03  1.62376742E-17 -1.29056886E-02
 -8.53764323E-02 -3.89065697E-02 -1.47674392E-02  4.71034637E-02 -9.38751046E-02
 -2.37091216E-02  5.56408008E-16  5.14759776E-02 -1.53307123E-01 -5.87690081E-02
 -4.08099809E-03 -2.30129918E-16 -1.29056886E-02 -8.53764323E-02 -3.89065697E-02
 -1.02729019E-02  2.60790392E-02 -1.18844245E-01 -4.98173210E-02  5.35771446E-16
 -4.60583450E-02  1.39520854E-01 -2.64785535E-03 -6.63319737E-03  3.97182677E-16
  2.47098366E-02 -7.44422038E-02  7.44313719E-02  3.20799419E-02  1.93549551E-16
  1.02729019E-02 -2.60790392E-02 -1.18844245E-01 -4.98173210E-02 -2.80463411E-16
  4.60583450E-02 -1.39520854E-01 -2.64785535E-03 -6.63319737E-03 -2.47458607E-16
 -2.47098366E-02  7.44422038E-02  7.44313719E-02  3.20799419E-02  1.96195087E-17
  4.29016679E-02 -5.57837171E-02 -4.29016679E-02  5.57837171E-02 -1.00042680E-01
  3.06801752E-01  3.19645917E-02 -1.23273359E-01 -4.15829297E-16  8.04898588E-02
 -2.47884618E-01  8.38673495E-02 -1.35313041E-01 -1.11658453E-16  1.79576327E-01
 -1.25194467E-01 -1.65504117E-01  1.00042680E-01 -3.06801752E-01  3.19645917E-02
 -1.23273359E-01  5.51000576E-16 -8.04898588E-02  2.47884618E-01  8.38673495E-02
 -1.35313041E-01  9.18802813E-16 -1.79576327E-01  1.25194467E-01  1.65504117E-01
 -5.13059252E-02  1.48243790E-01 -1.43632952E-01  1.73443722E-02 -4.55573584E-17
  9.33833380E-03 -3.49346700E-02  9.02545487E-02 -1.83681739E-01  5.97438701E-16
  5.28479100E-02 -1.68319900E-01  4.59353053E-02 -1.95674659E-01  6.35614647E-16
 -5.13059252E-02  1.48243790E-01  1.43632952E-01 -1.73443722E-02  1.66217997E-16
  9.33833380E-03 -3.49346700E-02 -9.02545487E-02  1.83681739E-01 -2.09475587E-16
  5.28479100E-02 -1.68319900E-01 -4.59353053E-02  1.95674659E-01 -4.12454437E-16
 -1.02935082E-01 -1.65108949E-01 -1.02935082E-01 -1.65108949E-01  5.92136704E-02
 -1.81024297E-01 -8.06200703E-03  6.83220115E-02 -3.37301564E-16 -5.50297409E-02
  1.73159593E-01 -8.19982091E-02  7.73813657E-02 -7.73108230E-16 -1.14257580E-01
  1.05772335E-01  8.92963980E-02  5.92136704E-02 -1.81024297E-01  8.06200703E-03
 -6.83220115E-02 -4.23619456E-16 -5.50297409E-02  1.73159593E-01  8.19982091E-02
 -7.73813657E-02  3.99092572E-17 -1.14257580E-01  1.05772335E-01  8.92963980E-02
  3.66662471E-02 -1.20847669E-01 -1.25750222E-01 -6.36071176E-02  6.40305079E-16
  1.33818395E-02 -5.25078929E-02 -1.56022294E-01 -1.30814806E-01  9.04138787E-16
 -2.25992931E-02  6.29995294E-02  1.50203173E-01 -6.99148973E-02  7.24102895E-16
  3.66662471E-02 -1.20847669E-01  1.25750222E-01  6.36071176E-02 -6.28903270E-16
  1.33818395E-02 -5.25078929E-02  1.56022294E-01  1.30814806E-01 -9.73456991E-16
 -2.25992931E-02  6.29995294E-02 -1.50203173E-01  6.99148973E-02 -8.42956744E-16
 -1.31978499E-01 -9.11801554E-02 -1.31978499E-01 -9.11801554E-02 -4.25061167E-02
  1.32485501E-01 -1.82799962E-01 -1.05052482E-01 -4.27734538E-16  1.43398837E-02
 -5.46328375E-02 -2.29763489E-02 -2.06686870E-01 -1.27391421E-16  1.48355071E-01
  2.01574871E-02 -1.74022442E-01 -4.25061167E-02  1.32485501E-01  1.82799962E-01
  1.05052482E-01 -6.97970624E-16  1.43398837E-02 -5.46328375E-02  2.29763489E-02
  2.06686870E-01 -9.94416822E-16  1.48355071E-01  2.01574871E-02 -1.74022442E-01
  1.11738038E-02 -4.06984864E-02 -1.30837017E-01  1.45290886E-01 -2.15526140E-16
 -1.38377560E-02  4.56732712E-02  2.01337253E-01 -7.92537791E-03  3.50167326E-16
  3.52991416E-02 -1.15076098E-01 -1.30010247E-01 -9.95973694E-02  6.24061483E-16
 -1.11738038E-02  4.06984864E-02 -1.30837017E-01  1.45290886E-01 -1.64581932E-16
  1.38377560E-02 -4.56732712E-02  2.01337253E-01 -7.92537791E-03  4.28247139E-16
 -3.52991416E-02  1.15076098E-01 -1.30010247E-01 -9.95973694E-02  3.13038320E-16
  6.79154542E-02 -3.19199759E-02 -6.79154542E-02  3.19199759E-02 -1.90227134E-02
  5.59062645E-02  7.51680657E-02  2.17524674E-01 -4.08464040E-16  1.22615799E-02
 -4.86732256E-02  2.36394266E-01  4.16057123E-02  7.33633505E-16 -1.44475147E-01
 -1.92692870E-01  4.65841591E-02  1.90227134E-02 -5.59062645E-02  7.51680657E-02
  2.17524674E-01 -9.83186936E-16 -1.22615799E-02  4.86732256E-02  2.36394266E-01
  4.16057123E-02  6.02222230E-16  1.44475147E-01  1.92692870E-01 -4.65841591E-02
  7.48107765E-02 -2.51855022E-01  6.85678252E-02 -7.02165385E-05  4.51677452E-15
 -4.42393306E-02  1.54332788E-01  2.03935030E-03  2.22171600E-01  3.37957991E-15
  4.09307138E-02 -1.43888583E-01  1.38804921E-01 -1.96798943E-01  3.96407218E-15
 -7.48107765E-02  2.51855022E-01  6.85678252E-02 -7.02165385E-05  3.99779618E-15
  4.42393306E-02 -1.54332788E-01  2.03935030E-03  2.22171600E-01  2.41225970E-15
 -4.09307138E-02  1.43888583E-01  1.38804921E-01 -1.96798943E-01  4.13122274E-15
  2.42272026E-01 -2.65293141E-01 -2.42272026E-01  2.65293141E-01  1.12093406E-02
 -3.17664302E-02  4.70580682E-02  1.64548124E-02  3.56995687E-15 -1.31240586E-02
  4.73486434E-02 -9.95118044E-02 -1.08115080E-02  1.93733193E-15 -5.25362830E-02
  9.94871835E-02 -3.77719484E-02 -1.12093406E-02  3.17664302E-02  4.70580682E-02
  1.64548124E-02  3.33606282E-15  1.31240586E-02 -4.73486434E-02 -9.95118044E-02
 -1.08115080E-02  1.32628683E-15  5.25362830E-02 -9.94871835E-02  3.77719484E-02
 -6.38674264E-03  2.55118976E-02  1.03394403E-01  2.47203704E-01 -5.35625083E-16
  1.47716596E-02 -5.21339899E-02  9.25368284E-02 -1.48777657E-01  7.82027687E-16
 -3.56117318E-02  1.16242176E-01 -5.33979402E-02 -2.17512300E-01  7.15221978E-16
  6.38674264E-03 -2.55118976E-02  1.03394403E-01  2.47203704E-01 -2.50311784E-15
 -1.47716596E-02  5.21339899E-02  9.25368284E-02 -1.48777657E-01 -1.52541809E-15
  3.56117318E-02 -1.16242176E-01 -5.33979402E-02 -2.17512300E-01 -1.45980846E-15
 -1.16547673E-01 -7.46119344E-02  1.16547673E-01  7.46119344E-02  2.46638722E-03
 -1.84975642E-02 -1.94920743E-01  3.48594113E-02 -2.68892400E-15 -7.44258595E-04
 -9.31983885E-03 -4.53036314E-02 -2.39390496E-01 -1.95258398E-15  2.61524900E-03
  7.26342650E-02 -2.03560777E-01 -2.46638722E-03  1.84975642E-02 -1.94920743E-01
  3.48594113E-02 -1.64085147E-15  7.44258595E-04  9.31983885E-03 -4.53036314E-02
 -2.39390496E-01 -7.85684170E-16 -2.61524900E-03 -7.26342650E-02  2.03560777E-01
 -1.89273786E-02  6.21594600E-02  1.17801839E-02  1.10901138E-02 -2.15783351E-15
  2.53705440E-02 -8.47407250E-02  6.47130837E-02  6.84749178E-04 -1.45228143E-15
 -1.99771582E-02  7.30949981E-02 -1.21131710E-01  2.81223135E-02 -1.43536590E-15
 -1.89273786E-02  6.21594600E-02 -1.17801839E-02 -1.10901138E-02 -1.69220583E-15
  2.53705440E-02 -8.47407250E-02 -6.47130837E-02 -6.84749178E-04 -2.03829272E-15
 -1.99771582E-02  7.30949981E-02  1.21131710E-01 -2.81223135E-02 -2.44127875E-15
 -1.64510458E-02  1.06327997E-01 -1.64510458E-02  1.06327997E-01  2.33294988E-02
 -6.11722732E-02  7.70890162E-02 -2.82005408E-01 -5.86839629E-16  7.31299985E-03
 -5.93522734E-03 -3.27514005E-01  6.74806322E-02 -6.18500397E-16  1.75875785E-01
  2.44365469E-01  5.48669538E-03  2.33294988E-02 -6.11722732E-02 -7.70890162E-02
  2.82005408E-01 -2.40541991E-15  7.31299985E-03 -5.93522734E-03  3.27514005E-01
 -6.74806322E-02 -7.08941433E-16  1.75875785E-01  2.44365469E-01  5.48669538E-03
 -1.74534670E-03  9.00061464E-03  1.25438594E-01 -4.08514067E-02  4.15566730E-16
  3.38435644E-02 -1.07574041E-01  1.39174129E-01  2.86986066E-01 -5.21133764E-16
  7.66992008E-03 -1.99324589E-02 -2.36997181E-01  1.47533497E-01 -7.60004228E-16
  1.74534670E-03 -9.00061464E-03  1.25438594E-01 -4.08514067E-02 -9.64813108E-16
 -3.38435644E-02  1.07574041E-01  1.39174129E-01  2.86986066E-01 -2.00401232E-15
 -7.66992008E-03  1.99324589E-02 -2.36997181E-01  1.47533497E-01 -4.35135046E-16
  2.21243482E-01  2.11152030E-01 -2.21243482E-01 -2.11152030E-01 -1.86072354E-03
 -6.98004016E-04 -1.35685316E-01  4.02927997E-03  5.65902620E-16  4.76393939E-03
 -2.44767751E-02  1.88004654E-03 -1.47111142E-01  4.59540367E-16  1.16166152E-02
  1.28690048E-02 -1.03561132E-01  1.86072354E-03  6.98004016E-04 -1.35685316E-01
  4.02927997E-03  6.45339186E-16 -4.76393939E-03  2.44767751E-02  1.88004654E-03
 -1.47111142E-01  5.60690677E-16 -1.16166152E-02 -1.28690048E-02  1.03561132E-01
  4.61990510E-03 -1.78119792E-02 -1.31341053E-01  1.65949742E-01 -1.41429079E-14
 -1.39775718E-02  5.02110346E-02  2.38248176E-01 -4.32839508E-02 -1.20607842E-14
  9.02796209E-03 -2.86984962E-02 -2.00408768E-01 -9.21239676E-02 -1.21610891E-14
 -4.61990510E-03  1.78119792E-02 -1.31341053E-01  1.65949742E-01 -1.49968679E-14
  1.39775718E-02 -5.02110346E-02  2.38248176E-01 -4.32839508E-02 -1.26484893E-14
 -9.02796209E-03  2.86984962E-02 -2.00408768E-01 -9.21239676E-02 -1.21001004E-14
  4.68098742E-02  4.50370991E-02 -4.68098742E-02 -4.50370991E-02  1.02702020E-03
  1.62959036E-02  1.50587703E-01 -2.40208395E-01 -8.49896605E-15  2.15179273E-02
 -5.70955927E-02 -2.08307928E-01  1.62143857E-01 -6.98526654E-15  1.84204829E-01
  1.25132869E-01  8.41048251E-02 -1.02702020E-03 -1.62959036E-02  1.50587703E-01
 -2.40208395E-01 -6.46659160E-15 -2.15179273E-02  5.70955927E-02 -2.08307928E-01
  1.62143857E-01 -4.84729548E-15 -1.84204829E-01 -1.25132869E-01 -8.41048251E-02
 -2.69612637E-02  9.52282259E-02  1.90999857E-02 -9.18824821E-02  6.51037394E-15
 -7.99374775E-04  1.22556199E-02  1.23351262E-01  1.39608167E-01  5.87096201E-15
  5.64669345E-04 -6.47597841E-05 -1.45261978E-01 -6.52142444E-02  5.54017798E-15
 -2.69612637E-02  9.52282259E-02 -1.90999857E-02  9.18824821E-02  2.83225783E-15
 -7.99374775E-04  1.22556199E-02 -1.23351262E-01 -1.39608167E-01  2.69064825E-15
  5.64669345E-04 -6.47597841E-05  1.45261978E-01  6.52142444E-02  3.10943636E-15
  1.53148484E-01 -3.24901902E-03  1.53148484E-01 -3.24901902E-03  1.87363925E-02
 -7.61640394E-02 -6.88741395E-02  1.75750010E-01 -3.24957181E-16 -8.22853653E-03
  1.93193223E-02 -1.13925204E-01 -2.87081253E-01 -4.87183913E-16 -1.81847396E-01
  1.74036624E-01 -2.74772571E-01  1.87363925E-02 -7.61640394E-02  6.88741395E-02
 -1.75750010E-01  2.53618539E-15 -8.22853653E-03  1.93193223E-02  1.13925204E-01
  2.87081253E-01  1.82403930E-16 -1.81847396E-01  1.74036624E-01 -2.74772571E-01
  5.18132040E-16 -1.39524913E-15  6.81955389E-15 -1.16516747E-14 -3.36066040E-01
 -1.05200567E-17  2.33743731E-16 -1.14325216E-14  7.16387656E-15 -3.01395349E-01
  3.88765858E-16 -1.76401208E-15  9.79941083E-15  3.65755370E-16 -3.01336330E-01
 -1.25229849E-15  4.74110546E-15  3.11937184E-15 -4.14316082E-15 -3.36066040E-01
  1.55939591E-17  3.61894659E-16 -9.29308729E-15  1.76620852E-15 -3.01395349E-01
 -9.47236249E-17 -1.95344841E-16  1.11430244E-14  4.36659318E-15 -3.01336330E-01
  5.22628683E-15 -9.24602571E-15  3.29615351E-15  2.99440897E-15  4.28231935E-16
 -2.55854490E-15 -5.10473977E-15  1.41032606E-14 -1.56768719E-01 -1.31585483E-15
  4.37470838E-15  7.21228971E-15 -8.95063350E-15 -8.64951492E-02 -1.08283354E-14
 -4.24711263E-15 -7.17037315E-15  2.52099029E-17  5.16813657E-16 -4.73964737E-15
  5.94304330E-15 -1.56768719E-01  1.02976647E-15 -3.27606511E-15  8.05267038E-15
 -3.00874747E-15 -8.64951492E-02  5.97723544E-15  5.90956941E-15 -2.79276203E-17
  1.19886789E-02 -5.56902705E-02 -2.77504224E-01 -7.87859058E-02  3.38223666E-15
 -1.09942463E-02  3.62739160E-02  5.19581990E-04 -6.82478656E-02  3.78448832E-15
  1.52121567E-02 -5.05189680E-02 -4.06147160E-02  1.38286197E-01  1.86041439E-15
 -1.19886789E-02  5.56902705E-02 -2.77504224E-01 -7.87859058E-02 -2.27272510E-15
  1.09942463E-02 -3.62739160E-02  5.19581990E-04 -6.82478656E-02 -1.74606486E-15
 -1.52121567E-02  5.05189680E-02 -4.06147160E-02  1.38286197E-01 -7.18703351E-16
 -3.07235053E-02  6.20833616E-02  3.07235053E-02 -6.20833616E-02 -3.86517165E-03
  1.78128757E-02  2.10729692E-01  1.70332345E-01 -4.80228901E-15  2.73787289E-03
 -6.68979716E-03 -1.84367357E-01 -1.61441201E-01 -4.02850482E-15 -2.26165280E-01
  2.31767181E-01 -2.21379406E-01  3.86517165E-03 -1.78128757E-02  2.10729692E-01
  1.70332345E-01  3.28974823E-16 -2.73787289E-03  6.68979716E-03 -1.84367357E-01
 -1.61441201E-01 -2.16099190E-16  2.26165280E-01 -2.31767181E-01  2.21379406E-01
  3.34770235E-03 -8.09403768E-03  1.36557039E-01 -2.86708530E-01  4.96002725E-15
  7.69786954E-03 -1.88872119E-02 -1.73629313E-01  2.42644122E-01  3.21476886E-15
 -8.87445300E-03  1.95677752E-02  1.24442683E-01 -2.46450985E-01  3.08275079E-15
  3.34770235E-03 -8.09403768E-03 -1.36557039E-01  2.86708530E-01  6.06123624E-16
  7.69786954E-03 -1.88872119E-02  1.73629313E-01 -2.42644122E-01  1.66285963E-15
 -8.87445300E-03  1.95677752E-02 -1.24442683E-01  2.46450985E-01  1.95030736E-15
  1.91785734E-01 -2.84357577E-01  1.91785734E-01 -2.84357577E-01 -7.06778044E-03
  3.61196398E-02  1.08946967E-01 -5.89075424E-02 -1.38882774E-15  6.35155835E-03
 -1.55071723E-02 -5.57399700E-02  1.17349025E-01 -1.57587375E-15  6.91267181E-02
  2.50622772E-02  5.20306121E-02 -7.06778044E-03  3.61196398E-02 -1.08946967E-01
  5.89075424E-02  2.65730379E-15  6.35155835E-03 -1.55071723E-02  5.57399700E-02
 -1.17349025E-01  2.71477468E-15  6.91267181E-02  2.50622772E-02  5.20306121E-02
 -9.09817667E-03  5.27252895E-02  2.57505999E-01  1.35710241E-01  4.80500451E-15
 -5.31982186E-03  1.42467310E-02 -2.23126143E-01 -7.87180546E-02  4.76998671E-15
 -1.91706776E-03  7.56598502E-03  2.18125455E-01  1.64238633E-01  1.38490020E-15
 -9.09817667E-03  5.27252895E-02 -2.57505999E-01 -1.35710241E-01 -3.46516759E-15
 -5.31982186E-03  1.42467310E-02  2.23126143E-01  7.87180546E-02 -2.68146021E-15
 -1.91706776E-03  7.56598502E-03 -2.18125455E-01 -1.64238633E-01  7.29908292E-16
 -1.81007195E-01 -5.43259146E-02 -1.81007195E-01 -5.43259146E-02 -2.23140161E-02
  9.26292672E-02  2.69999802E-01  1.14762704E-01 -6.02815007E-15  3.66083355E-03
 -6.35204413E-03 -1.28803135E-01 -3.66242672E-02 -4.62034557E-15 -1.69035285E-01
  1.55825192E-01 -1.15094567E-01 -2.23140161E-02  9.26292672E-02 -2.69999802E-01
 -1.14762704E-01  1.92490974E-15  3.66083355E-03 -6.35204413E-03  1.28803135E-01
  3.66242672E-02  1.59771319E-15 -1.69035285E-01  1.55825192E-01 -1.15094567E-01
  1.47038090E-16 -1.13554850E-15 -1.86592470E-15  2.45720410E-16  3.43554913E-01
  5.83356335E-17  4.89465794E-16  2.80041864E-15 -4.66786228E-17  1.31371890E-01
  3.40065830E-19  3.79522525E-16 -2.36768237E-15 -1.33819773E-15 -1.41153829E-01
  4.83538602E-16 -2.58897700E-15  6.15264293E-15 -1.52274887E-15 -3.43554913E-01
 -1.40245133E-16  6.77530086E-16 -4.24962002E-15  1.10859439E-15 -1.31371890E-01
  1.51935564E-16 -4.76060518E-16  3.50356873E-15  4.92824445E-17  1.41153829E-01
  7.57572755E-17  1.39447627E-15  4.74810948E-17  3.19883226E-15  2.61344051E-16
 -1.27524616E-15 -3.86763635E-15 -1.92532091E-15 -3.71838338E-01 -2.21359041E-16
  2.47218536E-16  3.60987738E-15  1.72337645E-15 -2.80664307E-01  3.86474003E-15
 -4.20395857E-15  4.48699965E-15 -2.09484014E-17  1.51877310E-16  1.70825322E-15
  1.77809175E-15  3.71838338E-01  1.57794654E-16 -7.72692952E-16  1.82990221E-16
  7.79296488E-16  2.80664307E-01  1.31265675E-15  8.35675139E-17  2.30686427E-17
  1.33639494E-16 -1.28715197E-16  3.90758357E-16 -1.36353310E-15  2.08164375E-02
  1.04942407E-16 -3.41218830E-16  1.19703479E-16  2.63117114E-15  1.64245332E-01
 -1.16240102E-17  3.83993207E-16 -2.72829008E-17  5.15289268E-16  1.57498206E-01
  9.65808545E-17 -9.30893323E-16  2.64436248E-15 -3.66353118E-16  2.08164375E-02
 -7.08749756E-17  1.19124480E-16 -1.28722030E-15  2.55310092E-15  1.64245332E-01
 -1.66675873E-16  1.08635230E-16  1.63099639E-15  4.07744529E-16  1.57498206E-01
  8.94633250E-16 -3.68202163E-16  9.06975029E-17  1.67847384E-15  1.82426207E-16
 -2.09809879E-16 -1.74882803E-15 -1.53609435E-15 -4.18421227E-01 -1.12932383E-16
  5.94340818E-16  2.63224458E-15  1.54633766E-15 -4.23846774E-01  1.39877731E-15
 -3.33833774E-15  2.67820425E-15  2.13125314E-16 -7.38539842E-16  2.84890469E-16
 -1.09361832E-15 -4.18421227E-01  1.03198131E-16 -4.92867625E-16  6.59258094E-16
 -9.87098045E-16 -4.23846774E-01  8.84172933E-16  1.22780899E-16 -9.65451507E-17
  6.18008192E-18 -6.59223415E-17 -2.66172789E-16 -1.18916341E-15  1.75137246E-02
 -8.80803777E-17 -1.85113586E-17  1.14702323E-15  9.11079816E-16  4.69342995E-01
  4.02247035E-17  5.23768642E-16 -6.75911179E-16  4.60349425E-16  4.50793684E-01
  4.24969671E-16 -2.29463415E-15  2.94712901E-15 -7.08595167E-16 -1.75137246E-02
 -8.05235267E-17  2.41378111E-16 -1.47190458E-15  3.04311355E-16 -4.69342995E-01
  1.81460621E-16 -1.29615056E-15  6.45847855E-16 -9.94124467E-16 -4.50793684E-01
  2.75684765E-16  5.78704182E-16  7.01423177E-16  1.95679493E-15 -3.18564434E-17
 -2.73609207E-16 -5.08166578E-16  8.60464736E-17  4.53680849E-04 -4.61691804E-17
 -4.10525276E-17  2.01026449E-15  2.61988158E-15  1.33685840E-02  2.97743343E-15
 -2.78050660E-15  3.24728990E-15  7.31694614E-17 -3.61571873E-16  5.26314598E-16
 -1.07063820E-15 -4.53680849E-04  9.41975461E-17 -5.81545510E-16 -4.48476086E-17
  9.28601041E-17 -1.33685840E-02  8.86023554E-16 -3.29387027E-16  1.25352063E-17
  9.91252198E-17 -7.57857639E-16  3.34857086E-16 -6.78072217E-16 -3.90283168E-01
 -1.17799604E-16  6.98020606E-16 -1.05595767E-16 -2.86717568E-16 -2.06929161E-01
  1.76885004E-17 -3.19411402E-16 -2.19697395E-16  4.72494374E-16  2.41831284E-01
  8.77205217E-17 -4.24313001E-16  3.61145718E-16  4.05607650E-16  3.90283168E-01
 -6.33517144E-17  7.93384517E-17 -3.31595451E-16  7.35595257E-16  2.06929161E-01
 -8.49433815E-17  7.02012659E-16  2.19933089E-16 -4.27014773E-16 -2.41831284E-01
 -1.85477540E-16  3.46618244E-16 -9.69403624E-16 -1.83736488E-16 -1.03264492E-18
 -5.33404051E-17  2.76275493E-17  2.16829085E-16 -2.31200094E-01 -2.64565116E-17
 -3.69307261E-16  8.34128423E-17 -1.52160941E-15 -3.82038740E-01 -1.36294660E-17
  4.07635052E-16 -1.47172881E-16 -1.77558011E-16  6.40431802E-16 -5.31571590E-16
  9.53779822E-16  2.31200094E-01  6.12684253E-17 -2.58319420E-16 -6.14429251E-17
  6.12661790E-16  3.82038740E-01 -3.76543488E-17  4.17006779E-16 -1.00315314E-16
  2.54643260E-16 -1.52672736E-15  5.59479256E-17 -1.27836216E-15 -4.49204754E-01
 -1.17493355E-16  8.84215629E-16  1.00110965E-16 -4.21275169E-16  2.28506521E-01
  6.79043309E-17 -3.99633199E-16 -6.11129510E-16 -1.66538372E-16  2.87226918E-01
  1.50599059E-16 -9.12736904E-16 -2.34775853E-17 -7.50206219E-16 -4.49204754E-01
 -1.63561628E-16  5.56719850E-16 -7.57407698E-16  5.73963658E-16  2.28506521E-01
 -2.87007478E-17  2.67786810E-16 -4.00416197E-17  9.24459267E-16  2.87226918E-01
  3.20173174E-16  5.08515389E-16 -6.33983875E-16  2.73879033E-16 -1.29271377E-16
  6.25730512E-16  2.84326841E-16 -7.25775851E-16 -2.73378206E-01  7.62626313E-17
 -6.19870137E-16 -2.71871424E-16  6.51963621E-16  4.41922218E-01 -2.44618656E-16
  6.83070067E-16  2.08996332E-16 -1.97566558E-16  1.03603144E-15 -4.50441900E-16
 -3.36825028E-16 -2.73378206E-01  3.38637768E-18  1.17538214E-16 -3.48590823E-16
  9.62692810E-16  4.41922218E-01 -6.10207655E-16 -4.30535095E-16 -7.02953218E-17
 -1.59453363E-17  6.12462793E-17 -2.67330353E-16 -9.18621906E-17  3.63041473E-02
  3.83240078E-17  1.68205916E-16 -2.37241449E-17 -1.44018285E-15 -5.86446335E-01
 -9.32237034E-17  3.57495691E-16 -2.97000079E-16  9.30212294E-16  5.51646626E-01
  9.55014794E-17 -4.53839734E-16 -1.18257516E-16 -8.12408950E-17  3.63041473E-02
 -1.19482940E-16  4.85393337E-16 -6.59898095E-17 -1.54808991E-15 -5.86446335E-01
  7.69281998E-17 -3.95025910E-16 -1.89529821E-16  1.03881135E-15  5.51646626E-01
 -2.16021283E-16 -2.25404638E-16 -1.23837312E-16  1.51888606E-16  1.32690074E-16
 -1.43493130E-16 -7.97167192E-18 -5.32016101E-17 -1.34221064E-03 -1.08329604E-16
  5.92267975E-16 -4.82409540E-17  8.38772355E-17 -1.86249155E-02 -4.94017401E-17
 -4.39292524E-16 -1.88926407E-16 -5.58569692E-17  4.15780243E-16 -3.30534166E-17
  9.39733961E-17 -1.34221064E-03 -2.64625318E-17  1.34531582E-16  4.19138308E-16
 -6.70058285E-17 -1.86249155E-02 -2.77160750E-16 -2.72685522E-16 -1.86829104E-17
  1.63505093E-16 -3.55089432E-16  3.48115163E-16 -5.94237936E-17 -2.54446559E-02
 -7.16564673E-18  1.71616492E-16 -3.10989000E-17 -8.65389297E-17  2.16787776E-01
 -3.84560346E-17  5.44691160E-16 -1.98966248E-16 -1.37310947E-15 -2.09079319E-01
  6.38808912E-17 -6.52826178E-16 -2.15815492E-16 -1.05407466E-15  2.54446559E-02
 -3.42971017E-17  3.55881060E-16 -6.20157826E-16 -1.53290231E-15 -2.16787776E-01
 -1.95542892E-16  1.08382808E-15 -2.50369830E-17  1.34332935E-16  2.09079319E-01
  7.81246485E-17  1.08388866E-16 -1.10673423E-15 -6.12395179E-16  1.01515918E-16
 -2.97845834E-16 -2.79653481E-16  6.76988304E-16  5.35542961E-01  7.01763440E-18
 -7.63652028E-16  3.05449373E-17 -2.03065592E-15 -5.35115158E-01 -6.04089867E-16
  1.76311486E-16  1.37364140E-15 -1.04528167E-16  4.58610312E-16  1.55201417E-16
 -9.95288664E-16 -5.35542961E-01  3.44939249E-17  1.46519939E-16  2.14925613E-16
  8.75088057E-16  5.35115158E-01 -5.15995489E-18 -7.55489251E-16 -1.10501639E-16
  1.58605583E-16 -7.68742271E-16 -2.58079693E-17  8.95907576E-16  4.93660566E-01
  7.59643045E-17  1.11702658E-16 -5.30333651E-16 -1.15712375E-15 -1.76386390E-01
  2.03784523E-16 -1.41232359E-15 -3.19897359E-17 -1.41210634E-15 -2.06624390E-01
  7.04636041E-17 -4.21640213E-16  3.48180076E-16  1.04589199E-15  4.93660566E-01
  2.13122000E-16 -8.66698228E-16 -6.16697956E-16  2.30489053E-16 -1.76386390E-01
  4.47812429E-17  3.80469943E-16 -1.31572464E-16 -1.91444530E-16 -2.06624390E-01
  1.04412108E-15  1.38578802E-15  6.68629505E-16  4.76423112E-16 -1.66441842E-16
  4.57988536E-16  2.25240280E-16 -8.37915406E-16 -5.21614806E-01  9.94366994E-17
 -6.87533651E-16 -3.98581811E-17  3.19922956E-16  3.85920774E-01 -1.54178454E-16
  2.60703844E-16  5.72948634E-16 -1.90530199E-16  6.14809285E-16 -2.23678309E-16
 -1.21195534E-15 -5.21614806E-01  5.47331267E-17 -2.95584726E-16 -6.84501121E-16
  6.72471060E-16  3.85920774E-01 -2.07564724E-16  1.10533180E-16 -1.61728849E-16
 -4.71450132E-15  2.71586661E-14  2.18741144E-14  6.33873148E-15  5.47425016E-01
 -2.60463002E-15  1.51531716E-14 -2.18555687E-16  1.51584999E-14 -4.77707090E-01
 -2.22878431E-15  1.32233162E-14 -7.42837978E-15  9.91462610E-15  4.79864962E-01
 -8.76894965E-15  5.06503642E-14 -3.61997176E-14 -1.56958902E-14 -5.47425016E-01
 -1.28201168E-15  8.28130459E-15 -4.15681709E-15 -3.18050383E-14  4.77707090E-01
 -5.39278397E-15  3.25710186E-14  9.86510576E-15 -2.23804158E-14 -4.79864962E-01
 -2.58268663E-14 -2.46480134E-14 -3.93908405E-14 -4.35441218E-14  5.21436703E-15
 -2.81497290E-14 -4.69935351E-14 -3.02233948E-14  2.60956514E-01 -2.79325500E-15
  1.62175635E-14 -2.07967635E-14 -2.01127982E-14 -1.43006203E-01 -2.34198412E-14
 -4.05888953E-14  2.50335781E-14  4.50404825E-15 -2.50924840E-14  2.50589643E-14
  1.20446006E-14 -2.60956514E-01 -3.63901433E-15  2.10888373E-14  6.91593051E-15
  1.19940362E-15  1.43006203E-01 -1.69874058E-15 -2.30151198E-14 -2.71186861E-16
  6.92837511E-02 -3.97776025E-01 -3.31531061E-01 -8.78850529E-02  4.85236506E-14
  3.30532066E-02 -2.01835785E-01 -3.98674687E-02 -2.71859496E-01 -4.25756854E-14
  4.29264579E-02 -2.58650724E-01  1.22959793E-01 -1.82392813E-01  4.27191142E-14
  6.92837511E-02 -3.97776025E-01  3.31531061E-01  8.78850529E-02 -4.91832572E-14
  3.30532066E-02 -2.01835785E-01  3.98674687E-02  2.71859496E-01  4.25129184E-14
  4.29264579E-02 -2.58650724E-01 -1.22959793E-01  1.82392813E-01 -4.24197730E-14
  4.09860385E-01  4.06693722E-01  4.09860385E-01  4.06693722E-01 -5.97086823E-02
  3.28608514E-01  3.83878512E-01  1.90909475E-01  2.44648765E-14  3.83087977E-02
 -2.18373239E-01  1.46276121E-01  9.13245057E-02 -1.40415949E-14  7.07402929E-02
  3.37849841E-01 -9.93157106E-02 -5.97086823E-02  3.28608514E-01 -3.83878512E-01
 -1.90909475E-01 -2.25558092E-14  3.83087977E-02 -2.18373239E-01 -1.46276121E-01
 -9.13245057E-02  1.17278034E-14  7.07402929E-02  3.37849841E-01 -9.93157106E-02
 -5.46364233E-02  3.09938161E-01  2.69019981E-01  2.24117920E-01  1.65356581E-14
  1.40103934E-02 -7.51536413E-02  7.64310204E-02  2.95818974E-01 -1.55650650E-14
 -3.06143031E-02  1.79862519E-01  3.23026775E-02  2.23582902E-01  1.39563501E-14
  5.46364233E-02 -3.09938161E-01  2.69019981E-01  2.24117920E-01 -1.71326669E-14
 -1.40103934E-02  7.51536413E-02  7.64310204E-02  2.95818974E-01  1.42782336E-14
  3.06143031E-02 -1.79862519E-01  3.23026775E-02  2.23582902E-01 -1.51562033E-14
 -2.71376563E-01 -2.13833244E-01  2.71376563E-01  2.13833244E-01 -1.84456859E-02
  9.70024664E-02  3.42320369E-01  2.82383584E-01  7.95180740E-15 -6.24382259E-03
  3.72587199E-02  2.08283430E-01  3.14212236E-01 -5.25645263E-15  3.23557178E-01
  2.90344142E-01 -3.83246938E-01  1.84456859E-02 -9.70024664E-02  3.42320369E-01
  2.82383584E-01 -9.61236808E-15  6.24382259E-03 -3.72587199E-02  2.08283430E-01
  3.14212236E-01  4.50215153E-15 -3.23557178E-01 -2.90344142E-01  3.83246938E-01
 -4.12124212E-02  2.28388076E-01  4.39129653E-01 -7.94746562E-02 -1.37799527E-15
  1.57055751E-02 -9.48376866E-02  2.19927338E-01 -1.47802082E-01  8.85613157E-16
  1.04185222E-02 -6.86611248E-02  3.45184580E-01 -2.62934307E-01 -8.16864165E-16
  4.12124212E-02 -2.28388076E-01  4.39129653E-01 -7.94746562E-02  1.18189106E-15
 -1.57055751E-02  9.48376866E-02  2.19927338E-01 -1.47802082E-01 -1.18354940E-15
 -1.04185222E-02  6.86611248E-02  3.45184580E-01 -2.62934307E-01  1.61517485E-15
  1.04508973E-01  4.61914908E-01 -1.04508973E-01 -4.61914908E-01 -9.94376530E-02
  5.73055449E-01  2.80491776E-01 -4.12044958E-02 -7.86674963E-16  5.67537930E-02
 -3.29752062E-01  5.10262670E-02 -4.50219100E-02  7.10332114E-16 -2.98544851E-01
  2.45581809E-01  1.41982406E-01  9.94376530E-02 -5.73055449E-01  2.80491776E-01
 -4.12044958E-02  1.17579805E-15 -5.67537930E-02  3.29752062E-01  5.10262670E-02
 -4.50219100E-02 -5.30542683E-16  2.98544851E-01 -2.45581809E-01 -1.41982406E-01
  3.42420919E-02 -2.05927284E-01 -9.34352642E-03 -2.92069915E-02  5.52892127E-15
 -3.75493719E-02  2.31159854E-01  1.43499161E-01 -9.71628325E-03 -4.57921124E-15
 -4.29930867E-02  2.65753471E-01 -2.03175033E-01  1.55282882E-01  4.04743844E-15
  3.42420919E-02 -2.05927284E-01  9.34352642E-03  2.92069915E-02 -4.77226730E-15
 -3.75493719E-02  2.31159854E-01 -1.43499161E-01  9.71628325E-03  4.73515175E-15
 -4.29930867E-02  2.65753471E-01  2.03175033E-01 -1.55282882E-01 -3.93847621E-15
 -1.91560782E-01 -3.22781580E-01 -1.91560782E-01 -3.22781580E-01  5.52119500E-02
 -3.33821371E-01  1.48843056E-01  2.86166256E-01  1.71459647E-15 -4.35691395E-02
  2.55501167E-01  2.68661194E-01  3.34431689E-01 -1.60925877E-15  5.21583485E-01
  2.02148812E-01 -5.03386053E-01  5.52119500E-02 -3.33821371E-01 -1.48843056E-01
 -2.86166256E-01 -2.97202686E-15 -4.35691395E-02  2.55501167E-01 -2.68661194E-01
 -3.34431689E-01  2.58249980E-15  5.21583485E-01  2.02148812E-01 -5.03386053E-01
 -6.88657527E-02  3.99789802E-01  6.47895124E-02 -1.01405048E-01  1.97598125E-15
  6.50457588E-02 -3.87262909E-01  6.62040768E-02 -1.11873481E-01 -1.10124707E-15
 -9.16698775E-02  5.57648607E-01 -9.90691184E-02  2.22401758E-02  7.31392411E-16
  6.88657527E-02 -3.99789802E-01  6.47895124E-02 -1.01405048E-01 -7.20034503E-16
 -6.50457588E-02  3.87262909E-01  6.62040768E-02 -1.11873481E-01  1.60121272E-15
  9.16698775E-02 -5.57648607E-01 -9.90691184E-02  2.22401758E-02 -1.40017611E-15
  2.79879955E-01 -3.02477736E-01 -2.79879955E-01  3.02477736E-01 -6.00513668E-02
  3.78028938E-01  1.36854183E-01 -2.61289945E-01  9.00051675E-16 -8.12289457E-02
  5.16096009E-01 -2.18296568E-01  1.98458031E-01 -5.34141501E-16 -3.81074951E-01
 -4.15621171E-01 -3.38335332E-01  6.00513668E-02 -3.78028938E-01  1.36854183E-01
 -2.61289945E-01 -8.12079428E-16  8.12289457E-02 -5.16096009E-01 -2.18296568E-01
  1.98458031E-01  7.13921946E-16  3.81074951E-01  4.15621171E-01  3.38335332E-01
 -4.07977562E-02  2.42055931E-01  1.95971470E-01 -2.06850662E-01  2.10706738E-15
 -7.37080541E-02  4.55675858E-01 -1.29730318E-01  4.74686144E-02 -1.60982449E-15
  8.56290620E-02 -5.26501468E-01 -1.79702578E-02  1.55745179E-03  1.52519447E-15
 -4.07977562E-02  2.42055931E-01 -1.95971470E-01  2.06850662E-01 -2.12795659E-15
 -7.37080541E-02  4.55675858E-01  1.29730318E-01 -4.74686144E-02  1.43054264E-15
  8.56290620E-02 -5.26501468E-01  1.79702578E-02 -1.55745179E-03 -9.45958192E-16
 -2.52974766E-01  1.81364526E-01 -2.52974766E-01  1.81364526E-01  4.62778579E-02
 -2.92212907E-01 -1.88955510E-01  2.41064553E-01  6.66674904E-16  9.79869013E-02
 -6.19947305E-01  1.88704742E-01 -1.79328240E-01 -1.50874608E-17  3.41629742E-01
  4.40516446E-01  3.95023457E-01  4.62778579E-02 -2.92212907E-01  1.88955510E-01
 -2.41064553E-01 -5.66600434E-16  9.79869013E-02 -6.19947305E-01 -1.88704742E-01
  1.79328240E-01  3.32561230E-16  3.41629742E-01  4.40516446E-01  3.95023457E-01
 -3.95368024E-02  2.44027414E-01 -1.42872006E-01 -1.60938137E-01  1.99486207E-15
  7.20991822E-02 -4.44266265E-01 -2.37762125E-01 -3.78949448E-01 -8.15415106E-16
 -2.30272983E-02  1.31951966E-01 -6.07683334E-02 -2.46235982E-01  1.66248158E-15
  3.95368024E-02 -2.44027414E-01 -1.42872006E-01 -1.60938137E-01 -9.46841100E-16
 -7.20991822E-02  4.44266265E-01 -2.37762125E-01 -3.78949448E-01  2.21762131E-15
  2.30272983E-02 -1.31951966E-01 -6.07683334E-02 -2.46235982E-01 -1.37214507E-15
  6.68128974E-01  6.67375787E-02 -6.68128974E-01 -6.67375787E-02  5.21148464E-02
 -3.30677485E-01  3.15471692E-02  1.85411283E-01  2.49981162E-16  3.09982230E-03
 -2.58878790E-02  2.88640685E-01  9.57673834E-02 -5.10910400E-16  3.69068688E-01
  2.96736962E-01 -1.68825012E-01 -5.21148464E-02  3.30677485E-01  3.15471692E-02
  1.85411283E-01 -9.50265019E-16 -3.09982230E-03  2.58878790E-02  2.88640685E-01
  9.57673834E-02 -5.50287985E-16 -3.69068688E-01 -2.96736962E-01  1.68825012E-01
  1.16116127E-01 -7.08478046E-01 -4.41692411E-02 -4.09069717E-02  7.98313047E-16
 -9.18045898E-02  5.77250430E-01  2.55092693E-01  1.00179131E-01 -1.52378825E-15
 -4.96317928E-02  3.13765315E-01 -2.56345644E-01 -1.92814302E-01  5.82219229E-16
  1.16116127E-01 -7.08478046E-01  4.41692411E-02  4.09069717E-02 -6.93375735E-16
 -9.18045898E-02  5.77250430E-01 -2.55092693E-01 -1.00179131E-01  3.92247330E-16
 -4.96317928E-02  3.13765315E-01  2.56345644E-01  1.92814302E-01 -1.92270566E-15
 -4.13092533E-01 -1.94824897E-01 -4.13092533E-01 -1.94824897E-01 -9.86391624E-02
  5.99497249E-01  8.31136824E-02 -1.42049512E-01  4.95263881E-17  6.22994585E-02
 -3.76960135E-01  4.21068074E-02  3.92299329E-02  5.83168021E-20 -3.98947494E-01
  2.39091262E-01  1.65043911E-01 -9.86391624E-02  5.99497249E-01 -8.31136824E-02
  1.42049512E-01 -1.76135815E-16  6.22994585E-02 -3.76960135E-01 -4.21068074E-02
 -3.92299329E-02 -1.06518410E-15 -3.98947494E-01  2.39091262E-01  1.65043911E-01
 -5.78794586E-02  3.52920402E-01 -1.34779518E-01  1.36107035E-01  2.22312790E-16
  5.31092807E-02 -3.26395737E-01 -1.80894482E-01  1.37050788E-01 -9.87175420E-16
 -6.18771627E-02  3.81215493E-01 -1.98307302E-01  1.60852359E-01 -1.81545788E-16
  5.78794586E-02 -3.52920402E-01 -1.34779518E-01  1.36107035E-01 -1.01721074E-15
 -5.31092807E-02  3.26395737E-01 -1.80894482E-01  1.37050788E-01  2.86911706E-16
  6.18771627E-02 -3.81215493E-01 -1.98307302E-01  1.60852359E-01 -1.36227779E-15
  8.50201514E-02 -5.02687296E-01 -8.50201514E-02  5.02687296E-01 -6.43112990E-02
  3.93256806E-01 -1.51887313E-01 -5.19418932E-02 -2.40041915E-16  1.14601623E-01
 -7.24103415E-01  8.31618190E-02 -9.64335985E-02  3.10098466E-16 -2.75089583E-01
  3.91360105E-01  4.87773302E-01  6.43112990E-02 -3.93256806E-01 -1.51887313E-01
 -5.19418932E-02 -1.72407364E-16 -1.14601623E-01  7.24103415E-01  8.31618190E-02
 -9.64335985E-02 -2.97565705E-16  2.75089583E-01 -3.91360105E-01 -4.87773302E-01
  1.57198949E-02 -9.75963857E-02 -9.97579674E-03 -3.62481970E-01  2.24194147E-15
 -1.09910935E-01  7.04970234E-01 -1.73737334E-01 -1.60859143E-02 -1.11483145E-15
  1.14164672E-01 -7.34532211E-01 -1.69793913E-01 -1.04070124E-01  1.04102826E-15
  1.57198949E-02 -9.75963857E-02  9.97579674E-03  3.62481970E-01 -1.84875697E-15
 -1.09910935E-01  7.04970234E-01  1.73737334E-01  1.60859143E-02  1.51272831E-15
  1.14164672E-01 -7.34532211E-01  1.69793913E-01  1.04070124E-01 -1.70038227E-15
 -2.67359592E-01  3.71171985E-01 -2.67359592E-01  3.71171985E-01 -1.57392342E-02
  1.19886699E-01  1.07782357E-01  6.81174345E-03  1.42999753E-15 -6.59834137E-02
  4.26031321E-01 -3.35949880E-01  1.32208453E-01 -1.70855947E-15  9.51807969E-03
 -4.46485617E-01 -3.03705977E-01 -1.57392342E-02  1.19886699E-01 -1.07782357E-01
 -6.81174345E-03 -1.07034300E-15 -6.59834137E-02  4.26031321E-01  3.35949880E-01
 -1.32208453E-01  6.98299258E-16  9.51807969E-03 -4.46485617E-01 -3.03705977E-01
  9.77610899E-02 -6.60137528E-01  5.64457976E-01  1.33414563E-01  4.02352023E-16
 -3.00049490E-02  2.00325646E-01  2.12956977E-01 -4.33581778E-01  2.85408236E-16
 -5.37194826E-02  3.54558781E-01  2.02174087E-02 -4.14152125E-01  1.27869116E-15
  9.77610899E-02 -6.60137528E-01 -5.64457976E-01 -1.33414563E-01  3.49870501E-17
 -3.00049490E-02  2.00325646E-01 -2.12956977E-01  4.33581778E-01  1.29398013E-16
 -5.37194826E-02  3.54558781E-01 -2.02174087E-02  4.14152125E-01 -1.18498597E-15
  1.77994302E-01  8.55230210E-02  1.77994302E-01  8.55230210E-02  5.67280256E-02
 -3.73615351E-01  8.36146099E-02  1.44519238E-01  1.83582213E-16 -2.16008001E-02
  1.39498944E-01 -1.62575195E-01 -2.96829649E-01  2.10389287E-16  2.67844692E-01
 -2.47282153E-01  1.83513446E-01  5.67280256E-02 -3.73615351E-01 -8.36146099E-02
 -1.44519238E-01  3.21282009E-16 -2.16008001E-02  1.39498944E-01  1.62575195E-01
  2.96829649E-01 -9.97135424E-16  2.67844692E-01 -2.47282153E-01  1.83513446E-01
  2.25486850E-03  2.77136279E-04  8.65564428E-02 -5.35419030E-01  1.29060146E-15
 -1.01167693E-01  6.89733343E-01  1.36814563E-02  2.47523708E-03 -7.91075356E-16
 -1.42228740E-02  1.12708748E-01 -4.79649751E-01 -2.93526776E-01  6.72357542E-16
 -2.25486850E-03 -2.77136279E-04  8.65564428E-02 -5.35419030E-01 -9.70164973E-17
  1.01167693E-01 -6.89733343E-01  1.36814563E-02  2.47523708E-03  1.02942141E-15
  1.42228740E-02 -1.12708748E-01 -4.79649751E-01 -2.93526776E-01 -5.24729891E-16
 -2.82305534E-01 -8.83593973E-02  2.82305534E-01  8.83593973E-02  8.66051275E-03
 -7.18871051E-02 -3.33066064E-02 -3.32350014E-01  9.11699516E-16 -1.27514292E-02
  1.00013656E-01  4.61896102E-01  1.08567083E-01 -1.45097484E-16 -2.55048003E-01
  3.39944001E-01 -2.08160941E-01 -8.66051275E-03  7.18871051E-02 -3.33066064E-02
 -3.32350014E-01  4.84098512E-16  1.27514292E-02 -1.00013656E-01  4.61896102E-01
  1.08567083E-01 -4.49076199E-16  2.55048003E-01 -3.39944001E-01  2.08160941E-01
  2.60514404E-03 -1.63255097E-02  6.55481947E-02 -2.03469448E-01  7.91928371E-16
 -2.32879479E-02  1.66175392E-01 -2.67408034E-01 -6.02162235E-01  1.10416183E-15
  1.77690091E-02 -1.30714560E-01 -4.95275749E-01  4.27317156E-01 -4.90119097E-16
  2.60514404E-03 -1.63255097E-02 -6.55481947E-02  2.03469448E-01 -5.86386218E-16
 -2.32879479E-02  1.66175392E-01  2.67408034E-01  6.02162235E-01 -6.97429604E-16
  1.77690091E-02 -1.30714560E-01  4.95275749E-01 -4.27317156E-01  1.14866424E-15
  4.51685063E-01 -4.65529586E-01  4.51685063E-01 -4.65529586E-01 -4.00609377E-02
  2.82215450E-01 -1.84740977E-01  8.07656287E-02  4.67991768E-17  4.13329848E-02
 -2.83642417E-01 -1.96049977E-01  1.06507253E-01 -4.28501356E-16 -9.69105609E-02
 -2.11182544E-02  1.28167009E-01 -4.00609377E-02  2.82215450E-01  1.84740977E-01
 -8.07656287E-02  2.17999539E-16  4.13329848E-02 -2.83642417E-01  1.96049977E-01
 -1.06507253E-01  2.29495601E-16 -9.69105609E-02 -2.11182544E-02  1.28167009E-01
  7.44729938E-02 -5.22268229E-01  9.90825534E-04 -3.12286850E-01  1.41285327E-15
  2.12494181E-02 -1.43916078E-01  7.68414945E-01 -2.35342377E-01  6.65337001E-17
 -8.45000735E-02  5.90933007E-01  3.46237443E-01  3.66247953E-01 -2.45281999E-16
 -7.44729938E-02  5.22268229E-01  9.90825534E-04 -3.12286850E-01  4.56547160E-16
 -2.12494181E-02  1.43916078E-01  7.68414945E-01 -2.35342377E-01  1.05421347E-15
  8.45000735E-02 -5.90933007E-01  3.46237443E-01  3.66247953E-01 -1.14421867E-15
  4.85078735E-02 -2.76679885E-01 -4.85078735E-02  2.76679885E-01  4.73134805E-02
 -3.24376681E-01 -7.08562047E-02 -4.07258503E-02  3.61843619E-16  2.33697583E-03
 -1.85335245E-02  2.00655493E-01 -1.18244869E-01  2.48433894E-16  9.93639860E-02
  1.32210931E-01  1.13141516E-01 -4.73134805E-02  3.24376681E-01 -7.08562047E-02
 -4.07258503E-02 -4.55846475E-16 -2.33697583E-03  1.85335245E-02  2.00655493E-01
 -1.18244869E-01  6.89549890E-16 -9.93639860E-02 -1.32210931E-01 -1.13141516E-01
 -7.37984269E-02  4.99079298E-01  8.37958719E-02 -3.16761974E-01  1.52228345E-15
 -1.05102737E-02  8.86143547E-02  4.27467196E-02  1.62665998E-01 -1.79923177E-15
 -5.86600271E-02  4.00940799E-01 -1.93700534E-01 -2.81314429E-01  1.02251652E-15
  7.37984269E-02 -4.99079298E-01  8.37958719E-02 -3.16761974E-01 -3.93708079E-16
  1.05102737E-02 -8.86143547E-02  4.27467196E-02  1.62665998E-01  1.28696373E-15
  5.86600271E-02 -4.00940799E-01 -1.93700534E-01 -2.81314429E-01 -1.28920495E-16
 -1.20403603E-01 -1.50226067E-01  1.20403603E-01  1.50226067E-01  4.13029887E-02
 -3.15554553E-01  5.14924389E-01  2.03988082E-01  7.60044684E-16 -2.21112879E-02
  1.62767784E-01 -1.45537693E-01 -5.98235969E-01  1.40096992E-15  3.37455285E-01
 -2.63972605E-01  4.12924417E-01 -4.13029887E-02  3.15554553E-01  5.14924389E-01
  2.03988082E-01 -2.29507857E-16  2.21112879E-02 -1.62767784E-01 -1.45537693E-01
 -5.98235969E-01  1.84696713E-15 -3.37455285E-01  2.63972605E-01 -4.12924417E-01
  9.27033050E-03 -3.96082453E-02 -4.52159569E-01 -1.31845404E-01  1.11602732E-15
  1.90516559E-02 -1.34589414E-01  1.95505764E-01  2.13308285E-01 -1.85456436E-15
 -2.31828060E-02  1.55569324E-01  6.34486906E-02  2.94926350E-01 -1.97379907E-16
  9.27033050E-03 -3.96082453E-02  4.52159569E-01  1.31845404E-01 -9.76500633E-16
  1.90516559E-02 -1.34589414E-01 -1.95505764E-01 -2.13308285E-01  1.66570154E-15
 -2.31828060E-02  1.55569324E-01 -6.34486906E-02 -2.94926350E-01 -1.96668531E-16
 -1.52210938E-01 -2.36426569E-01 -1.52210938E-01 -2.36426569E-01 -2.01074728E-02
  1.24182950E-01  3.67595235E-01  4.61965995E-01 -8.03205047E-17  1.98776837E-02
 -1.43430438E-01 -4.48935570E-01 -3.49726409E-01  1.22431337E-15  3.42842826E-01
 -3.24213450E-01  4.20086505E-01 -2.01074728E-02  1.24182950E-01 -3.67595235E-01
 -4.61965995E-01  5.24327001E-16  1.98776837E-02 -1.43430438E-01  4.48935570E-01
  3.49726409E-01 -3.33211953E-16  3.42842826E-01 -3.24213450E-01  4.20086505E-01
 -2.99173517E-03  1.27680554E-02  2.10821894E-01 -2.04166460E-01  6.08277301E-16
  1.91446808E-02 -1.38936260E-01  4.77993139E-01 -4.62659346E-02  1.64588616E-17
 -1.90781699E-02  1.38109132E-01  4.81798886E-01  7.93512611E-02  6.84186277E-18
 -2.99173517E-03  1.27680554E-02 -2.10821894E-01  2.04166460E-01 -5.18180515E-16
  1.91446808E-02 -1.38936260E-01 -4.77993139E-01  4.62659346E-02  2.44776555E-16
 -1.90781699E-02  1.38109132E-01 -4.81798886E-01 -7.93512611E-02  1.89328985E-16
 -1.76044499E-02  1.63447858E-01 -1.76044499E-02  1.63447858E-01 -6.16721811E-02
  4.79602256E-01 -5.26329333E-01  3.74140625E-01 -3.73070155E-16  5.91474938E-02
 -4.54154917E-01 -3.81731417E-01  5.42556515E-01 -1.18618256E-15 -1.08272041E-03
 -2.37873978E-02 -1.61279677E-01 -6.16721811E-02  4.79602256E-01  5.26329333E-01
 -3.74140625E-01  5.60126220E-16  5.91474938E-02 -4.54154917E-01  3.81731417E-01
 -5.42556515E-01  4.30809141E-16 -1.08272041E-03 -2.37873978E-02 -1.61279677E-01
  4.67657879E-03 -3.26732099E-02  1.25370156E-01 -4.60894295E-01  1.07592308E-15
 -4.09205522E-02  3.06779383E-01  1.34201074E-01 -1.24537219E-01 -4.19631707E-16
 -2.56604479E-02  1.94888953E-01 -1.84440419E-01 -1.37754801E-01  5.01878617E-16
 -4.67657879E-03  3.26732099E-02  1.25370156E-01 -4.60894295E-01  9.09927931E-16
  4.09205522E-02 -3.06779383E-01  1.34201074E-01 -1.24537219E-01  7.17190230E-16
  2.56604479E-02 -1.94888953E-01 -1.84440419E-01 -1.37754801E-01  4.93911436E-16
 -5.05357219E-02 -5.86322710E-02  5.05357219E-02  5.86322710E-02 -6.51560173E-02
  5.07539265E-01 -4.15989503E-01  6.62319617E-01 -1.19794864E-15  7.16792280E-02
 -5.59719663E-01 -5.41916048E-01  4.37173956E-01 -8.36442258E-16  1.92677058E-01
 -1.10115906E-01 -9.59914110E-03  6.51560173E-02 -5.07539265E-01 -4.15989503E-01
  6.62319617E-01 -9.69412189E-16 -7.16792280E-02  5.59719663E-01 -5.41916048E-01
  4.37173956E-01 -7.52494089E-16 -1.92677058E-01  1.10115906E-01  9.59914110E-03
  1.52324689E-04 -2.67236526E-03 -1.27243143E-01  7.26680135E-01 -1.58150216E-15
  1.22430028E-02 -9.36203471E-02 -5.35271711E-01  2.60981098E-01 -5.94067994E-16
 -1.29780854E-02  9.78307134E-02 -3.86750228E-01 -4.71630670E-01  8.62844033E-16
  1.52324689E-04 -2.67236526E-03  1.27243143E-01 -7.26680135E-01  1.19841219E-15
  1.22430028E-02 -9.36203471E-02  5.35271711E-01 -2.60981098E-01  7.05629223E-16
 -1.29780854E-02  9.78307134E-02  3.86750228E-01  4.71630670E-01 -9.08085598E-16
 -1.85205249E-02  3.85820775E-02 -1.85205249E-02  3.85820775E-02 -3.17818186E-02
  2.57176541E-01 -2.52771696E-01  4.51159284E-01 -7.53702546E-16  4.01754935E-02
 -3.25385047E-01 -3.12398802E-01  2.63921585E-01 -2.14891338E-16  1.62833106E-01
 -5.91216261E-02 -2.86023880E-02 -3.17818186E-02  2.57176541E-01  2.52771696E-01
 -4.51159284E-01  1.23248151E-15  4.01754935E-02 -3.25385047E-01  3.12398802E-01
 -2.63921585E-01  4.49088604E-16  1.62833106E-01 -5.91216261E-02 -2.86023880E-02
 -6.17733461E-02  4.73329425E-01 -6.40773591E-01 -1.42638399E-01  1.46373111E-16
  6.15527708E-02 -4.57226904E-01  2.05843920E-01  6.19333092E-01 -1.20456112E-15
 -6.11615204E-02  4.55453013E-01  4.35958826E-01 -5.07236801E-01  1.21250166E-15
  6.17733461E-02 -4.73329425E-01 -6.40773591E-01 -1.42638399E-01  2.05637880E-16
 -6.15527708E-02  4.57226904E-01  2.05843920E-01  6.19333092E-01 -1.13987692E-15
  6.11615204E-02 -4.55453013E-01  4.35958826E-01 -5.07236801E-01  1.14584318E-15
 -2.59971128E-01  2.84530736E-01  2.59971128E-01 -2.84530736E-01  1.28822386E-02
 -7.82228692E-02 -2.51757126E-01 -3.53198318E-02  2.13160499E-16  1.43282247E-03
 -2.02009636E-02  3.03542171E-02  1.58839670E-01 -4.38038693E-16 -4.02929159E-02
  4.52725076E-02 -1.31442880E-01 -1.28822386E-02  7.82228692E-02 -2.51757126E-01
 -3.53198318E-02 -3.83478235E-16 -1.43282247E-03  2.02009636E-02  3.03542171E-02
  1.58839670E-01  1.08003252E-16  4.02929159E-02 -4.52725076E-02  1.31442880E-01
Alpha Orbital Energies                     R   N=          60
 -1.00179460E+01 -1.00178808E+01 -1.00075537E+01 -1.00075524E+01 -1.00066516E+01
 -1.00066179E+01 -1.00055932E+01 -1.00054840E+01 -9.99193933E+00 -9.99193925E+00
 -8.17968906E-01 -7.55042829E-01 -7.20681405E-01 -7.04133301E-01 -6.70200684E-01
 -5.85104046E-01 -5.60592806E-01 -5.31909989E-01 -5.12122224E-01 -4.61922367E-01
 -4.38532677E-01 -4.10393340E-01 -3.99581209E-01 -3.97105736E-01 -3.75506749E-01
 -3.57773607E-01 -3.48959576E-01 -3.30157019E-01 -3.05265737E-01 -2.95445947E-01
 -2.80882320E-01 -2.63147604E-01 -2.16034470E-01 -1.97518557E-01 -1.60057721E-01
  4.95838437E-02  9.07282396E-02  1.16449694E-01  1.81464069E-01  2.80319326E-01
  3.19225284E-01  3.29553971E-01  3.65405725E-01  3.70265992E-01  4.12872142E-01
  4.15962775E-01  4.21560144E-01  4.45728751E-01  4.68764599E-01  4.95870285E-01
  5.38765708E-01  5.70547969E-01  5.86753985E-01  6.10133748E-01  6.26516518E-01
  6.45740736E-01  6.92812293E-01  7.43017549E-01  8.06225046E-01  8.16027791E-01
Total SCF Density                          R   N=        1830
  2.06668596E+00 -2.05283881E-01  8.37298289E-01 -8.40508554E-04  3.01347992E-02
  6.04964139E-01 -2.15391619E-04  6.94650472E-03  3.07341732E-04  6.05358425E-01
 -3.92930639E-16 -1.62503054E-16  1.61200068E-16 -3.54678284E-16  7.68062736E-01
  2.58573388E-02 -6.76416576E-02  7.53912475E-02 -8.70672037E-02  8.01397556E-17
  2.06694282E+00 -6.82714541E-02  9.11463408E-02 -1.87787693E-01  2.16531826E-01
 -8.65214292E-17 -2.01991114E-01  8.17395908E-01 -7.79876961E-02  1.91617589E-01
 -1.85793647E-01  2.48210662E-01  1.11803561E-16 -2.03764476E-03  1.12501572E-02
  6.06168063E-01  8.65792882E-02 -2.21454474E-01  2.38912670E-01 -2.53719116E-01
  1.93169212E-15 -4.61582740E-03  2.94934282E-02  8.37030338E-03  6.19712202E-01
 -1.76693238E-16  6.77831996E-16 -3.25141840E-16 -3.30687541E-17  4.77644229E-01
  1.06140428E-16  1.86803938E-16  1.07658446E-15  9.08318979E-16  7.96353566E-01
 -4.76921932E-03  1.42616678E-02 -2.06858360E-02  8.93148948E-03 -4.52759485E-16
  2.54091541E-02 -6.63443826E-02  1.13504964E-01  2.41479689E-02 -9.07403168E-17
  2.06686990E+00  1.44928610E-02 -3.27126976E-02  7.96198826E-02 -2.43558498E-02
  9.06925909E-16 -6.63091745E-02  8.60007654E-02 -2.84368691E-01 -6.73900330E-02
  1.37867546E-15 -2.01527959E-01  8.15506123E-01  2.37690036E-02 -8.34183847E-02
  8.28207928E-02 -4.56535098E-02  5.57684917E-16 -1.13738876E-01  2.87682649E-01
 -4.47489333E-01 -8.92666891E-02  3.06854684E-16  3.66366011E-03 -2.17114990E-02
  6.13325207E-01 -6.21529048E-03  3.26828264E-02 -4.48151742E-03  2.45180178E-02
 -1.29557541E-15 -2.21567901E-02  4.90881076E-02 -1.00706183E-01 -1.20171956E-03
 -6.77780559E-17 -3.78183489E-03  2.42595126E-02 -1.27321118E-02  6.16919516E-01
  5.27686332E-16 -1.21669098E-16  3.80454453E-16 -1.01552051E-15 -6.08684726E-02
 -1.25890226E-16  4.01600754E-16  9.32580537E-16  1.49539638E-15  5.19361963E-01
  1.40489773E-16  7.20058426E-16  3.14193544E-16 -8.21479336E-16  7.94461976E-01
 -4.48826794E-03  1.55106480E-02 -1.31778788E-02 -2.96555660E-03  2.62969326E-16
 -4.86750822E-03  1.48969090E-02 -1.98720113E-02 -1.47625652E-02  5.16454760E-16
  2.60619833E-02 -6.89801196E-02  3.86803436E-02  1.08649096E-01 -3.11404931E-17
  2.06668596E+00  1.55106480E-02 -5.26339536E-02  4.90905691E-02  1.14106182E-02
 -1.28619183E-15  1.46343990E-02 -3.42016373E-02  6.57088294E-02  6.13356028E-02
 -2.63464417E-15 -6.82431781E-02  9.30448511E-02 -9.29102302E-02 -2.70893152E-01
 -1.54250276E-15 -2.05283881E-01  8.37298289E-01  1.31778788E-02 -4.90905691E-02
  4.23758086E-02  1.90176231E-02  5.51902258E-16  1.51628534E-02 -6.21923983E-02
  5.41316342E-02  1.73047218E-02  1.38881794E-15 -3.45189445E-02  8.50612312E-02
 -1.66058291E-02 -1.47608676E-01  1.04905990E-15  8.40508554E-04 -3.01347992E-02
  6.04964139E-01  2.96555660E-03 -1.14106182E-02  1.90176231E-02 -5.45349656E-02
 -1.21673922E-15  1.63287803E-02 -5.36887324E-02  5.91040490E-02  5.03618756E-02
 -1.08287540E-15 -1.09624616E-01  2.72385958E-01 -1.48612635E-01 -4.20396956E-01
  1.15897093E-15  2.15391619E-04 -6.94650472E-03  3.07341732E-04  6.05358425E-01
  5.93106437E-17 -1.58398497E-16  6.14756540E-16 -3.98999741E-16 -3.14567907E-01
 -1.66855121E-16  2.04799056E-16 -1.14053730E-16  4.41897519E-16 -5.88132533E-02
  1.89118785E-16 -8.01198152E-16  1.06035034E-15  5.77813841E-16  4.79058307E-01
  9.25354032E-17 -1.58428807E-16  6.06977700E-16 -2.46878604E-16  7.68062736E-01
 -4.86750822E-03  1.46343990E-02 -1.51628534E-02 -1.63287803E-02 -2.48785047E-16
 -4.39787486E-03  1.50469524E-02 -3.84948310E-03 -1.20848008E-02  2.96835596E-16
 -5.22604154E-03  1.67500703E-02  2.44465931E-03 -2.41582752E-02  3.11028798E-16
  2.58573388E-02 -6.76416576E-02 -7.53912475E-02  8.70672037E-02 -5.18191517E-16
  2.06694282E+00  1.48969090E-02 -3.42016373E-02  6.21923983E-02  5.36887324E-02
  1.16504618E-16  1.50469524E-02 -5.05251515E-02  1.37403854E-02  4.44991395E-02
 -1.99215065E-16  1.67550083E-02 -4.38915646E-02 -1.71433738E-02  8.92745812E-02
 -4.89035141E-16 -6.82714541E-02  9.11463408E-02  1.87787693E-01 -2.16531826E-01
  5.08562395E-16 -2.01991114E-01  8.17395908E-01  1.98720113E-02 -6.57088294E-02
  5.41316342E-02  5.91040490E-02 -4.48660572E-16  3.84948310E-03 -1.37403854E-02
 -4.19040911E-02  2.98156790E-02 -7.02421445E-16 -7.24864132E-03  1.93234119E-02
  1.47654324E-02 -3.89660691E-02 -3.11174625E-16  7.79876961E-02 -1.91617589E-01
 -1.85793647E-01  2.48210662E-01 -1.05552919E-15  2.03764476E-03 -1.12501572E-02
  6.06168063E-01  1.47625652E-02 -6.13356028E-02  1.73047218E-02  5.03618756E-02
 -9.62473379E-16  1.20848008E-02 -4.44991395E-02  2.98156790E-02  3.14372434E-02
 -3.92750623E-16  2.31310378E-02 -8.84105101E-02  6.98421111E-03  8.99337504E-02
 -3.77241073E-16 -8.65792882E-02  2.21454474E-01  2.38912670E-01 -2.53719116E-01
  5.22150718E-16  4.61582740E-03 -2.94934282E-02  8.37030338E-03  6.19712202E-01
 -1.59162379E-16  1.43830370E-16  6.56933770E-17  8.67606279E-16 -5.88132533E-02
 -2.77210102E-16  1.70623680E-16 -2.99129302E-16 -3.49544089E-16 -3.25090824E-01
  2.32739739E-16 -2.55473266E-16  8.04946152E-16 -9.12865781E-16 -5.26031087E-02
  2.16080200E-16 -2.00214083E-17 -8.93201629E-16  1.25600443E-15  4.77644229E-01
  3.96432097E-16  6.21616740E-17 -3.33698487E-16 -1.18422695E-15  7.96353566E-01
  2.60619833E-02 -6.82431781E-02  3.45189445E-02  1.09624616E-01 -1.23267263E-16
 -5.22604154E-03  1.67550083E-02  7.24864132E-03 -2.31310378E-02  2.00030383E-16
 -4.37364702E-03  1.49426084E-02  8.25557557E-03 -9.74121141E-03  4.19806519E-16
 -4.76921932E-03  1.42616678E-02  2.06858360E-02 -8.93148948E-03 -2.48499471E-16
  2.54091541E-02 -6.63443826E-02 -1.13504964E-01 -2.41479689E-02 -2.61001095E-16
  2.06686990E+00 -6.89801196E-02  9.30448511E-02 -8.50612312E-02 -2.72385958E-01
  6.42961153E-16  1.67500703E-02 -4.38915646E-02 -1.93234119E-02  8.84105101E-02
 -1.16135118E-15  1.49426084E-02 -5.00910536E-02 -2.99248535E-02  3.61106992E-02
 -6.19954441E-16  1.44928610E-02 -3.27126976E-02 -7.96198826E-02  2.43558498E-02
  1.43241058E-15 -6.63091745E-02  8.60007654E-02  2.84368691E-01  6.73900330E-02
  1.69951984E-15 -2.01527959E-01  8.15506123E-01 -3.86803436E-02  9.29102302E-02
 -1.66058291E-02 -1.48612635E-01 -5.65155481E-16 -2.44465931E-03  1.71433738E-02
  1.47654324E-02  6.98421111E-03 -8.55339802E-16 -8.25557557E-03  2.99248535E-02
 -8.65650479E-03 -4.77367867E-02 -8.39093796E-16 -2.37690036E-02  8.34183847E-02
  8.28207928E-02 -4.56535098E-02  5.24948561E-17  1.13738876E-01 -2.87682649E-01
 -4.47489333E-01 -8.92666891E-02  5.28783297E-16 -3.66366011E-03  2.17114990E-02
  6.13325207E-01 -1.08649096E-01  2.70893152E-01 -1.47608676E-01 -4.20396956E-01
  1.57135667E-15  2.41582752E-02 -8.92745812E-02 -3.89660691E-02  8.99337504E-02
 -4.88532541E-16  9.74121141E-03 -3.61106992E-02 -4.77367867E-02 -1.64173582E-03
 -8.04140033E-16  6.21529048E-03 -3.26828264E-02 -4.48151742E-03  2.45180178E-02
 -1.00484482E-16  2.21567901E-02 -4.90881076E-02 -1.00706183E-01 -1.20171956E-03
  9.95907617E-16  3.78183489E-03 -2.42595126E-02 -1.27321118E-02  6.16919516E-01
 -2.88039713E-16 -5.75172648E-16  5.70501697E-16  1.94779906E-15  4.79058307E-01
  1.99067865E-16 -5.27699398E-18  2.85254827E-16  1.04045254E-15 -5.26031087E-02
  2.14030267E-17 -1.48208027E-17  5.22227943E-16 -1.27910829E-15 -3.32024901E-01
 -2.48683598E-16  5.84138356E-16  1.64001998E-16 -5.41551762E-16 -6.08684726E-02
  3.82276784E-17 -1.33466882E-16 -1.47529029E-16  5.52042794E-16  5.19361963E-01
 -4.33702377E-16  1.47013382E-15  3.10360848E-16  4.44381124E-16  7.94461976E-01
  2.70172829E-02 -1.02684151E-01  3.17088271E-02 -1.24641518E-01 -4.17134030E-16
 -1.13947170E-01  2.90926104E-01  1.74745017E-01  5.19824754E-01 -1.59494311E-15
  2.75019974E-02 -1.01844384E-01 -9.51367872E-02 -8.23801473E-02 -3.83510634E-16
 -1.83001397E-02  6.85329631E-02  3.44477605E-02  9.24318784E-02 -3.01828209E-16
 -2.17767496E-03  7.55253683E-03  4.02639009E-03  6.22429146E-03 -7.84750976E-16
 -1.81632307E-02  6.84839075E-02  2.61435348E-02  9.42734241E-02 -2.32399682E-16
  5.87050124E-01 -1.86100981E-02  7.03247633E-02 -6.61120681E-02  7.14940535E-02
  8.63135639E-18  2.74070976E-02 -1.01534344E-01  1.19481501E-01 -3.65235800E-02
  3.88072310E-16 -1.14376769E-01  2.91713614E-01 -3.64137986E-01  4.09824069E-01
 -2.88110123E-16  2.63710358E-02 -9.91706550E-02  1.78715775E-02 -1.26256699E-01
  1.26377945E-15 -1.82088727E-02  6.87282691E-02 -6.07779209E-02  7.54377890E-02
  5.05911177E-16 -2.13130902E-03  7.42087255E-03 -6.04536493E-03  4.43270947E-03
  4.19060935E-16 -7.54131086E-02  5.87099102E-01 -1.83001397E-02  6.85329631E-02
 -3.44477605E-02 -9.24318784E-02 -4.27736427E-16 -2.17767496E-03  7.55253683E-03
 -4.02639009E-03 -6.22429146E-03  1.16165456E-17 -1.81632307E-02  6.84839075E-02
 -2.61435348E-02 -9.42734241E-02 -4.20988654E-17  2.70172829E-02 -1.02684151E-01
 -3.17088271E-02  1.24641518E-01 -9.73693966E-16 -1.13947170E-01  2.90926104E-01
 -1.74745017E-01 -5.19824754E-01  2.36260271E-16  2.75019974E-02 -1.01844384E-01
  9.51367872E-02  8.23801473E-02 -1.47266176E-15  1.93770435E-02 -4.60797991E-02
  5.87050124E-01  2.63710358E-02 -9.91706550E-02 -1.78715775E-02  1.26256699E-01
 -2.93399278E-16 -1.82088727E-02  6.87282691E-02  6.07779209E-02 -7.54377890E-02
  1.19823371E-15 -2.13130902E-03  7.42087255E-03  6.04536493E-03 -4.43270947E-03
  2.06037247E-16 -1.86100981E-02  7.03247633E-02  6.61120681E-02 -7.14940535E-02
 -8.68088615E-16  2.74070976E-02 -1.01534344E-01 -1.19481501E-01  3.65235800E-02
 -1.56679571E-15 -1.14376769E-01  2.91713614E-01  3.64137986E-01 -4.09824069E-01
 -7.35598097E-17 -4.60797991E-02  1.89255309E-02 -7.54131086E-02  5.87099102E-01
  9.87606929E-05 -2.34319474E-04  1.05682240E-03 -4.15396329E-04 -1.03294216E-16
  3.06035751E-03 -1.11695221E-02  1.52001362E-02  3.85664398E-03 -3.94549835E-16
 -5.03509868E-03  1.70182902E-02 -1.77986289E-02 -1.44144024E-02 -3.73117126E-16
  1.94906469E-02 -5.44273691E-02  9.89913922E-02  2.10882185E-02 -3.06896551E-17
 -5.64467889E-03  1.99994243E-02 -2.31881996E-02  2.93734992E-03 -2.65311183E-16
  3.32126302E-03 -1.23186744E-02  1.65388815E-02  2.88975364E-03  1.05822262E-16
  6.67519048E-03  1.28713682E-02  1.50094431E-02  6.16701493E-03  2.06764464E+00
  4.44515825E-04 -1.95639764E-03 -8.50674775E-04  2.22333456E-03  1.20642278E-15
 -1.18532422E-02  4.07043276E-02 -6.32008463E-02 -1.64287390E-02  1.18815087E-15
  1.80323811E-02 -5.47153526E-02  7.43015804E-02  5.15096533E-02  1.11517013E-15
 -5.46933446E-02  9.76349241E-02 -2.83062611E-01 -5.86278605E-02  6.29962356E-16
  2.20696429E-02 -7.21508359E-02  9.93418649E-02 -9.68121876E-03  4.45311303E-16
 -1.34432988E-02  4.72897484E-02 -7.13549555E-02 -1.18596056E-02  8.66727307E-16
 -2.78649028E-02 -5.09586585E-02 -5.97797293E-02 -2.74738297E-02 -2.07421602E-01
  8.37945585E-01 -2.22047171E-03  9.13565445E-03 -9.38280424E-03 -3.02639423E-03
  6.08186476E-16 -1.45866959E-02  5.73425500E-02 -7.45295938E-02 -1.61528396E-02
  1.18840727E-15  1.92184234E-02 -7.00623227E-02  6.06281845E-02  6.91514556E-02
  1.01601618E-15 -9.93962695E-02  2.87410428E-01 -4.63154053E-01 -9.40416320E-02
 -3.29775649E-17  2.23486118E-02 -8.35366186E-02  8.78042026E-02 -4.93039111E-02
 -6.26523485E-16 -1.49396124E-02  5.95199471E-02 -7.48903023E-02 -1.40038835E-02
 -5.77377939E-16 -3.57825168E-02 -6.06128356E-02 -5.85643128E-02 -3.70225066E-02
  1.94552645E-04  3.41125735E-02  5.98042434E-01 -1.36643125E-03  5.90249356E-03
 -3.77766751E-03 -2.99292954E-03  7.39424949E-16 -5.48930862E-03  2.36664290E-02
 -2.35900800E-02 -1.81828421E-03  1.25888570E-15  1.36926307E-02 -5.53568076E-02
  2.32116192E-02  4.21542946E-02  1.21561004E-15 -2.36554221E-02  7.91229107E-02
 -1.10851188E-01 -1.77714602E-02 -5.19431781E-16 -8.93905309E-03  4.02801328E-02
 -1.10294889E-02 -1.08922315E-02 -1.35653258E-15  1.99007582E-04 -2.41027884E-03
 -4.44542078E-03  2.95967007E-03 -1.41168584E-15 -1.11185550E-02 -2.92931322E-02
  3.85725737E-03 -7.45925885E-03  4.86440981E-03 -3.60197761E-02 -4.76383654E-04
  6.18852340E-01 -3.87354602E-16  1.40623301E-16  5.74809921E-16  4.51364002E-16
  1.29383323E-02  9.83938349E-17 -5.59530404E-16 -4.81359788E-17  1.78526965E-16
 -4.45370049E-02 -2.58703253E-16 -4.80697939E-16  7.22783318E-16 -6.61383676E-16
 -4.37619524E-02 -2.50435335E-16  1.79070969E-15  5.63153967E-16 -1.21739811E-16
  1.62960081E-01  1.31604977E-16 -5.21960101E-16 -1.59013461E-16 -1.19844661E-16
 -4.13604777E-02  2.09423618E-16  9.61200953E-16  2.13788573E-16 -1.75461641E-16
 -3.08799765E-02  1.34166114E-15  1.04767888E-15 -9.88817856E-16 -4.10370344E-16
  6.57361268E-16  1.77080707E-16 -1.03721442E-15 -3.56459102E-16  7.82740386E-01
 -4.71838474E-04  1.91718405E-03 -1.75941046E-03  1.04084721E-03  4.45574447E-17
  9.82700360E-04 -3.34294651E-03  3.90530348E-03  6.07311572E-04  2.86979586E-16
 -3.64441462E-03  1.24301765E-02 -1.19064962E-02  1.67183082E-03 -2.12640088E-17
 -4.86002140E-03  1.72394868E-02 -2.28940898E-02  4.61281972E-03  8.34294760E-16
  3.09843558E-03 -1.17004859E-02  1.00855616E-02 -5.73707381E-03  5.27466958E-16
 -1.33683623E-03  5.41185889E-03 -6.00252407E-03 -6.19944715E-04  2.51576412E-16
 -3.74513843E-04  7.62679875E-03 -3.27503991E-03 -2.99311798E-03  3.01259113E-02
 -7.71353919E-02  8.54976532E-02 -9.21622747E-02 -6.97037150E-16  2.06738115E+00
  1.78948342E-03 -6.95432488E-03  7.10882653E-03 -4.57147367E-03 -8.24559250E-16
 -3.76707565E-03  1.23273998E-02 -1.61652545E-02 -1.91630402E-03 -8.07078105E-16
  1.20665744E-02 -4.10136053E-02  4.54835011E-02 -6.33887216E-03 -1.10982141E-15
  1.39684943E-02 -4.31974079E-02  7.42744789E-02 -2.37672646E-02 -6.46246260E-16
 -1.08612779E-02  3.75501367E-02 -3.97209349E-02  1.94562417E-02 -4.91107672E-16
  5.00206403E-03 -1.90361316E-02  2.38586943E-02  1.33743246E-03 -3.54945532E-16
  5.83733648E-04 -2.74611457E-02  1.06794991E-02  1.17643294E-02 -7.73519052E-02
  9.57176374E-02 -1.95087486E-01  2.21131497E-01  8.13596423E-17 -2.02065279E-01
  8.11272186E-01  1.08555530E-03 -5.35740120E-03  3.15585431E-03 -6.50281434E-04
 -3.24302792E-16 -1.79374337E-03  5.65122127E-03 -5.28204243E-03 -4.40224424E-03
  3.74329482E-16  9.69800546E-03 -3.70912231E-02  2.80298840E-02  9.90098120E-04
  7.18234008E-17  2.21725791E-02 -9.23701020E-02  9.22940134E-02 -1.71355384E-03
  4.09455333E-16 -9.86836521E-03  4.04700728E-02 -2.81432828E-02  2.46655907E-02
  6.89678832E-16  4.38434622E-03 -1.95910738E-02  1.87291346E-02  4.24552075E-03
  1.03763252E-15  9.07909549E-04  5.13954275E-03  1.29374742E-02  1.10030266E-02
 -8.97366646E-02  2.13059774E-01 -1.90859120E-01  2.38007575E-01 -3.31113575E-16
  2.92762271E-03 -3.20638840E-02  6.19900193E-01  2.39733451E-03 -9.78993193E-03
  7.97112753E-03 -9.31860403E-03 -7.15565315E-16 -3.81901464E-03  1.52899246E-02
 -2.07721892E-02  8.71630642E-04  4.82214815E-16  7.37387957E-03 -2.98017990E-02
  3.79737957E-02 -5.16446884E-02 -7.14695538E-16 -3.00894971E-03  4.73259176E-03
 -3.39929601E-02  1.10936650E-02 -2.55426228E-16  9.01695788E-03 -3.51715696E-02
  3.37728511E-02 -1.71512435E-02 -6.49459208E-16 -3.15884294E-03  1.21822197E-02
 -1.75332957E-02 -2.53575829E-03  3.94003680E-16  7.57312083E-03 -3.40865113E-02
 -2.05097263E-03 -1.04171227E-02  8.71040962E-02 -2.01291092E-01  2.46961049E-01
 -2.11101922E-01  1.19288705E-15 -3.34681022E-03  3.37899664E-02  1.26047996E-02
  6.21469384E-01 -3.04298892E-16  2.81590177E-16  5.58281786E-16  5.90686987E-16
  1.46317849E-01  5.98201209E-16 -9.08434245E-16 -5.58800451E-16 -1.95233214E-16
  9.82477672E-03 -1.30261322E-16 -5.56347248E-16  1.01265011E-15 -1.30810320E-16
 -1.74873160E-01  1.39281936E-17  7.41312641E-16  5.23183563E-18 -5.54462167E-16
 -6.53374394E-02  6.10850717E-16 -4.50161446E-16 -4.45431636E-17 -1.02131688E-15
 -1.84007250E-01 -3.93580680E-16  3.65287207E-16  3.17051395E-16 -2.12373646E-16
  1.21092573E-02  7.87694467E-16  7.27522864E-16 -1.34439659E-16 -1.34858645E-16
 -6.99187267E-16  2.37288580E-16 -1.36527245E-15  1.35188156E-15  7.67202856E-01
 -4.93195514E-16  3.78203258E-17  9.87008668E-16  5.05123205E-16  8.24064539E-01
  1.30660020E-03 -6.56185769E-03  4.00819708E-03 -5.41856514E-03 -7.76121623E-16
  6.66507477E-03 -2.72699350E-02  3.05073709E-02  9.30196565E-03  6.63874583E-16
 -1.49009560E-02  5.64477671E-02 -2.80985941E-02 -7.70385776E-02  2.66748743E-16
  2.74301915E-02 -1.11749032E-01  1.18195395E-01  7.11506247E-02 -9.72026940E-16
  1.17026353E-02 -4.36652903E-02  3.46587473E-02 -1.32327126E-02 -2.05632149E-15
 -1.26357053E-03  3.00857811E-03 -3.10443886E-03  5.95595050E-03 -1.43457906E-15
  2.41398269E-02  1.31269810E-02  1.80856010E-02 -3.87050760E-03 -1.14054584E-01
  2.85835718E-01 -1.36452625E-01 -5.30808707E-01 -3.06833150E-16  2.92181873E-02
 -9.61886828E-02 -2.65712270E-02  1.20510961E-01 -1.21622420E-15  5.88304283E-01
 -1.95013250E-03  8.50421220E-03 -6.42582358E-03  1.70107197E-03  1.15069506E-15
 -1.92642261E-04  1.66223145E-03 -2.56756582E-03  1.59206398E-04 -8.92087506E-17
 -4.43723923E-03  1.69452684E-02 -1.81563238E-02  2.48827991E-02  6.55473955E-16
 -2.23933204E-02  9.38690291E-02 -1.18456236E-01 -1.29439343E-02  9.07979960E-16
  6.08014227E-03 -2.41816257E-02  2.38222123E-02 -2.42046696E-02  6.28323862E-16
 -4.18908864E-03  1.76356696E-02 -2.06703360E-02 -2.64633017E-03 -1.90030575E-16
 -8.07396848E-03 -6.09250589E-03 -1.20926065E-02 -1.27694424E-02  2.84179829E-02
 -8.83479262E-02  1.08870080E-01 -2.87747908E-02  9.56624800E-16 -1.12228016E-01
  2.82231026E-01 -5.36136971E-01 -1.33083462E-01 -2.61053393E-16 -9.12470498E-02
  5.85953817E-01  1.44811948E-03 -7.48178771E-03  2.14988450E-03 -3.66701782E-04
 -4.59126442E-16  1.84010744E-04  9.82744079E-05  6.45940413E-03 -2.69162280E-03
  9.46486782E-16  7.37024143E-03 -2.55164523E-02  1.39055207E-02 -3.75330963E-02
  1.58159081E-16  1.62978772E-02 -6.79376713E-02  8.27092460E-02  3.02505311E-03
  6.09127293E-16 -1.20815148E-03  1.79605393E-03 -8.68266218E-03  1.43275743E-02
  1.48423393E-16  1.75994579E-03 -6.98742279E-03  8.92450882E-03 -1.59863044E-04
  7.79394547E-16  8.80382407E-03  8.66667270E-03  5.38491257E-03  7.34199098E-03
  2.50043537E-02 -8.09169569E-02  2.91815777E-02 -1.18425334E-01 -1.41335011E-16
 -1.12566156E-01  2.81423980E-01  1.48449831E-01  5.31967614E-01 -8.97703650E-16
  1.41386799E-01 -1.60482676E-01  5.89052372E-01  1.94906469E-02 -5.44273691E-02
 -9.89913922E-02 -2.10882185E-02 -5.01164189E-16 -5.64467889E-03  1.99994243E-02
  2.31881996E-02 -2.93734992E-03  4.36499203E-16  3.32126302E-03 -1.23186744E-02
 -1.65388815E-02 -2.88975364E-03  7.88043826E-16  9.87606929E-05 -2.34319474E-04
 -1.05682240E-03  4.15396329E-04 -6.22537563E-16  3.06035751E-03 -1.11695221E-02
 -1.52001362E-02 -3.85664398E-03  2.98913678E-16 -5.03509868E-03  1.70182902E-02
  1.77986289E-02  1.44144024E-02  3.34938372E-16  1.50094431E-02  6.16701493E-03
  6.67519048E-03  1.28713682E-02  6.52484716E-04 -3.11677772E-03 -2.57943406E-03
 -2.10896481E-04 -3.59763370E-16  9.22316416E-05 -3.80388955E-04 -7.47490011E-05
 -1.37902201E-03  2.12626834E-16  4.26308609E-04  5.74766611E-05  3.52256523E-05
  2.06764464E+00 -5.46933446E-02  9.76349241E-02  2.83062611E-01  5.86278605E-02
 -1.48734996E-17  2.20696429E-02 -7.21508359E-02 -9.93418649E-02  9.68121876E-03
 -4.12225594E-16 -1.34432988E-02  4.72897484E-02  7.13549555E-02  1.18596056E-02
 -1.96679830E-16  4.44515825E-04 -1.95639764E-03  8.50674775E-04 -2.22333456E-03
 -9.63421197E-17 -1.18532422E-02  4.07043276E-02  6.32008463E-02  1.64287390E-02
 -6.64522001E-18  1.80323811E-02 -5.47153526E-02 -7.43015804E-02 -5.15096533E-02
  2.85825121E-17 -5.97797293E-02 -2.74738297E-02 -2.78649028E-02 -5.09586585E-02
 -3.11677772E-03  1.43266054E-02  1.26559030E-02  1.23973934E-03 -3.50638347E-16
 -3.70557013E-04  1.52203180E-03  2.75522166E-04  6.31699370E-03 -2.98791164E-16
 -2.00392439E-03 -4.70444670E-05  3.27840758E-05 -2.07421602E-01  8.37945585E-01
  9.93962695E-02 -2.87410428E-01 -4.63154053E-01 -9.40416320E-02  2.28328153E-16
 -2.23486118E-02  8.35366186E-02  8.78042026E-02 -4.93039111E-02  2.73829711E-16
  1.49396124E-02 -5.95199471E-02 -7.48903023E-02 -1.40038835E-02  1.25265469E-17
  2.22047171E-03 -9.13565445E-03 -9.38280424E-03 -3.02639423E-03 -9.46649142E-17
  1.45866959E-02 -5.73425500E-02 -7.45295938E-02 -1.61528396E-02  1.36745701E-16
 -1.92184234E-02  7.00623227E-02  6.06281845E-02  6.91514556E-02  7.53093531E-17
  5.85643128E-02  3.70225066E-02  3.57825168E-02  6.06128356E-02  2.57943406E-03
 -1.26559030E-02 -8.81037144E-03  2.61166281E-04  1.58277518E-16  5.98389237E-04
 -2.51862149E-03 -5.83320155E-04 -7.50315572E-03 -3.30594420E-18  4.74084077E-04
  1.37512844E-03 -1.76796611E-04 -1.94552645E-04 -3.41125735E-02  5.98042434E-01
  2.36554221E-02 -7.91229107E-02 -1.10851188E-01 -1.77714602E-02  3.05723326E-16
  8.93905309E-03 -4.02801328E-02 -1.10294889E-02 -1.08922315E-02 -1.02054115E-15
 -1.99007582E-04  2.41027884E-03 -4.44542078E-03  2.95967007E-03 -6.56906695E-16
  1.36643125E-03 -5.90249356E-03 -3.77766751E-03 -2.99292954E-03  6.85564516E-16
  5.48930862E-03 -2.36664290E-02 -2.35900800E-02 -1.81828421E-03  1.18587131E-15
 -1.36926307E-02  5.53568076E-02  2.32116192E-02  4.21542946E-02  2.41222302E-16
 -3.85725737E-03  7.45925885E-03  1.11185550E-02  2.92931322E-02  2.10896481E-04
 -1.23973934E-03  2.61166281E-04  6.53036734E-04  5.17608415E-16  4.42586498E-05
  2.16897730E-05 -1.68093530E-04 -1.50788764E-03  1.10581747E-15 -8.08994518E-04
  5.94322597E-04 -9.47239365E-04 -4.86440981E-03  3.60197761E-02 -4.76383654E-04
  6.18852340E-01  6.47571535E-16 -2.07983614E-15  3.04273357E-16 -7.04967067E-16
  1.62960081E-01  5.50928241E-16  1.10646359E-15  3.08295841E-16  2.41491715E-16
 -4.13604777E-02 -1.05796850E-16 -2.97048359E-16 -3.92550102E-16 -1.23357757E-15
 -3.08799765E-02  3.03604751E-16 -7.44898126E-16  1.52625063E-15 -1.00729217E-15
  1.29383323E-02  5.64375450E-17  4.47332566E-16 -1.35221566E-15 -5.78536159E-16
 -4.45370049E-02 -2.26269631E-16  1.34823457E-15  5.03699375E-16  6.84393943E-17
 -4.37619524E-02  2.47471384E-16  8.28424049E-16 -1.74679558E-15  4.29924588E-17
 -2.60726715E-17 -1.37208525E-16  3.30542716E-16  7.16476976E-16  1.58706312E-02
  9.46856902E-16 -1.30693686E-15  2.31009509E-16 -7.74755142E-16 -3.57797257E-03
  3.36371006E-16  6.28590484E-16  6.06873158E-16  2.91745136E-16  1.06414592E-15
  6.77306574E-17  8.50197306E-16  7.82740386E-01 -4.86002140E-03  1.72394868E-02
  2.28940898E-02 -4.61281972E-03 -1.65409853E-16  3.09843558E-03 -1.17004859E-02
 -1.00855616E-02  5.73707381E-03  5.94808027E-17 -1.33683623E-03  5.41185889E-03
  6.00252407E-03  6.19944715E-04  6.08342633E-17 -4.71838474E-04  1.91718405E-03
  1.75941046E-03 -1.04084721E-03 -4.21008106E-16  9.82700360E-04 -3.34294651E-03
 -3.90530348E-03 -6.07311572E-04 -2.34840268E-16 -3.64441462E-03  1.24301765E-02
  1.19064962E-02 -1.67183082E-03 -1.84742186E-16 -3.27503991E-03 -2.99311798E-03
 -3.74513843E-04  7.62679875E-03  9.22316416E-05 -3.70557013E-04 -5.98389237E-04
 -4.42586498E-05  4.10239703E-16 -1.73777073E-04  7.25966811E-04  4.34107601E-04
  2.11464406E-04 -3.16726075E-16 -1.88339569E-04 -5.16929211E-04  1.47063506E-04
  3.01259113E-02 -7.71353919E-02 -8.54976532E-02  9.21622747E-02 -2.20557690E-17
  2.06738115E+00  1.39684943E-02 -4.31974079E-02 -7.42744789E-02  2.37672646E-02
 -1.22271326E-16 -1.08612779E-02  3.75501367E-02  3.97209349E-02 -1.94562417E-02
 -3.37765914E-16  5.00206403E-03 -1.90361316E-02 -2.38586943E-02 -1.33743246E-03
 -4.71231356E-17  1.78948342E-03 -6.95432488E-03 -7.10882653E-03  4.57147367E-03
  5.32003887E-16 -3.76707565E-03  1.23273998E-02  1.61652545E-02  1.91630402E-03
  8.73508594E-16  1.20665744E-02 -4.10136053E-02 -4.54835011E-02  6.33887216E-03
  4.46780873E-16  1.06794991E-02  1.17643294E-02  5.83733648E-04 -2.74611457E-02
 -3.80388955E-04  1.52203180E-03  2.51862149E-03 -2.16897730E-05  4.36602479E-16
  7.25966811E-04 -2.93614708E-03 -1.98370942E-03 -7.88172901E-04  5.05047053E-16
  8.08887388E-04  2.17716790E-03 -7.99577350E-04 -7.73519052E-02  9.57176374E-02
  1.95087486E-01 -2.21131497E-01 -1.06134691E-16 -2.02065279E-01  8.11272186E-01
 -2.21725791E-02  9.23701020E-02  9.22940134E-02 -1.71355384E-03  4.42372594E-16
  9.86836521E-03 -4.04700728E-02 -2.81432828E-02  2.46655907E-02  5.84579127E-16
 -4.38434622E-03  1.95910738E-02  1.87291346E-02  4.24552075E-03  2.02202972E-16
 -1.08555530E-03  5.35740120E-03  3.15585431E-03 -6.50281434E-04 -4.29762057E-16
  1.79374337E-03 -5.65122127E-03 -5.28204243E-03 -4.40224424E-03 -2.32323036E-16
 -9.69800546E-03  3.70912231E-02  2.80298840E-02  9.90098120E-04 -3.55709150E-16
 -1.29374742E-02 -1.10030266E-02 -9.07909549E-04 -5.13954275E-03  7.47490011E-05
 -2.75522166E-04 -5.83320155E-04 -1.68093530E-04 -8.38123898E-16 -4.34107601E-04
  1.98370942E-03  6.56973177E-04  1.14959448E-03  5.02891022E-16 -5.10758461E-04
 -1.14473306E-03 -9.34744301E-05  8.97366646E-02 -2.13059774E-01 -1.90859120E-01
  2.38007575E-01 -1.57782664E-15 -2.92762271E-03  3.20638840E-02  6.19900193E-01
  3.00894971E-03 -4.73259176E-03 -3.39929601E-02  1.10936650E-02 -3.29232543E-16
 -9.01695788E-03  3.51715696E-02  3.37728511E-02 -1.71512435E-02 -5.27754742E-16
  3.15884294E-03 -1.21822197E-02 -1.75332957E-02 -2.53575829E-03 -8.41468227E-17
 -2.39733451E-03  9.78993193E-03  7.97112753E-03 -9.31860403E-03  4.41718890E-16
  3.81901464E-03 -1.52899246E-02 -2.07721892E-02  8.71630642E-04  1.44520026E-16
 -7.37387957E-03  2.98017990E-02  3.79737957E-02 -5.16446884E-02 -1.90914221E-16
  2.05097263E-03  1.04171227E-02 -7.57312083E-03  3.40865113E-02  1.37902201E-03
 -6.31699370E-03 -7.50315572E-03 -1.50788764E-03  4.22695272E-16 -2.11464406E-04
  7.88172901E-04  1.14959448E-03 -2.95304468E-03  1.97851023E-16 -4.81128649E-05
 -1.54774855E-03  9.94805583E-04 -8.71040962E-02  2.01291092E-01  2.46961049E-01
 -2.11101922E-01  1.70143069E-15  3.34681022E-03 -3.37899664E-02  1.26047996E-02
  6.21469384E-01 -7.39495390E-17 -1.83641455E-15  4.75548832E-16 -3.89694802E-16
 -6.53374394E-02 -3.39717206E-16  1.16161831E-15 -4.28364468E-16 -7.03783845E-16
 -1.84007250E-01  4.29249773E-16 -4.21986315E-16  1.95982361E-16 -8.16704512E-16
  1.21092573E-02  1.85599623E-16 -1.10332068E-15  4.50227404E-16 -2.97138471E-16
  1.46317849E-01 -5.06992263E-17  6.96403238E-16 -3.08110269E-16 -1.12065196E-15
  9.82477672E-03 -4.88283630E-17  1.14066036E-15 -4.63062730E-16 -8.89859542E-17
 -1.74873160E-01 -2.45694058E-16  4.28381115E-16 -1.27028587E-15 -9.03304311E-16
 -3.59576968E-16  1.24552738E-16  6.75088136E-16  1.03564827E-15 -3.57797257E-03
  7.53603935E-17 -1.05511000E-15  5.52161323E-16 -7.07931827E-16 -7.55545458E-02
  1.53473973E-16  4.04201548E-16  6.98515004E-16  3.35882150E-16  4.15541351E-17
 -1.53263041E-15  3.17565525E-15  7.67202856E-01  5.78858232E-16  1.12995166E-16
  8.89222438E-16 -1.69656678E-16  8.24064539E-01  2.74301915E-02 -1.11749032E-01
 -1.18195395E-01 -7.11506247E-02 -2.80185549E-17  1.17026353E-02 -4.36652903E-02
 -3.46587473E-02  1.32327126E-02  6.94261223E-16 -1.26357053E-03  3.00857811E-03
  3.10443886E-03 -5.95595050E-03  5.32228294E-16  1.30660020E-03 -6.56185769E-03
 -4.00819708E-03  5.41856514E-03 -4.92736676E-16  6.66507477E-03 -2.72699350E-02
 -3.05073709E-02 -9.30196565E-03 -9.20133424E-16 -1.49009560E-02  5.64477671E-02
  2.80985941E-02  7.70385776E-02 -1.24585526E-15  1.80856010E-02 -3.87050760E-03
  2.41398269E-02  1.31269810E-02  4.26308609E-04 -2.00392439E-03 -4.74084077E-04
  8.08994518E-04 -5.80084924E-16 -1.88339569E-04  8.08887388E-04  5.10758461E-04
  4.81128649E-05  1.08236348E-16  4.33308980E-04 -2.03007375E-04  6.77765453E-06
 -1.14054584E-01  2.85835718E-01  1.36452625E-01  5.30808707E-01 -1.62268759E-15
  2.92181873E-02 -9.61886828E-02  2.65712270E-02 -1.20510961E-01 -5.18811552E-16
  5.88304283E-01 -2.23933204E-02  9.38690291E-02  1.18456236E-01  1.29439343E-02
 -1.49198175E-16  6.08014227E-03 -2.41816257E-02 -2.38222123E-02  2.42046696E-02
 -2.23360592E-16 -4.18908864E-03  1.76356696E-02  2.06703360E-02  2.64633017E-03
 -1.21494939E-16 -1.95013250E-03  8.50421220E-03  6.42582358E-03 -1.70107197E-03
 -2.46690509E-16 -1.92642261E-04  1.66223145E-03  2.56756582E-03 -1.59206398E-04
 -1.51658564E-17 -4.43723923E-03  1.69452684E-02  1.81563238E-02 -2.48827991E-02
 -4.39281886E-16 -1.20926065E-02 -1.27694424E-02 -8.07396848E-03 -6.09250589E-03
  5.74766611E-05 -4.70444670E-05 -1.37512844E-03 -5.94322597E-04 -9.32356124E-16
 -5.16929211E-04  2.17716790E-03  1.14473306E-03  1.54774855E-03  1.38518842E-16
 -2.03007375E-04 -1.75907820E-03  6.25867205E-04  2.84179829E-02 -8.83479262E-02
 -1.08870080E-01  2.87747908E-02 -5.71856612E-16 -1.12228016E-01  2.82231026E-01
  5.36136971E-01  1.33083462E-01  1.21958715E-15 -9.12470498E-02  5.85953817E-01
  1.62978772E-02 -6.79376713E-02 -8.27092460E-02 -3.02505311E-03 -4.51938070E-17
 -1.20815148E-03  1.79605393E-03  8.68266218E-03 -1.43275743E-02  7.51601516E-18
  1.75994579E-03 -6.98742279E-03 -8.92450882E-03  1.59863044E-04 -7.19138012E-18
  1.44811948E-03 -7.48178771E-03 -2.14988450E-03  3.66701782E-04 -5.41840277E-18
  1.84010744E-04  9.82744079E-05 -6.45940413E-03  2.69162280E-03 -4.36418118E-17
  7.37024143E-03 -2.55164523E-02 -1.39055207E-02  3.75330963E-02 -1.18337397E-16
  5.38491257E-03  7.34199098E-03  8.80382407E-03  8.66667270E-03  3.52256523E-05
  3.27840758E-05  1.76796611E-04  9.47239365E-04  1.15085286E-16  1.47063506E-04
 -7.99577350E-04  9.34744301E-05 -9.94805583E-04  2.04530930E-17  6.77765453E-06
  6.25867205E-04 -4.76633206E-04  2.50043537E-02 -8.09169569E-02 -2.91815777E-02
  1.18425334E-01 -3.78604392E-17 -1.12566156E-01  2.81423980E-01 -1.48449831E-01
 -5.31967614E-01  1.09009720E-15  1.41386799E-01 -1.60482676E-01  5.89052372E-01
Pure Switching                             I                1
Dipole_Data                                R   N=           3
  1.73194447E-13  1.94923119E-13 -5.67858750E-15
Quadrupole_Data                            R   N=           6
 -5.09644158E+01 -1.10686459E-01 -5.01432026E+01 -1.04068141E-14 -1.15005648E-14
 -5.85742297E+01
Octapole_Data                              R   N=          10
 -1.36786045E-12  7.30473831E-13  6.24980261E-13  1.19480358E-13 -5.13517032E-14
  2.46064305E-15 -6.55625409E-15 -5.52754700E-14  7.42356674E-14 -2.56382271E-15
Hexadecapole_Data                          R   N=          15
 -1.81116257E+03  4.95824285E-01 -3.58424325E+02  3.46923086E+00 -3.29579189E+02
 -3.35084966E-13  3.18224255E-14 -4.62559204E-14  2.27859543E-13 -3.56711925E+02
 -6.70390247E-02 -7.21347382E+01 -1.13226428E-13  3.32425570E-13 -4.75456307E+01
