Jobname.Temp
SP        R                             STO-3G              
Number of atoms                            I               20
Charge                                     I                0
Multiplicity                               I                1
Number of electrons                        I               70
Number of alpha electrons                  I               35
Number of beta electrons                   I               35
Atomic numbers                             I   N=          20
           6           6           6           6           6           6
           1           1           1           1           6           6
           1           1           1           6           6           1
           1           1
Current cartesian coordinates              R   N=          60
  2.58290277E+00  5.26797819E-01 -7.59359635E-16  8.34595104E-01  2.50022004E+00
 -4.80205391E-15 -1.74784262E+00  1.97341116E+00 -4.04262387E-15 -2.58290277E+00
 -5.26797819E-01  7.59359635E-16 -8.34595104E-01 -2.50022004E+00  4.80205391E-15
  1.74784262E+00 -1.97341116E+00  4.04262387E-15  1.49330241E+00  4.47110415E+00
 -8.58735257E-15 -3.12599029E+00  3.52878408E+00 -7.22893583E-15 -1.49330241E+00
 -4.47110415E+00  8.58735257E-15  3.12599029E+00 -3.52878408E+00  7.22893583E-15
 -5.43458912E+00 -1.10885517E+00  1.59859989E-15 -7.18244858E+00  6.86446481E-01
 -2.09570409E-15 -5.90319098E+00 -3.13067751E+00  5.50345343E-15 -9.21608439E+00
  2.72072857E-01 -1.49860446E-15 -6.71384672E+00  2.70826884E+00 -6.00055767E-15
  5.43458912E+00  1.10885517E+00 -1.59859989E-15  7.18244858E+00 -6.86446481E-01
  2.09570409E-15  5.90319098E+00  3.13067751E+00 -5.50345343E-15  9.21608439E+00
 -2.72072857E-01  1.49860446E-15  6.71384672E+00 -2.70826884E+00  6.00055767E-15
Nuclear charges                            R   N=          20
  6.00000000E+00  6.00000000E+00  6.00000000E+00  6.00000000E+00  6.00000000E+00
  6.00000000E+00  1.00000000E+00  1.00000000E+00  1.00000000E+00  1.00000000E+00
  6.00000000E+00  6.00000000E+00  1.00000000E+00  1.00000000E+00  1.00000000E+00
  6.00000000E+00  6.00000000E+00  1.00000000E+00  1.00000000E+00  1.00000000E+00
Number of basis functions                  I               60
Number of contracted shells                I               30
Number of primitive shells                 I               90
Highest angular momentum                   I                1
Largest degree of contraction              I                3
Shell types                                I   N=          30
           0          -1           0          -1           0          -1
           0          -1           0          -1           0          -1
           0           0           0           0           0          -1
           0          -1           0           0           0           0
          -1           0          -1           0           0           0
Number of primitives per shell             I   N=          30
           3           3           3           3           3           3
           3           3           3           3           3           3
           3           3           3           3           3           3
           3           3           3           3           3           3
           3           3           3           3           3           3
Shell to atom map                          I   N=          30
           1           1           2           2           3           3
           4           4           5           5           6           6
           7           8           9          10          11          11
          12          12          13          14          15          16
          16          17          17          18          19          20
Primitive exponents                        R   N=          90
  7.16168370E+01  1.30450960E+01  3.53051220E+00  2.94124940E+00  6.83483100E-01
  2.22289900E-01  7.16168370E+01  1.30450960E+01  3.53051220E+00  2.94124940E+00
  6.83483100E-01  2.22289900E-01  7.16168370E+01  1.30450960E+01  3.53051220E+00
  2.94124940E+00  6.83483100E-01  2.22289900E-01  7.16168370E+01  1.30450960E+01
  3.53051220E+00  2.94124940E+00  6.83483100E-01  2.22289900E-01  7.16168370E+01
  1.30450960E+01  3.53051220E+00  2.94124940E+00  6.83483100E-01  2.22289900E-01
  7.16168370E+01  1.30450960E+01  3.53051220E+00  2.94124940E+00  6.83483100E-01
  2.22289900E-01  3.42525091E+00  6.23913730E-01  1.68855400E-01  3.42525091E+00
  6.23913730E-01  1.68855400E-01  3.42525091E+00  6.23913730E-01  1.68855400E-01
  3.42525091E+00  6.23913730E-01  1.68855400E-01  7.16168370E+01  1.30450960E+01
  3.53051220E+00  2.94124940E+00  6.83483100E-01  2.22289900E-01  7.16168370E+01
  1.30450960E+01  3.53051220E+00  2.94124940E+00  6.83483100E-01  2.22289900E-01
  3.42525091E+00  6.23913730E-01  1.68855400E-01  3.42525091E+00  6.23913730E-01
  1.68855400E-01  3.42525091E+00  6.23913730E-01  1.68855400E-01  7.16168370E+01
  1.30450960E+01  3.53051220E+00  2.94124940E+00  6.83483100E-01  2.22289900E-01
  7.16168370E+01  1.30450960E+01  3.53051220E+00  2.94124940E+00  6.83483100E-01
  2.22289900E-01  3.42525091E+00  6.23913730E-01  1.68855400E-01  3.42525091E+00
  6.23913730E-01  1.68855400E-01  3.42525091E+00  6.23913730E-01  1.68855400E-01
Contraction coefficients                   R   N=          90
  1.54328970E-01  5.35328140E-01  4.44634540E-01 -9.99672301E-02  3.99512830E-01
  7.00115471E-01  1.54328970E-01  5.35328140E-01  4.44634540E-01 -9.99672301E-02
  3.99512830E-01  7.00115471E-01  1.54328970E-01  5.35328140E-01  4.44634540E-01
 -9.99672301E-02  3.99512830E-01  7.00115471E-01  1.54328970E-01  5.35328140E-01
  4.44634540E-01 -9.99672301E-02  3.99512830E-01  7.00115471E-01  1.54328970E-01
  5.35328140E-01  4.44634540E-01 -9.99672301E-02  3.99512830E-01  7.00115471E-01
  1.54328970E-01  5.35328140E-01  4.44634540E-01 -9.99672301E-02  3.99512830E-01
  7.00115471E-01  1.54328971E-01  5.35328142E-01  4.44634542E-01  1.54328971E-01
  5.35328142E-01  4.44634542E-01  1.54328971E-01  5.35328142E-01  4.44634542E-01
  1.54328971E-01  5.35328142E-01  4.44634542E-01  1.54328970E-01  5.35328140E-01
  4.44634540E-01 -9.99672301E-02  3.99512830E-01  7.00115471E-01  1.54328970E-01
  5.35328140E-01  4.44634540E-01 -9.99672301E-02  3.99512830E-01  7.00115471E-01
  1.54328971E-01  5.35328142E-01  4.44634542E-01  1.54328971E-01  5.35328142E-01
  4.44634542E-01  1.54328971E-01  5.35328142E-01  4.44634542E-01  1.54328970E-01
  5.35328140E-01  4.44634540E-01 -9.99672301E-02  3.99512830E-01  7.00115471E-01
  1.54328970E-01  5.35328140E-01  4.44634540E-01 -9.99672301E-02  3.99512830E-01
  7.00115471E-01  1.54328971E-01  5.35328142E-01  4.44634542E-01  1.54328971E-01
  5.35328142E-01  4.44634542E-01  1.54328971E-01  5.35328142E-01  4.44634542E-01
P(S=P) Contraction coefficients            R   N=          90
  0.00000000E+00  0.00000000E+00  0.00000000E+00  1.55916272E-01  6.07683728E-01
  3.91957395E-01  0.00000000E+00  0.00000000E+00  0.00000000E+00  1.55916272E-01
  6.07683728E-01  3.91957395E-01  0.00000000E+00  0.00000000E+00  0.00000000E+00
  1.55916272E-01  6.07683728E-01  3.91957395E-01  0.00000000E+00  0.00000000E+00
  0.00000000E+00  1.55916272E-01  6.07683728E-01  3.91957395E-01  0.00000000E+00
  0.00000000E+00  0.00000000E+00  1.55916272E-01  6.07683728E-01  3.91957395E-01
  0.00000000E+00  0.00000000E+00  0.00000000E+00  1.55916272E-01  6.07683728E-01
  3.91957395E-01  0.00000000E+00  0.00000000E+00  0.00000000E+00  0.00000000E+00
  0.00000000E+00  0.00000000E+00  0.00000000E+00  0.00000000E+00  0.00000000E+00
  0.00000000E+00  0.00000000E+00  0.00000000E+00  0.00000000E+00  0.00000000E+00
  0.00000000E+00  1.55916272E-01  6.07683728E-01  3.91957395E-01  0.00000000E+00
  0.00000000E+00  0.00000000E+00  1.55916272E-01  6.07683728E-01  3.91957395E-01
  0.00000000E+00  0.00000000E+00  0.00000000E+00  0.00000000E+00  0.00000000E+00
  0.00000000E+00  0.00000000E+00  0.00000000E+00  0.00000000E+00  0.00000000E+00
  0.00000000E+00  0.00000000E+00  1.55916272E-01  6.07683728E-01  3.91957395E-01
  0.00000000E+00  0.00000000E+00  0.00000000E+00  1.55916272E-01  6.07683728E-01
  3.91957395E-01  0.00000000E+00  0.00000000E+00  0.00000000E+00  0.00000000E+00
  0.00000000E+00  0.00000000E+00  0.00000000E+00  0.00000000E+00  0.00000000E+00
Coordinates of each shell                  R   N=          90
  2.58290277E+00  5.26797819E-01 -7.59359635E-16  2.58290277E+00  5.26797819E-01
 -7.59359635E-16  8.34595104E-01  2.50022004E+00 -4.80205391E-15  8.34595104E-01
  2.50022004E+00 -4.80205391E-15 -1.74784262E+00  1.97341116E+00 -4.04262387E-15
 -1.74784262E+00  1.97341116E+00 -4.04262387E-15 -2.58290277E+00 -5.26797819E-01
  7.59359635E-16 -2.58290277E+00 -5.26797819E-01  7.59359635E-16 -8.34595104E-01
 -2.50022004E+00  4.80205391E-15 -8.34595104E-01 -2.50022004E+00  4.80205391E-15
  1.74784262E+00 -1.97341116E+00  4.04262387E-15  1.74784262E+00 -1.97341116E+00
  4.04262387E-15  1.49330241E+00  4.47110415E+00 -8.58735257E-15 -3.12599029E+00
  3.52878408E+00 -7.22893583E-15 -1.49330241E+00 -4.47110415E+00  8.58735257E-15
  3.12599029E+00 -3.52878408E+00  7.22893583E-15 -5.43458912E+00 -1.10885517E+00
  1.59859989E-15 -5.43458912E+00 -1.10885517E+00  1.59859989E-15 -7.18244858E+00
  6.86446481E-01 -2.09570409E-15 -7.18244858E+00  6.86446481E-01 -2.09570409E-15
 -5.90319098E+00 -3.13067751E+00  5.50345343E-15 -9.21608439E+00  2.72072857E-01
 -1.49860446E-15 -6.71384672E+00  2.70826884E+00 -6.00055767E-15  5.43458912E+00
  1.10885517E+00 -1.59859989E-15  5.43458912E+00  1.10885517E+00 -1.59859989E-15
  7.18244858E+00 -6.86446481E-01  2.09570409E-15  7.18244858E+00 -6.86446481E-01
  2.09570409E-15  5.90319098E+00  3.13067751E+00 -5.50345343E-15  9.21608439E+00
 -2.72072857E-01  1.49860446E-15  6.71384672E+00 -2.70826884E+00  6.00055767E-15
Orthonormalization Matrix                  R   N=        1830
  6.63838960E-03 -1.93231484E-17 -1.62418228E-02 -1.56631445E-02  2.70351666E-02
 -1.83982598E-04  4.30193011E-17 -1.55078837E-04  1.70420569E-03 -3.31767937E-03
 -1.05981640E-03  1.92669305E-02 -3.55761164E-17 -3.10883500E-17 -1.11350764E-01
 -1.32196747E-02  3.57678062E-17 -4.72787286E-05 -2.89939646E-03 -1.85805311E-04
 -6.41496437E-03 -1.34484000E-03  1.12240334E-04 -7.56861666E-17  1.25062734E-16
 -2.60401721E-04  1.30547032E-01 -1.34683647E-02  1.77704424E-02  2.37836976E-04
  2.78746179E-04 -6.81520192E-02  1.12607073E-02 -5.25422233E-16 -1.21887545E-03
 -1.84362001E-06  6.65599802E-17 -1.28555169E-03  5.87280091E-04 -1.52153217E-02
  2.65949432E-01  4.91096553E-17 -2.52840187E-16  2.26598547E-03  2.72702729E-16
 -3.55217179E-17 -1.77704424E-02 -5.13295342E-17  4.65039958E-03 -3.05864637E-03
  3.33215152E-04 -1.02604641E-02 -3.70303746E-03 -1.03673198E-16 -3.40361146E-01
  0.00000000E+00 -4.78617724E-03 -1.05981640E-03 -7.56180560E-03  9.62690058E-04
  6.59586660E-04 -1.09977004E-02 -2.65949432E-01  4.63443297E-17  1.23870375E-02
 -1.42430198E-02 -1.57749434E-03 -8.95571189E-17  3.63509406E-16  3.40169819E-04
  8.03071696E-18 -4.26076877E-04  1.48430797E-04 -5.37351051E-17  2.99639414E-18
 -5.50282386E-17 -9.29956075E-02 -1.46570724E-02 -8.87996795E-17  1.73064936E-04
 -3.04757699E-01 -3.57755952E-02 -8.42560439E-03  1.14115066E-02  3.29940236E-03
 -7.42767498E-04  3.29359122E-04 -7.05824208E-04  1.26390212E+00 -2.18023280E-17
  3.15365731E-06 -5.10530629E-02  1.75600054E-17  3.33261641E-05 -3.78375334E-03
  4.41777969E-04  5.96755777E-18 -2.30776107E-02 -2.33164222E-01 -3.61631840E-03
 -3.14873706E-03 -1.13275912E-01  1.30547032E-01  9.78802397E-18  3.67450530E-03
  3.31654987E-04 -7.83888161E-16  1.03671375E+00  1.37341671E-18 -3.49979152E-04
 -1.09216829E-02 -3.17907657E-17 -1.79145688E-18 -1.20644455E-04  5.97200506E-16
 -2.57454879E-04  1.01756054E-03 -1.69662038E-16  5.17433867E-17  2.58960926E-02
  0.00000000E+00 -2.20063229E-03  1.33211311E-03 -1.30267361E-03 -8.88480884E-17
  0.00000000E+00 -4.18522099E-03  2.45096803E-02 -3.29940236E-03  5.91782021E-16
  1.53145777E+00  3.51233042E-16 -1.01756054E-03 -5.26494253E-17  3.29359122E-04
 -9.26306782E-04  1.54282361E-04  2.84942594E-17  6.46008247E-17  2.09866016E-17
  3.07600953E-04  3.81347082E-04  8.52856058E-05 -1.13903761E-01 -4.47746040E-17
  4.85554752E-04  7.20583123E-03 -7.55618606E-05 -1.72651227E-17 -5.66162885E-17
 -3.64714357E-17  9.30336937E-02  8.47018577E-04  8.00525226E-04 -8.82366454E-04
 -1.21887545E-03 -1.01883302E-04 -8.73744395E-06 -6.41496437E-03  1.79956643E-05
  2.96552575E-01  5.80673067E-17  6.98656970E-04  1.94641610E-03  1.02941817E+00
 -8.28117606E-17  7.00469140E-03  1.39945884E-16  1.26132628E-02 -5.23203530E-04
  5.07839095E-05 -1.92523678E-17 -3.04764220E-01 -1.50296451E-02  2.40506066E-03
 -6.57933246E-03 -3.59632100E-16  3.07286916E-01  4.26076877E-04  2.74420410E-03
  6.55189307E-06 -3.70303746E-03 -1.37876067E-16  3.09698548E-04 -2.99977798E-01
  1.26132628E-02  5.71583350E-17 -9.29956075E-02  1.26132628E-02  9.73836206E-03
  2.22618434E-17  5.23795377E-17  2.66209317E-03 -5.05946579E-04  1.23870375E-02
 -5.02606718E-16  4.84199678E-17  1.75162887E-16 -9.69386111E-17 -2.44978733E-03
 -2.56749890E-04 -1.25909466E-03  6.14887082E-03 -6.89206882E-17 -1.53437252E-02
  2.14534965E-17  2.39373876E-05  2.70612225E-16  4.10805287E-04  1.53110748E-16
  0.00000000E+00 -2.09682703E-02  1.27468445E-16  6.81520192E-02 -5.21003455E-16
  0.00000000E+00 -8.14023598E-17 -2.10116690E-04  2.63853033E-03  6.15315027E-03
  0.00000000E+00 -1.54933750E-02 -1.61158148E-02 -2.08352131E-01 -7.55618606E-05
 -6.54520101E-02  1.98035856E-03  7.97931253E-04  1.80585542E-17  3.32936630E-03
  1.09356009E-16  3.46208952E-17  5.70635837E-05 -5.31518278E-16  5.15568547E-17
 -1.24480514E-04 -3.77240609E-04 -5.51259813E-17 -2.72371000E-17  1.57915578E-16
 -1.40450568E-16  1.42430198E-02  1.32946292E-03 -1.35298434E-18 -5.24085932E-18
  3.83447021E-04 -3.09698548E-04 -9.62690058E-04 -3.44135820E-17  4.04416578E-03
  4.69115990E-17 -5.19568080E-03 -2.02178382E-02  1.40075944E-02  1.93020349E-04
  1.01013387E-01  3.98292790E-02  2.00136904E-03 -1.35488529E-04  3.82945798E-04
 -3.27818454E-03  3.81888626E-05 -1.42430198E-02  1.61300449E-16  2.59783931E-02
 -4.40474891E-04 -1.75526832E-01  2.66001820E-16  8.83193013E-04  3.14795600E-04
  7.39088371E-18 -3.05011237E-01 -2.48401589E-03 -3.98292790E-02  1.22930373E-03
 -7.93304108E-17  1.25466983E+00 -1.61161955E-02 -3.92382632E-05 -1.00087134E-02
 -1.09888083E-16 -4.01305520E-03 -3.95347871E-16 -3.66497244E-03  1.54282361E-04
 -3.83447021E-04  2.39411715E-01  4.18894771E-03  7.89645463E-17  7.44423363E-17
 -1.98038558E-03 -2.04851671E-17  4.63443297E-17  8.36379649E-04 -4.49363575E-03
 -1.14115066E-02 -8.87996795E-17 -9.30336937E-02  1.26667953E+00 -2.55566903E-03
  3.73549334E-17 -1.13995253E-01  6.97380172E-17 -2.89939646E-03 -8.00525226E-04
 -2.38310126E-17  2.74855981E-01  1.23309252E-02  1.62915553E-02  1.05672187E-01
 -1.38956909E-03  5.11767196E-16  9.78802397E-18 -6.09259706E-18  3.80471525E-17
  1.69793845E-02 -7.97931253E-04 -1.13275912E-01  9.64538076E-17 -2.06457750E-04
 -1.85431376E-04  2.18450307E-05  1.13739982E-17  2.27915121E-16 -5.03076910E-03
 -1.75299185E-01 -8.80327922E-04  1.02604641E-02  6.46553275E-16 -1.28555169E-03
  0.00000000E+00 -3.80086422E-17  3.05011237E-01  1.05672187E-01 -1.93551865E-04
  0.00000000E+00  4.67492296E-04 -1.39177609E-04  2.02178382E-02  5.62927703E-17
  0.00000000E+00 -1.06014817E-02  8.68662787E-02  4.00950720E-03  6.52854143E-03
  1.78917245E-04 -1.70420569E-03 -1.69662038E-16  7.22101116E-17  2.72274583E-02
  3.95947114E-03 -5.31954735E-03  1.38956909E-03  3.46208952E-17 -6.14706342E-16
 -1.39612946E-17 -3.14082265E-03 -2.12205387E-03  6.24452569E-03 -3.23895897E-17
  3.81347082E-04 -2.41864667E-03 -3.80086422E-17 -5.26646335E-16 -2.71909533E-17
 -3.83992950E-17  4.85454834E-04  1.52573890E-03  4.68780493E-16 -7.86066353E-18
 -1.30267361E-03 -2.26598547E-03  2.97015520E-17  6.15315027E-03  8.52358588E-17
  3.53272295E-04  1.01831245E-16  3.34230014E-01  2.12821077E-03 -2.71720827E-17
 -6.37226306E-04 -3.04961374E-03  3.80985449E-04 -7.56180560E-03  8.01089411E-04
  1.75896798E-04  1.48048780E-16 -1.27806953E-02  4.67536216E-17  6.01899668E-17
  3.10163712E-04  1.90016618E-04  4.85454834E-04  2.74855981E-01 -1.01397222E-05
  2.72357876E-02  1.54926463E+00  3.33022880E-04  2.74420410E-03  1.61158148E-02
  1.04898595E-04  5.96755777E-18 -1.02541820E-03  3.14873706E-03  3.79494874E-04
 -2.41516969E-05 -4.15220927E-17  2.63853033E-03 -1.33162400E-04  1.56631445E-02
  3.98292790E-02 -1.23870375E-02  6.43872407E-03 -3.17320074E-04  6.45205842E-03
  4.72787286E-05 -3.34230014E-01  1.71674480E-02  2.23441197E-04  1.16154526E-16
 -1.52153217E-02 -4.17237247E-16 -1.82191071E-02  1.53146074E-03  6.95660658E-04
 -1.36533925E-03  6.24452569E-03 -2.09682703E-02  2.48977939E-02 -2.33650948E-03
 -1.43782694E-17  9.56003635E-17  5.19568080E-03 -3.57755952E-02  8.80327922E-04
 -1.35298434E-18  9.43580567E-05 -9.86286965E-17 -1.09649186E-17  8.01089411E-04
 -1.48430797E-04 -1.57158882E-16  5.80673067E-17 -3.18152003E-17 -3.99036934E-04
 -1.08016280E-16 -8.00525226E-04  1.35488529E-04 -2.96003238E-17  5.10530629E-02
 -3.11315884E-17 -1.10327174E-16 -4.31784225E-16 -2.14799139E-16  2.38107321E-04
 -1.22453170E-03 -7.30543415E-03 -1.47371463E-17  6.65544785E-18 -3.34230014E-01
 -9.05398144E-04  4.78633542E-04  4.15535048E-18 -8.23994801E-17  2.53981189E-02
 -6.54520101E-02  2.33164222E-01 -1.00087134E-02  1.31298446E-18  3.27521738E-17
 -1.16478419E-05  2.74855981E-01 -2.12431275E-02 -2.39373876E-05  1.58499337E-17
 -9.07380373E-03  9.73836206E-03 -7.30543415E-03 -1.13661452E-16 -3.55761164E-17
 -2.03537730E-04  2.93798266E-04 -3.02719877E-01 -1.53437252E-02  7.05824208E-04
  2.45431750E-06 -3.53790997E-17  1.16056412E-16 -7.41474428E-17  4.91096553E-17
 -6.17170095E-05  7.42767498E-04  3.29359122E-04  1.41788671E-17  1.07191510E-03
  2.18771951E-02 -5.18404858E-05  7.24710979E-04  2.70332976E-02  1.13739982E-17
 -1.02541820E-03 -5.09318740E-03  2.70612225E-16 -6.95660658E-04  4.44263061E-18
 -3.74955776E-03  1.70590945E-02  2.46370302E-17  3.27818454E-03 -2.74812247E-17
 -5.55500239E-17 -1.90842720E-02 -3.32276443E-03 -1.52153217E-02 -7.26754903E-16
 -1.76017648E-17  4.57328717E-06 -8.74282512E-17 -7.00469140E-03 -1.06374554E-02
 -2.24264252E-03 -1.72904712E-03 -1.37281232E-16 -9.61178328E-17 -3.29940236E-03
  1.55651790E-02 -1.08892439E-02  3.05864637E-03  2.86797268E-05 -1.06195679E-16
  3.05011237E-01 -3.42505638E-01 -3.80985449E-04  1.28088556E-05  4.77404348E-17
 -9.49847338E-17 -1.21887545E-03 -1.22275698E-03 -3.23957482E-04  6.37226306E-04
 -3.04961374E-03  4.85554752E-04  1.50199273E-03  3.74955776E-03 -2.48977939E-02
  3.78375334E-03 -2.26853487E-17 -7.61425173E-04 -4.23565949E-05 -3.07286916E-01
 -3.14429833E-04 -2.18450307E-05 -1.03176098E-16 -2.91686736E-17  2.55566903E-03
  1.92669305E-02 -3.47146439E-17  3.19107488E-04 -7.23389576E-05  2.70506041E-02
  2.99461024E-03 -6.44360310E-03  2.34456611E-04  6.45205842E-03 -1.13995253E-01
  1.02955122E+00  1.81196673E-16 -9.72348704E-05 -1.98778423E-02  3.32276443E-03
  8.32050801E-17 -7.96625330E-07  1.13175918E-16 -5.90371895E-17  1.55167823E-17
 -5.28739500E-17 -8.99559571E-05  4.64979917E-04 -1.30710722E-17 -3.78375334E-03
  3.32326615E-05  6.01300569E-04 -1.00087134E-02 -7.56861666E-17  6.01899668E-17
 -1.75299185E-01 -1.26168786E-04  8.11020756E-02  5.70965948E-17  1.40118171E-16
 -1.20644455E-04 -4.18889713E-17 -2.75766836E-06  1.11747824E-16  2.53981189E-02
  0.00000000E+00 -1.85431376E-04  3.71848636E-04 -1.74194257E-02  2.14534965E-17
  0.00000000E+00 -3.99382194E-05  2.70357797E-02 -7.29703987E-19  3.79330937E-05
  0.00000000E+00  1.85104266E-04  1.82401123E-02  9.58476679E-03  2.23968379E-17
 -5.02606718E-16  5.87280091E-04  4.41777969E-04 -5.42994654E-17 -1.08422279E-03
  0.00000000E+00  1.78555308E-04 -2.11306804E-02 -1.06631495E-02  1.55167823E-17
  0.00000000E+00  3.07600953E-04  5.78411311E-03  1.83516737E-17  2.38107321E-04
  9.05398144E-04 -1.07241934E-16 -3.14082265E-03  2.84942594E-17  1.06957709E-02
 -2.12431275E-02 -2.09026718E-01  4.18894771E-03 -2.99461024E-03 -9.42028751E-04
  7.43569548E-20 -1.93231484E-17  6.14887082E-03 -1.16861242E-16 -9.62791154E-04
 -2.40506066E-03  1.09356009E-16  1.04762744E+00 -1.61878386E-16  3.73444237E-17
 -8.36379649E-04 -3.31654987E-04  1.41788671E-17  9.77655875E-17 -1.55651790E-02
  1.61428040E-04  1.17557073E-04 -1.41736028E-16 -7.79294289E-18  7.42362402E-17
  1.10183959E-16  3.01178552E-17 -2.18023280E-17 -2.26763237E-17  3.09094555E-17
 -2.02830112E-01  2.59783931E-02  2.37836976E-04 -2.08572720E-03  1.26132628E-02
 -2.72107082E-03  1.41042865E-02  1.40237216E-03  3.04693787E-16  4.23565949E-05
 -7.86852761E-03 -1.52105180E-17  1.02941441E+00 -3.46889200E-04 -6.26500231E-05
 -4.18522099E-03  1.87944228E-16 -2.60401721E-04 -1.61161955E-02  5.10484726E-04
 -3.14082265E-03 -1.36533925E-03 -5.13295342E-17 -2.93798266E-04 -3.02719877E-01
  3.12203508E-04  3.83447021E-04 -2.94372010E-04  1.35826852E-16  1.34417171E-04
  3.02867977E-05  2.99819897E-18  2.70357797E-02  7.95247205E-04 -3.79330937E-05
  1.57749434E-03 -2.49548871E-03  2.41516969E-05  5.07839095E-05  5.28790273E-03
 -9.20194819E-17 -2.56749890E-04  4.21193180E-05 -1.90795139E-02 -2.38310126E-17
 -7.61425173E-04  2.33027213E-01 -1.82191071E-02  9.26306782E-04  5.68233839E-02
 -8.95410240E-04 -6.41496437E-03  2.92941107E-16  4.78617724E-03  2.33027213E-01
 -4.32087810E-03  1.85104266E-04 -1.08016280E-16 -2.32613151E-17 -1.00087134E-02
 -3.68396994E-05  1.34534233E-03 -1.94641610E-03  6.63838960E-03  2.72274583E-02
 -3.40361146E-01 -4.29817525E-05 -1.57749434E-03  3.27818454E-03 -2.06381851E-16
 -1.55776724E-03 -6.97001263E-04 -1.09216829E-02  1.56904849E-04  7.26358767E-16
 -4.18522099E-03  4.16454517E-04  1.83516737E-17  1.57992509E-02  2.77700184E-03
 -2.21098378E-17  5.70965948E-17 -8.58419946E-04  6.03543825E-04 -2.01174641E-03
 -4.46306405E-16  1.90016618E-04  5.28790273E-03 -1.32847503E-04  1.30267361E-03
  8.11020756E-02 -9.20194819E-17 -3.05011237E-01 -1.86768100E-16  8.00828938E-04
 -2.08352131E-01  7.13690916E-04 -8.83193013E-04  1.00666911E-16 -5.00120427E-17
  3.16442564E-04  1.03668302E+00 -7.56180560E-03  2.49548871E-03 -7.02932935E-04
  1.31298446E-18  7.95247205E-04  1.11350764E-01  4.20173105E-04 -4.78617724E-03
  1.25466983E+00  4.46612178E-17  9.36263173E-17  1.21567745E-04  8.60941226E-17
  4.97382653E-04 -1.10094281E-16  6.24452569E-03  7.20354069E-17 -1.70948732E-02
  0.00000000E+00 -7.83888161E-16  7.17255833E-02 -1.13903761E-01 -1.13995253E-01
  0.00000000E+00 -5.51259813E-17  6.94029312E-06  6.06154766E-04 -3.79160195E-03
  0.00000000E+00  1.42716552E-03  5.05946579E-04  1.52573890E-03  6.24452569E-03
  0.00000000E+00 -3.40361146E-01 -6.57933246E-03  5.71583350E-17  1.31674698E-16
  0.00000000E+00  5.29410535E-17 -3.74787405E-17 -1.21887545E-03  1.34534233E-03
  0.00000000E+00 -2.79185231E-17  1.22130205E-04  1.04762744E+00  6.15315027E-03
  8.00828938E-04 -2.04673209E-02  1.09216829E-02  8.12632423E-04  5.58469731E-04
  2.33650948E-03  5.26618865E-03  1.28475717E-16  3.16390990E-04  5.19364053E-03
  1.30547032E-01 -2.20476446E-04 -2.28421707E-01 -3.25682510E-05  1.90842720E-02
  3.95947114E-03 -2.08352131E-01 -1.79145688E-18  2.30229203E-01  3.67168890E-03
  1.39354748E-16 -7.29703987E-19  2.92941107E-16  1.83565948E-16 -3.99382194E-05
 -5.57998418E-17 -1.22130205E-04 -1.13995253E-01  1.28352838E-16 -6.18959920E-17
 -1.90061094E-17 -5.28739500E-17  1.75600054E-17  4.09714343E-17  3.85274528E-04
 -1.06631495E-02  1.22930373E-03 -2.18771951E-02  6.61515887E-02  2.24346400E-16
  1.32327368E-03  4.15535048E-18 -9.11681957E-18 -1.02082339E-03  3.31767937E-03
 -1.38522737E-16 -3.70704004E-03 -4.21223788E-17  2.70506041E-02  1.26667953E+00
 -2.44978733E-03  3.01684858E-03  6.01300569E-04 -2.03537730E-04 -3.55689943E-17
  5.18404858E-05  2.07205712E-04  1.06297950E-04 -1.24591401E-04  1.26168786E-04
  9.62791154E-04 -5.78281885E-17 -1.34534233E-03  2.38107321E-04 -1.22333258E-05
  6.47300405E-17  1.57749434E-03 -1.24604362E-04 -1.32327368E-03 -1.19675891E-06
 -5.77841233E-18 -8.68376393E-02 -1.22889901E-02  1.05520839E-04 -6.85579264E-06
 -5.95740671E-17  2.54411008E-17  1.50216665E-03 -7.77131493E-05 -1.05964545E-03
  2.45096803E-02 -1.23309252E-02  5.13973888E-05  5.23203530E-04  5.10484726E-04
  1.25909466E-03  2.77700184E-03  4.64979917E-04  1.10967790E-16 -3.08074223E-05
 -1.19558721E-01  7.22101116E-17  5.13973888E-05  4.45034693E-16 -7.23389576E-05
  9.05398144E-04  3.95947114E-03  1.42430198E-02  6.57886807E-03 -2.96552575E-01
 -9.18955590E-03  1.05672187E-01 -9.86286965E-17  2.12205387E-03  1.54849808E+00
 -1.79869423E-17  3.77240609E-04 -2.30776107E-02 -1.19558721E-01  4.49363575E-03
 -3.49979152E-04  1.78555308E-04 -7.90025723E-17  4.96911586E-17 -3.02719877E-01
 -2.89115854E-16  1.05981640E-03  5.15382366E-02 -5.78626786E-16  2.50077900E-01
 -5.92431463E-16 -5.23203530E-04 -1.41042865E-02 -1.34683647E-02 -1.01013387E-01
  3.14873706E-03 -1.75486101E-01 -1.41085626E-16  3.32276443E-03 -1.34484000E-03
  2.50077900E-01 -4.31784225E-16  6.14887082E-03  1.21567745E-04 -1.29813584E-16
  7.20583123E-03 -2.52840187E-16 -8.88480884E-17 -9.29956075E-02 -3.74955776E-03
 -9.18955590E-03  1.47569323E-16  4.14868628E-02  6.15260451E-04  2.24515049E-05
  4.02198905E-05 -1.37876067E-16 -1.06683380E-16  3.91265795E-04 -1.06631495E-02
 -4.00950720E-03  4.96911586E-17  1.71674480E-02  1.41446710E-16  2.52384708E-04
  2.63853033E-03 -1.55078837E-04 -6.88658386E-04  1.20026796E-17  9.58476679E-03
  3.29940236E-03 -2.96003238E-17 -8.95345647E-02 -1.41449552E-16  2.74970105E-04
  1.04506449E-05  1.08783142E-16 -2.00136904E-03  1.30267361E-03 -5.68233839E-02
  8.46818617E-04 -6.09484550E-03 -1.79207098E-16  8.53231382E-17  1.14115066E-02
 -1.23959854E-04  1.82356175E-04  1.45506106E-17 -1.37014002E-17  8.46818617E-04
  3.33215152E-04 -2.15228404E-01 -1.93530304E-04 -8.47018577E-04  4.00078485E-17
 -3.19107488E-04 -1.14328495E-03  4.32773296E-17  1.01523103E-16 -5.22383076E-17
  5.62955405E-19 -1.01397222E-05  1.54926463E+00 -2.48401589E-03 -1.52199097E-05
 -3.04961374E-03  3.61631840E-03 -6.09484550E-03  4.65039958E-03 -1.72904712E-03
 -5.19364053E-03  4.85554752E-04 -1.79956643E-05  4.30193011E-17 -1.60450226E-16
  3.73549334E-17 -1.00293999E-03  4.20173105E-04  6.45205842E-03  6.54870827E-17
  1.14130354E-16 -3.14429833E-04 -9.18955590E-03 -2.20476446E-04 -9.40169691E-06
 -1.82191071E-02  3.92382632E-05  1.82356175E-04  4.10805287E-04 -3.13531479E-16
  2.09682703E-02  1.24005910E-01 -5.25422233E-16  2.23968379E-17 -1.10327174E-16
 -4.96577291E-17 -3.66291578E-17  1.22889901E-02  4.85454834E-04 -6.85579264E-06
  8.46818617E-04 -1.80989852E-04  1.01883302E-04 -2.33027213E-01 -3.02719877E-01
 -1.22453170E-03  4.04416578E-03  3.79494874E-04 -1.75526832E-01  3.81347082E-04
  2.17954933E-02  2.78746179E-04  6.81520192E-02 -4.67106144E-05 -1.58376680E-16
 -1.23959854E-04  1.55776724E-03  1.28441504E-03  7.98887627E-17  5.97200506E-16
  1.63180721E-04  3.46889200E-04  3.81888626E-05  1.54849808E+00  9.56003635E-17
  1.08422279E-03 -7.00469140E-03 -1.75587651E-02 -2.02830112E-01  2.28421707E-01
  6.14733748E-04  4.49363575E-03 -3.47706690E-16 -1.56631445E-02  6.80991116E-17
 -6.43872407E-03 -1.53146074E-03  1.31844132E-04 -2.82300352E-18  5.15382366E-02
  1.24005910E-01  2.72357876E-02  1.27515990E+00 -3.91265795E-04  2.03221678E-16
  3.53272295E-04 -1.69793845E-02  1.01669357E-16  1.29524183E-16 -1.61158148E-02
  5.19092173E-03  4.97382653E-04 -1.24480514E-04 -1.93020349E-04 -3.98292790E-02
  1.27806953E-02  1.62915553E-02 -1.83982598E-04  3.15365731E-06  2.11306804E-02
  1.57992509E-02  3.29359122E-04 -4.32087810E-03  1.32847503E-04  2.44978733E-03
 -3.70704004E-03  1.56631445E-02  4.10742509E-05 -1.19675891E-06  2.72274583E-02
 -5.10530629E-02 -9.30336937E-02  2.54957542E-04  5.11767196E-16  8.50645601E-04
 -5.03138237E-03  2.63853033E-03 -7.89125045E-16 -1.76017648E-17  2.72357876E-02
  2.06396348E-06  1.61161955E-02 -2.04673209E-02 -4.78633542E-04  6.13542869E-18
  5.91782021E-16  1.76634745E-03 -9.29956075E-02  2.39411715E-01 -3.17320074E-04
 -3.23767909E-16  1.80451296E-16  1.18204189E-17  0.00000000E+00  6.10941874E-04
 -2.30776107E-02  3.01178552E-17 -1.10127923E-16  0.00000000E+00 -1.66887117E-17
 -5.69609999E-17 -2.57454879E-04  3.10163712E-04  0.00000000E+00  1.97845713E-17
 -2.24515049E-05  6.15260451E-04  6.14887082E-03  0.00000000E+00 -1.55278893E-16
 -1.22453170E-03  9.62791154E-04  1.68592897E-04  0.00000000E+00 -1.17046685E-16
 -1.11350764E-01  6.03486543E-03 -1.13275912E-01  3.85274528E-04  1.85431376E-04
  4.97382653E-04 -1.05964545E-03  0.00000000E+00  8.58419946E-04 -2.46620385E-16
 -1.30710722E-17  2.19933771E-18  0.00000000E+00  0.00000000E+00  0.00000000E+00
  0.00000000E+00  0.00000000E+00 -6.03957389E-06  0.00000000E+00  1.34547577E-05
 -9.05398144E-04  3.68396994E-05 -6.52854143E-03  5.83886807E-17  5.39613573E-17
 -5.19092173E-03 -3.49979152E-04  1.47264269E-05  3.27521738E-17 -1.69538529E-16
 -3.05918304E-17 -6.71400914E-18  1.27468445E-16 -1.13903761E-01 -4.91970867E-17
  1.83628814E-17 -1.82191071E-02  1.08892439E-02  7.00469140E-03 -2.53981189E-02
  1.56639603E-16  1.25471700E-17  7.26358767E-16  5.44019416E-17  6.41415237E-18
 -9.26306782E-04  4.29817525E-05 -1.07241934E-16 -5.92431463E-16 -7.31122590E-17
 -8.18818989E-17  3.14795600E-04  1.23124075E-16  1.09216829E-02  8.01089411E-04
 -5.03076910E-03  2.17954933E-02 -4.81440323E-02 -5.03138237E-03  1.48153200E-17
  0.00000000E+00 -1.08323139E-02  1.05964545E-03  3.85274528E-04  1.40075944E-02
 -3.10967086E-17 -2.30229203E-01 -3.51148202E-17  3.57755952E-02  1.00666911E-16
  1.98038558E-03 -3.14873706E-03 -7.24710979E-04  2.70332976E-02 -1.52199097E-05
 -1.72651227E-17  4.85454834E-04 -4.00950720E-03  2.26239833E-04  4.10742509E-05
 -1.11682952E-16 -1.22453170E-03  2.58960926E-02 -1.68592897E-04 -1.06014817E-02
  3.99036934E-04  1.72082982E-02  2.54957542E-04  1.24924269E-16  3.95947114E-03
  8.36729838E-17 -2.72371000E-17  1.02082339E-03  1.70135980E-05  3.81347082E-04
 -1.52153217E-02  6.54870827E-17  2.70332976E-02  1.45492379E-16  3.33215152E-04
  1.08972960E-16  6.89867743E-03  9.23012535E-05 -4.21193180E-05 -8.95345647E-02
 -5.09318740E-03  3.23957482E-04  4.57328717E-06  1.08017415E-07  0.00000000E+00
  2.22618434E-17 -3.04757699E-01  2.99977798E-01 -1.75299185E-01 -1.33162070E-17
  9.42028751E-04 -1.75486101E-01  8.68662787E-02 -6.95660658E-04 -6.30731832E-06
  3.90615053E-17  2.34456611E-04  4.73609548E-18 -6.80326607E-16 -2.12821077E-03
 -1.62915553E-02  4.44263061E-18  1.61428040E-04  6.10941874E-04  2.94372010E-04
  1.61161955E-02  5.10530629E-02  1.42716552E-03 -1.00293999E-03 -2.26853487E-17
 -6.03543825E-04 -1.06631495E-02 -7.26754903E-16 -1.22889901E-02  1.98778423E-02
  3.85274528E-04  3.07286916E-01 -2.08572720E-03 -1.40075944E-02 -2.15228404E-01
 -8.82366454E-04 -2.09026718E-01  4.67492296E-04 -1.71546101E-16  6.03486543E-03
  3.82945798E-04 -8.52856058E-05  3.42727726E-04 -2.96552575E-01 -7.41474428E-17
 -2.75766836E-06 -5.19364053E-03  1.47569323E-16 -6.41496437E-03  0.00000000E+00
  6.54520101E-02 -1.41736028E-16 -3.04764220E-01 -2.39411715E-01  2.94372010E-04
  2.30663144E-16 -5.37351051E-17  1.97845713E-17 -4.43269035E-04  8.11020756E-02
 -5.31954735E-03  5.58469731E-04 -1.47388276E-16 -1.06683380E-16 -5.55187711E-17
 -5.26494253E-17 -3.59632100E-16  1.27515990E+00 -9.23012535E-05  7.56312213E-17
  6.45205842E-03  2.58960926E-02 -1.33211311E-03  2.10116690E-04  8.82366454E-04
 -7.56180560E-03  1.80005347E-16  5.03076910E-03 -1.68736160E-16 -6.57886807E-03
  2.07205712E-04 -1.22333258E-05 -6.89867743E-03  1.39177609E-04  5.62927703E-17
 -6.81520192E-02  2.46370302E-17  1.61158148E-02 -1.93530304E-04 -1.28441504E-03
 -2.39411715E-01 -4.43269035E-04 -6.18929977E-17 -9.08610313E-17 -6.98656970E-04
  1.53110748E-16  5.19092173E-03  1.24005910E-01  6.54520101E-02  6.46008247E-17
  0.00000000E+00  3.79494874E-04  6.43872407E-03 -1.47371463E-17 -1.75587651E-02
  1.70135980E-05  7.61425173E-04  6.25880922E-07  1.64983988E-17  2.20618014E-06
  1.87944228E-16 -6.78484800E-16  1.46276047E-17  0.00000000E+00 -1.50296451E-02
  6.03486543E-03 -8.00828938E-04  1.61300449E-16  0.00000000E+00  4.76107187E-17
 -4.58024611E-17  2.70332976E-02  4.84199678E-17  0.00000000E+00 -1.55651790E-02
 -1.47264269E-05 -1.33162070E-17  4.69115990E-17  0.00000000E+00  2.50077900E-01
 -4.14868628E-02 -4.17237247E-16 -6.80326607E-16  0.00000000E+00 -7.86852761E-03
 -5.74133133E-17  2.01174641E-03 -6.10082895E-18  0.00000000E+00  2.23441197E-04
  7.02932935E-04  1.32946292E-03  7.44423363E-17  2.72274583E-02  3.16442564E-04
  1.05981640E-03 -6.43872407E-03  0.00000000E+00  0.00000000E+00  0.00000000E+00
  0.00000000E+00  0.00000000E+00  0.00000000E+00  0.00000000E+00  0.00000000E+00
  0.00000000E+00  0.00000000E+00  1.50726514E-05  0.00000000E+00  0.00000000E+00
 -1.85805311E-04  2.91205162E-17 -9.43580567E-05 -8.59079505E-17  8.12632423E-04
  1.06304454E-17 -4.49363575E-03 -3.35056176E-16 -7.89125045E-16  3.80471525E-17
 -1.37931742E-16 -1.10148476E-16  6.15315027E-03  1.10967790E-16  5.78411311E-03
 -2.57454879E-04  2.45096803E-02  3.63509406E-16 -3.05864637E-03  2.24072391E-01
 -1.76646299E-02  2.96552575E-01 -1.70948732E-02 -2.10155142E-01  3.78759381E-16
  6.44360310E-03  1.05964545E-03  5.15382366E-02 -3.14429833E-04 -1.70590945E-02
  6.83568565E-03  1.54607871E-02 -3.79160195E-03 -3.95347871E-16 -8.68376393E-02
  7.17455092E-17  1.42999321E-18  1.05520839E-04  4.45034693E-16  6.95660658E-04
  0.00000000E+00  4.97382653E-04  5.19364053E-03 -9.18225579E-18 -3.14082265E-03
  0.00000000E+00  8.50645601E-04  1.78917245E-04  6.59586660E-04 -1.26977775E-05
 -9.62791154E-04  6.61515887E-02 -5.78626786E-16  3.67450530E-03 -1.93551865E-04
 -1.92523678E-17  7.60075749E-17 -1.22275698E-03 -2.77700184E-03 -1.19558721E-01
 -2.94372010E-04 -8.06217335E-17 -1.75486101E-01 -3.15856844E-18 -6.25880922E-07
  4.16283192E-18  1.08892439E-02 -1.80989852E-04  6.90266010E-17  4.78617724E-03
  1.04506449E-05 -1.76634745E-03  2.06396348E-06  1.85431376E-04 -1.54933750E-02
 -1.17557073E-04 -9.07380373E-03  2.86797268E-05  6.17170095E-05 -8.99559571E-05
  2.74970105E-04  1.05917503E-02  9.40169691E-06  1.16478419E-05 -6.10082895E-18
  2.52384708E-04  1.55078837E-04  7.49065583E-18  3.20487351E-05  1.54933750E-02
 -1.22930373E-03  2.93556532E-17 -8.42318688E-17 -6.30731832E-06  0.00000000E+00
 -1.62915553E-02  2.70506041E-02  9.30336937E-02 -5.24116312E-16  0.00000000E+00
  1.63180721E-04 -1.47050232E-04 -2.66733569E-05  4.56866065E-17 -4.02198905E-05
  3.67168890E-03 -2.33027213E-01 -8.82483787E-18 -1.75526832E-01 -9.72348704E-05
  1.98778423E-02 -2.10925500E-03 -5.68233839E-02  6.14733748E-04  9.75063023E-17
  8.11020756E-02  2.09682703E-02 -1.79207098E-16 -1.14328495E-03  2.45096803E-02
  4.00950720E-03  2.70351666E-02 -1.53937994E-03 -2.41864667E-03  2.02830112E-01
  1.11747824E-16  1.30547032E-01  1.28995489E+00 -5.31518278E-16 -3.99036934E-04
  3.73121229E-16  9.95637581E-17  5.89434474E-05  1.06957709E-02  9.26306782E-04
 -1.14005483E-16  1.55651790E-02  1.32196747E-02 -2.15228404E-01 -2.12431275E-02
 -1.12240334E-04 -1.75486101E-01 -1.54607871E-02  2.20063229E-03  2.11306804E-02
 -2.77700184E-03  3.73121229E-16  1.46570724E-02 -3.04757699E-01  0.00000000E+00
  1.53145777E+00  1.32196747E-02  2.70357797E-02  2.02830112E-01  0.00000000E+00
 -2.22719242E-06  1.50726514E-05 -1.34547577E-05  6.03957389E-06 -1.06075501E-16
 -1.40237216E-03  1.05672187E-01  2.18938432E-18 -6.14733748E-04  1.98035856E-03
  1.24005910E-01  1.26390212E+00  1.06304454E-17  1.16103507E-16  2.74855981E-01
  1.09977004E-02 -1.13903761E-01 -1.32327368E-03 -2.49210030E-03  1.63337237E-03
  4.01305520E-03  3.82945798E-04 -1.82401123E-02  1.29631121E-03  6.03486543E-03
 -3.74238495E-16 -7.90025723E-17  7.17255833E-02 -1.74194257E-02 -3.71848636E-04
 -9.67333652E-05 -5.34684955E-16  6.63838960E-03 -1.01013387E-01 -3.47706690E-16
  1.24534895E+00 -9.18225579E-18 -3.01684858E-03  1.90795139E-02 -6.06154766E-04
 -6.94029312E-06  3.47294378E-17  8.68662787E-02  4.95643845E-04  6.63838960E-03
 -5.26646335E-16 -3.83447021E-04 -3.07286916E-01 -3.16898565E-17 -8.42560439E-03
  0.00000000E+00  4.68780493E-16 -3.04961374E-03  2.04673209E-02 -2.06457750E-04
  0.00000000E+00 -1.80866557E-17  1.28088556E-05  2.45431750E-06 -7.96625330E-07
 -8.06217335E-17 -9.18955590E-03  5.23203530E-04  3.16442564E-04  5.26618865E-03
  7.49065583E-18  5.94931284E-17 -2.48977939E-02  6.84550704E-17 -1.31844132E-04
 -5.57998418E-17  4.10185098E-17  1.39664220E-16  3.79494874E-04  1.33162400E-04
 -5.47799367E-17 -3.43347060E-17  2.19155710E-02 -1.08323139E-02 -6.14733748E-04
 -9.24207444E-17  2.72357876E-02  3.33022880E-04 -1.23870375E-02 -6.97001263E-04
  1.29631121E-03  1.45506106E-17 -5.95740671E-17 -2.57454879E-04  5.15382366E-02
  2.66209317E-03  1.55898106E-04  3.12833205E-04  1.28555169E-03 -8.95410240E-04
 -2.49210030E-03  2.25670853E-04  2.72671244E-18 -1.08017416E-07 -4.40474891E-04
 -1.75526832E-01  3.12203508E-04 -3.08074223E-05  1.24534895E+00 -1.70948732E-02
 -3.32936630E-03  4.18894771E-03 -2.22719242E-06 -1.10978418E-16  1.02941441E+00
  8.82366454E-04  6.26500231E-05 -1.30782448E-16  1.54933750E-02 -9.67333652E-05
  2.99226841E-17  6.47300405E-17 -2.81112574E-17 -1.75299185E-01  2.70357797E-02
 -1.06318012E-17  4.18894771E-03 -3.33261641E-05  2.20618014E-06  6.17740837E-17
  4.81440323E-02  1.55078837E-04  2.99977798E-01  1.01831245E-16 -8.00828938E-04
  1.01013387E-01  5.89434474E-05  1.75896798E-04 -1.10127923E-16 -3.44322219E-04
 -2.10925500E-03  1.40118171E-16  1.53937994E-03  6.88658386E-04 -5.70635837E-05
  8.20595439E-17 -1.26977775E-05  1.33024053E-16  3.20487351E-05 -1.71674480E-02
  3.33215152E-04  2.66733569E-05 -6.17637641E-17 -1.08892439E-02 -1.24604362E-04
  4.63777773E-17 -1.57158882E-16 -8.73744395E-06 -1.34417171E-04  2.09026718E-01
  2.70351666E-02 -1.06075501E-16 -1.43840286E-16 -2.56749890E-04  1.02941817E+00
 -2.60401721E-04 -2.06457750E-04 -3.04764220E-01 -7.13690916E-04 -1.22930373E-03
  0.00000000E+00  2.24072391E-01 -6.83568565E-03 -1.72082982E-02 -1.32196747E-02
  0.00000000E+00 -3.13031158E-17 -1.76646299E-02 -1.05917503E-02  1.28995489E+00
  1.02955122E+00  0.00000000E+00  7.61425173E-04 -2.10155142E-01 -3.44135820E-17
 -1.34534233E-03 -5.24116312E-16 -5.19568080E-03 -7.77131493E-05  1.28555169E-03
  8.94071743E-17 -6.55189307E-06  1.05875916E-17  2.09026718E-01 -5.19092173E-03
 -1.40075944E-02  1.04898595E-04 -1.84362001E-06  4.01305520E-03  1.29021550E-04
 -2.56749890E-04  3.66497244E-03  1.63337237E-03  2.72107082E-03  8.03071696E-18
  5.19568080E-03  3.02867977E-05  2.26239833E-04 -3.04764220E-01  1.31674698E-16
 -1.22275698E-03 -1.71674480E-02 -4.95643845E-04 -1.62418228E-02  3.28797141E-17
  2.19155710E-02  2.45373132E-18  3.40169819E-04  2.70351666E-02  2.70506041E-02
 -2.74812247E-17  5.83886807E-17  1.73064936E-04  3.57755952E-02 -1.12607073E-02
 -2.99977798E-01 -1.14201114E-16 -3.04757699E-01  1.50216665E-03  1.47050232E-04
 -8.73582272E-17  1.32327368E-03 -2.60401721E-04  1.49167058E-16  0.00000000E+00
  1.22889901E-02 -2.15228404E-01 -5.21003455E-16 -1.98778423E-02  2.99226841E-17
  3.74955776E-03  3.16390990E-04 -3.25682510E-05 -2.30776107E-02  2.50077900E-01
  1.03671375E+00 -1.22275698E-03  1.24591401E-04  1.80005347E-16 -3.19107488E-04
 -1.54984234E-16  1.54470257E-17 -2.08352131E-01 -1.06297950E-04  7.77112915E-18
Overlap Matrix                             R   N=        1830
  1.00000000E+00  2.48362390E-01  1.00000000E+00  0.00000000E+00 -2.47021272E-16
  1.00000000E+00 -3.92614542E-18 -7.54489951E-17  2.92389811E-32  1.00000000E+00
  6.79642237E-33 -1.98870957E-32 -6.32704000E-48  0.00000000E+00  1.00000000E+00
  9.28499138E-07  3.79483092E-02 -4.17199964E-02  4.70919219E-02 -9.64711155E-17
  1.00000000E+00  3.79483092E-02  3.67071367E-01 -2.58382267E-01  2.91651932E-01
 -5.97469503E-16  2.48362390E-01  1.00000000E+00  4.17199964E-02  2.58382267E-01
 -2.38697895E-02  2.69517708E-01 -5.52125989E-16 -1.70023257E-18  0.00000000E+00
  1.00000000E+00 -4.70919219E-02 -2.91651932E-01  2.69517708E-01 -8.93180125E-02
  6.23218509E-16 -2.87661866E-16 -2.81810080E-16  0.00000000E+00  1.00000000E+00
  9.64711155E-17  5.97469503E-16 -5.52125989E-16  6.23218509E-16  2.14903175E-01
 -1.32042995E-31  5.55720627E-31  0.00000000E+00 -4.68271985E-46  1.00000000E+00
  2.05608027E-17  1.84257566E-03 -4.02361919E-03  1.34402295E-03 -3.05042292E-18
  9.35849271E-07  3.79890711E-02 -6.17105198E-02 -1.25887450E-02  1.81475131E-17
  1.00000000E+00  1.84257566E-03  6.12758481E-02 -8.54995256E-02  2.85596920E-02
 -6.48196810E-17  3.79890711E-02  3.67296441E-01 -3.81939539E-01 -7.79144214E-02
  1.12318820E-16  2.48362390E-01  1.00000000E+00  4.02361919E-03  8.54995256E-02
 -1.06061995E-01  4.40001101E-02 -9.98635807E-17  6.17105198E-02  3.81939539E-01
 -3.06403838E-01 -1.06380508E-01  1.53354578E-16 -8.66565768E-17 -2.73873542E-17
  1.00000000E+00 -1.34402295E-03 -2.85596920E-02  4.40001101E-02  1.09642096E-02
  3.33577653E-17  1.25887450E-02  7.79144214E-02 -1.06380508E-01  1.93376294E-01
  3.12838342E-17  7.46348625E-17 -1.40905040E-16 -7.12361375E-33  1.00000000E+00
  3.05042292E-18  6.48196810E-17 -9.98635807E-17  3.33577653E-17  2.56617133E-02
 -1.81475131E-17 -1.12318820E-16  1.53354578E-16  3.12838342E-17  2.15077572E-01
 -2.47674403E-31 -9.72994279E-32  2.53081600E-47 -2.53081600E-47  1.00000000E+00
  9.69956219E-23  4.22422022E-04 -1.09814248E-03 -2.23972451E-04  3.22848032E-19
  2.07766845E-17  1.84489037E-03 -3.17913752E-03 -2.81589233E-03  5.17352143E-18
  9.32781801E-07  3.79720926E-02 -1.99432541E-02 -5.97110317E-02  1.14682969E-16
  1.00000000E+00  4.22422022E-04  2.63846609E-02 -4.15260030E-02 -8.46946625E-03
  1.22084234E-17  1.84489037E-03  6.13204775E-02 -6.75227108E-02 -5.98076309E-02
  1.09882064E-16  3.79720926E-02  3.67202707E-01 -1.23466549E-01 -3.69664598E-01
  7.09989972E-16  2.48362390E-01  1.00000000E+00  1.09814248E-03  4.15260030E-02
 -6.02962948E-02 -1.43755942E-02  2.07218891E-17  3.17913752E-03  6.75227108E-02
 -5.64152786E-02 -7.27173659E-02  1.33600581E-16  1.99432541E-02  1.23466549E-01
  1.60500016E-01 -1.63190270E-01  3.13428594E-16  0.00000000E+00  2.47021272E-16
  1.00000000E+00  2.23972451E-04  8.46946625E-03 -1.43755942E-02  7.25561534E-03
  4.22634801E-18  2.81589233E-03  5.98076309E-02 -7.27173659E-02 -3.87262493E-02
  1.18335507E-16  5.97110317E-02  3.69664598E-01 -1.63190270E-01 -2.73594333E-01
  9.38419809E-16  3.92614542E-18  7.54489951E-17  2.92389811E-32  1.00000000E+00
 -3.22848032E-19 -1.22084234E-17  2.07218891E-17  4.22634801E-18  1.01876002E-02
 -5.17352143E-18 -1.09882064E-16  1.33600581E-16  1.18335507E-16  2.56825005E-02
 -1.14682969E-16 -7.09989972E-16  3.13428594E-16  9.38419809E-16  2.15004936E-01
 -6.79642237E-33  1.98870957E-32 -6.32704000E-48  0.00000000E+00  1.00000000E+00
  2.07766845E-17  1.84489037E-03 -3.17913752E-03 -2.81589233E-03  5.17352143E-18
  9.78578800E-23  4.22871019E-04 -3.55212406E-04 -1.06411980E-03  2.04380438E-18
  2.05843586E-17  1.84282927E-03  8.48599293E-04 -4.15694563E-03  8.21856855E-18
  9.28499138E-07  3.79483092E-02  4.17199964E-02 -4.70919219E-02  9.64711155E-17
  1.00000000E+00  1.84489037E-03  6.13204775E-02 -6.75227108E-02 -5.98076309E-02
  1.09882064E-16  4.22871019E-04  2.64005007E-02 -1.34265195E-02 -4.02222024E-02
  7.72528742E-17  1.84282927E-03  6.12807389E-02  1.80312937E-02 -8.83280342E-02
  1.74630623E-16  3.79483092E-02  3.67071367E-01  2.58382267E-01 -2.91651932E-01
  5.97469503E-16  2.48362390E-01  1.00000000E+00  3.17913752E-03  6.75227108E-02
 -5.64152786E-02 -7.27173659E-02  1.33600581E-16  3.55212406E-04  1.34265195E-02
  2.83008715E-03 -2.20609509E-02  4.23714209E-17 -8.48599293E-04 -1.80312937E-02
  1.98058897E-02  2.86964762E-02 -5.67349148E-17 -4.17199964E-02 -2.58382267E-01
 -2.38697895E-02  2.69517708E-01 -5.52125989E-16  2.58437827E-17  1.14080426E-16
  1.00000000E+00  2.81589233E-03  5.98076309E-02 -7.27173659E-02 -3.87262493E-02
  1.18335507E-16  1.06411980E-03  4.02222024E-02 -2.20609509E-02 -5.58943879E-02
  1.26933258E-16  4.15694563E-03  8.83280342E-02  2.86964762E-02 -1.14908470E-01
  2.77921462E-16  4.70919219E-02  2.91651932E-01  2.69517708E-01 -8.93180125E-02
  6.23218509E-16  2.87661866E-16  2.81810080E-16  2.92389811E-32  1.00000000E+00
 -5.17352143E-18 -1.09882064E-16  1.33600581E-16  1.18335507E-16  2.56825005E-02
 -2.04380438E-18 -7.72528742E-17  4.23714209E-17  1.26933258E-16  1.01942236E-02
 -8.21856855E-18 -1.74630623E-16 -5.67349148E-17  2.77921462E-16  2.56639912E-02
 -9.64711155E-17 -5.97469503E-16 -5.52125989E-16  6.23218509E-16  2.14903175E-01
  1.32042995E-31 -5.55720627E-31 -7.69875756E-47 -4.68271985E-46  1.00000000E+00
  9.32781801E-07  3.79720926E-02 -1.99432541E-02 -5.97110317E-02  1.14682969E-16
  2.05843586E-17  1.84282927E-03  8.48599293E-04 -4.15694563E-03  8.21856855E-18
  9.67201544E-23  4.22277839E-04  7.42855953E-04 -8.38725530E-04  1.71816797E-18
  2.05608027E-17  1.84257566E-03  4.02361919E-03 -1.34402295E-03  3.05042292E-18
  9.35849271E-07  3.79890711E-02  6.17105198E-02  1.25887450E-02 -1.81475131E-17
  1.00000000E+00  3.79720926E-02  3.67202707E-01 -1.23466549E-01 -3.69664598E-01
  7.09989972E-16  1.84282927E-03  6.12807389E-02  1.80312937E-02 -8.83280342E-02
  1.74630623E-16  4.22277839E-04  2.63795729E-02  2.80947942E-02 -3.17205793E-02
  6.49810713E-17  1.84257566E-03  6.12758481E-02  8.54995256E-02 -2.85596920E-02
  6.48196810E-17  3.79890711E-02  3.67296441E-01  3.81939539E-01  7.79144214E-02
 -1.12318820E-16  2.48362390E-01  1.00000000E+00  1.99432541E-02  1.23466549E-01
  1.60500016E-01 -1.63190270E-01  3.13428594E-16 -8.48599293E-04 -1.80312937E-02
  1.98058897E-02  2.86964762E-02 -5.67349148E-17 -7.42855953E-04 -2.80947942E-02
 -2.20833552E-02  3.64332946E-02 -7.46352861E-17 -4.02361919E-03 -8.54995256E-02
 -1.06061995E-01  4.40001101E-02 -9.98635807E-17 -6.17105198E-02 -3.81939539E-01
 -3.06403838E-01 -1.06380508E-01  1.53354578E-16  4.90705165E-17 -1.50897990E-16
  1.00000000E+00  5.97110317E-02  3.69664598E-01 -1.63190270E-01 -2.73594333E-01
  9.38419809E-16  4.15694563E-03  8.83280342E-02  2.86964762E-02 -1.14908470E-01
  2.77921462E-16  8.38725530E-04  3.17205793E-02  3.64332946E-02 -3.09497356E-02
  8.42673733E-17  1.34402295E-03  2.85596920E-02  4.40001101E-02  1.09642096E-02
  3.33577653E-17 -1.25887450E-02 -7.79144214E-02 -1.06380508E-01  1.93376294E-01
  3.12838342E-17 -7.46348625E-17  1.40905040E-16 -2.92389811E-32  1.00000000E+00
 -1.14682969E-16 -7.09989972E-16  3.13428594E-16  9.38419809E-16  2.15004936E-01
 -8.21856855E-18 -1.74630623E-16 -5.67349148E-17  2.77921462E-16  2.56639912E-02
 -1.71816797E-18 -6.49810713E-17 -7.46352861E-17  8.42673733E-17  1.01854727E-02
 -3.05042292E-18 -6.48196810E-17 -9.98635807E-17  3.33577653E-17  2.56617133E-02
  1.81475131E-17  1.12318820E-16  1.53354578E-16  3.12838342E-17  2.15077572E-01
  2.47674403E-31  9.72994279E-32  0.00000000E+00 -2.53081600E-47  1.00000000E+00
  5.29064196E-03  9.55903187E-02 -3.29116238E-02  1.19138660E-01 -2.36446288E-16
  6.08874056E-02  4.85212737E-01  1.47061368E-01  4.40014721E-01 -8.45096437E-16
  5.29176584E-03  9.56049109E-02  9.79163065E-02  7.54563185E-02 -1.37298098E-16
  9.20087291E-05  6.45003131E-03  6.75860783E-03  8.28683980E-03 -1.54974442E-17
  1.21817086E-05  1.84747902E-03  1.05294511E-03  3.15324093E-03 -6.05624175E-18
  9.19773484E-05  6.44864959E-03 -4.21949098E-04  1.06830173E-02 -2.09366027E-17
  1.00000000E+00  9.18753931E-05  6.44415922E-03 -9.45667472E-03  4.97273417E-03
 -1.07167321E-17  5.29116530E-03  9.55971136E-02 -1.19639927E-01  3.10704895E-02
 -7.33103689E-17  6.08838509E-02  4.85198418E-01 -3.07669085E-01  3.47234316E-01
 -7.11338637E-16  5.29246541E-03  9.56139937E-02 -1.64086457E-02  1.22533853E-01
 -2.41355408E-16  9.19352201E-05  6.44679436E-03 -3.79728042E-03  9.99121385E-03
 -1.99376529E-17  1.21620393E-05  1.84565734E-03 -2.20227216E-03  2.48620164E-03
 -5.09312538E-18  5.00066312E-02  1.00000000E+00  9.20087291E-05  6.45003131E-03
 -6.75860783E-03 -8.28683980E-03  1.54974442E-17  1.21817086E-05  1.84747902E-03
 -1.05294511E-03 -3.15324093E-03  6.05624175E-18  9.19773484E-05  6.44864959E-03
  4.21949098E-04 -1.06830173E-02  2.09366027E-17  5.29064196E-03  9.55903187E-02
  3.29116238E-02 -1.19138660E-01  2.36446288E-16  6.08874056E-02  4.85212737E-01
 -1.47061368E-01 -4.40014721E-01  8.45096437E-16  5.29176584E-03  9.56049109E-02
 -9.79163065E-02 -7.54563185E-02  1.37298098E-16  1.11528442E-04  7.61637368E-04
  1.00000000E+00  5.29246541E-03  9.56139937E-02  1.64086457E-02 -1.22533853E-01
  2.41355408E-16  9.19352201E-05  6.44679436E-03  3.79728042E-03 -9.99121385E-03
  1.99376529E-17  1.21620393E-05  1.84565734E-03  2.20227216E-03 -2.48620164E-03
  5.09312538E-18  9.18753931E-05  6.44415922E-03  9.45667472E-03 -4.97273417E-03
  1.07167321E-17  5.29116530E-03  9.55971136E-02  1.19639927E-01 -3.10704895E-02
  7.33103689E-17  6.08838509E-02  4.85198418E-01  3.07669085E-01 -3.47234316E-01
  7.11338637E-16  7.61637368E-04  1.11398407E-04  5.00066312E-02  1.00000000E+00
  9.22885316E-53  1.06745412E-07 -4.29246199E-07 -8.75707565E-08  1.26242119E-22
  1.51058224E-41  2.34817295E-06 -7.39185638E-06 -4.25538071E-06  7.54686924E-21
  3.91179358E-19  1.14467049E-03 -2.12573746E-03 -1.77720085E-03  3.25266754E-18
  6.33881341E-08  2.65883850E-02 -4.36861748E-02 -8.91677985E-03  1.28566721E-17
  3.88855306E-19  1.14385146E-03 -2.65040526E-03  8.01670772E-04 -1.84575270E-18
  1.49285306E-41  2.34485482E-06 -8.45667496E-06  1.01793783E-06 -2.87762100E-21
  2.05131401E-07  1.01737671E-03  1.01718898E-03  2.04866536E-07  1.00000000E+00
  1.06745412E-07  2.93227593E-04 -6.32203684E-04 -1.28976226E-04  1.85932299E-19
  2.34817295E-06  1.52827565E-03 -2.63558426E-03 -1.51726628E-03  2.69085447E-18
  1.14467049E-03  4.65534822E-02 -5.41969969E-02 -4.53108396E-02  8.29287794E-17
  2.65883850E-02  2.98493812E-01 -3.29566904E-01 -6.72678609E-02  9.69902640E-17
  1.14385146E-03  4.65343398E-02 -6.75924490E-02  2.04447568E-02 -4.70716488E-17
  2.34485482E-06  1.52711465E-03 -3.01717788E-03  3.63180506E-04 -1.02667945E-18
  1.58079961E-04  3.04893695E-02  3.04856017E-02  1.57958181E-04  2.48362390E-01
  1.00000000E+00  4.29246199E-07  6.32203684E-04 -1.28669150E-03 -2.81762970E-04
  4.06189871E-19  7.39185638E-06  2.63558426E-03 -4.16355691E-03 -2.68973754E-03
  4.77021890E-18  2.12573746E-03  5.41969969E-02 -5.01125605E-02 -5.77259802E-02
  1.05651211E-16  4.36861748E-02  3.29566904E-01 -2.94979322E-01 -9.37446014E-02
  1.35165791E-16  2.65040526E-03  6.75924490E-02 -8.85136172E-02  3.24973117E-02
 -7.48212396E-17  8.45667496E-06  3.01717788E-03 -5.61944053E-03  7.37599924E-04
 -2.08513033E-18  2.55811836E-04  1.99234120E-02  3.40091238E-02  3.15852575E-04
 -3.07793116E-16  6.95776166E-17  1.00000000E+00  8.75707565E-08  1.28976226E-04
 -2.81762970E-04  3.69454331E-05  8.28670222E-20  4.25538071E-06  1.51726628E-03
 -2.68973754E-03 -1.03975993E-03  2.74614339E-18  1.77720085E-03  4.53108396E-02
 -5.77259802E-02 -2.93268311E-02  8.83286039E-17  8.91677985E-03  6.72678609E-02
 -9.37446014E-02  1.45171458E-01  2.75886733E-17 -8.01670772E-04 -2.04447568E-02
  3.24973117E-02  9.09631159E-03  2.26312564E-17 -1.01793783E-06 -3.63180506E-04
  7.37599924E-04  4.19498624E-04  2.50989076E-19  2.06039548E-04  4.00232367E-02
 -2.90126424E-02 -8.92861032E-05 -5.75170757E-17  1.50897990E-16  0.00000000E+00
  1.00000000E+00 -1.26242119E-22 -1.85932299E-19  4.06189871E-19  8.28670222E-20
  9.44280538E-05 -7.54686924E-21 -2.69085447E-18  4.77021890E-18  2.74614339E-18
  5.08681585E-04 -3.25266754E-18 -8.29287794E-17  1.05651211E-16  8.83286039E-17
  1.89343784E-02 -1.28566721E-17 -9.69902640E-17  1.35165791E-16  2.75886733E-17
  1.64305657E-01  1.84575270E-18  4.70716488E-17 -7.48212396E-17  2.26312564E-17
  1.89258065E-02  2.87762100E-21  1.02667945E-18 -2.08513033E-18  2.50989076E-19
  5.08284213E-04 -3.76115472E-19 -7.61824135E-17  6.03055229E-17  2.07737820E-19
  7.28799087E-32 -2.04315539E-31 -1.30258264E-46 -2.59694320E-47  1.00000000E+00
  1.47225279E-74  2.64963546E-10 -1.29521865E-09  2.11748576E-11 -1.77244852E-25
  3.15953097E-53  9.38978532E-08 -3.77545207E-07 -8.54157144E-08  1.27449649E-22
  2.41845956E-25  2.05744451E-04 -5.62474885E-04 -1.33199226E-04  2.01503751E-19
  8.88424017E-19  1.26320676E-03 -2.92715020E-03  7.72108474E-04 -1.81696208E-18
  4.15816668E-40  3.49292959E-06 -1.11351303E-05  5.58991274E-06 -1.20997491E-20
  5.40065296E-68  1.61150042E-09 -7.20785179E-09  2.14683477E-09 -4.95439143E-24
  3.74728463E-08  1.48084008E-03  5.44616205E-06  1.39591865E-10  3.04987038E-06
  4.47243006E-02 -5.17653303E-02  5.31703981E-02 -1.09412038E-16  1.00000000E+00
  2.64963546E-10  1.22404593E-05 -3.16710808E-05  5.17774068E-07 -4.33404510E-21
  9.38978532E-08  2.73906286E-04 -5.90151022E-04 -1.33515590E-04  1.99219959E-19
  2.05744451E-04  1.76113287E-02 -2.85372124E-02 -6.75787439E-03  1.02233104E-17
  1.26320676E-03  4.92679015E-02 -7.18434953E-02  1.89505040E-02 -4.45952199E-17
  3.49292959E-06  1.89227713E-03 -3.31868299E-03  1.66600191E-03 -3.60617526E-18
  1.61150042E-09  3.17846220E-05 -7.53841746E-05  2.24529266E-05 -5.18160916E-20
  5.74574690E-05  3.92739296E-02  1.13225154E-03  2.08624942E-06  4.47243006E-02
  4.02773183E-01 -2.88955938E-01  2.96799077E-01 -6.10741936E-16  2.48362390E-01
  1.00000000E+00  1.29521865E-09  3.16710808E-05 -7.83167081E-05  1.34342676E-06
 -1.12451985E-20  3.77545207E-07  5.90151022E-04 -1.19972541E-03 -2.91363378E-04
  4.34746236E-19  5.62474885E-04  2.85372124E-02 -4.28466297E-02 -1.17070996E-02
  1.77104968E-17  2.92715020E-03  7.18434953E-02 -9.46869801E-02  3.02923286E-02
 -7.12853366E-17  1.11351303E-05  3.31868299E-03 -5.36450788E-03  3.01121358E-03
 -6.51797809E-18  7.20785179E-09  7.53841746E-05 -1.69541690E-04  5.34912347E-05
 -1.23445231E-19  1.15420705E-04  4.60238929E-02  1.55580819E-03  4.91997829E-06
  5.17653303E-02  2.88955938E-01 -3.45116016E-02  2.85322875E-01 -5.87126641E-16
 -2.00098325E-16  9.60127184E-16  1.00000000E+00 -2.11748576E-11 -5.17774068E-07
  1.34342676E-06  3.83573700E-06  1.83841915E-22  8.54157144E-08  1.33515590E-04
 -2.91363378E-04  2.22091918E-05  9.83568582E-20  1.33199226E-04  6.75787439E-03
 -1.17070996E-02  3.81786616E-03  4.19400854E-18 -7.72108474E-04 -1.89505040E-02
  3.02923286E-02  1.21642968E-02  1.88032758E-17 -5.58991274E-06 -1.66600191E-03
  3.01121358E-03 -8.77807551E-04  3.27207026E-18 -2.14683477E-09 -2.24529266E-05
  5.34912347E-05 -5.88069319E-06  3.67677531E-20  5.03504374E-05  3.22486839E-02
 -1.41043300E-03 -2.01183158E-06 -5.31703981E-02 -2.96799077E-01  2.85322875E-01
 -4.97960002E-02  6.03063036E-16 -2.62354908E-17 -7.54489951E-17 -5.84779622E-32
  1.00000000E+00  1.77244852E-25  4.33404510E-21 -1.12451985E-20  1.83841915E-22
  3.85769998E-06 -1.27449649E-22 -1.99219959E-19  4.34746236E-19  9.83568582E-20
  8.81271552E-05 -2.01503751E-19 -1.02233104E-17  1.77104968E-17  4.19400854E-18
  6.59021502E-03  1.81696208E-18  4.45952199E-17 -7.12853366E-17  1.88032758E-17
  2.01546499E-02  1.20997491E-20  3.60617526E-18 -6.51797809E-18  3.27207026E-18
  6.33842577E-04  4.95439143E-24  5.18160916E-20 -1.23445231E-19  3.67677531E-20
  1.00514938E-05 -8.63637798E-20 -5.82407833E-17  2.92149060E-18  4.45043392E-21
  1.09412038E-16  6.10741936E-16 -5.87126641E-16  6.03063036E-16  2.43271401E-01
 -1.49867846E-32  3.08986688E-32  0.00000000E+00  0.00000000E+00  1.00000000E+00
  7.41680361E-08  8.62330313E-05 -1.69957607E-04 -7.32511064E-05  1.25430234E-19
  2.85181282E-07  1.92426968E-04 -3.03518210E-04 -2.53656012E-04  4.64233965E-19
  6.94927243E-05  5.41006775E-03 -5.73149530E-03 -7.04009814E-03  1.31669580E-17
  4.44493833E-03  8.43832651E-02 -8.72231161E-02 -6.84032489E-02  1.24626122E-16
  1.14946288E-03  3.30926736E-02 -4.77834330E-02 -5.94354396E-03  6.61233956E-18
  4.69613642E-06  1.03505424E-03 -1.90849174E-03 -2.88671229E-04  3.64392747E-19
  1.49461234E-05  2.79609580E-03  5.54692998E-02  2.06833017E-04  6.10855877E-02
  4.86010001E-01 -1.04860636E-01 -4.52430081E-01  8.73802397E-16  5.78115105E-03
  1.01890938E-01  4.15192821E-02 -1.23887673E-01  2.46636459E-16  1.00000000E+00
  1.17574263E-11  4.82167356E-07 -1.29920889E-06 -2.80482495E-08 -8.13996524E-23
  2.61557141E-09  1.18376124E-05 -2.73329062E-05 -6.05946473E-06  8.98375816E-21
  5.71623743E-06  1.16596450E-03 -2.10470388E-03 -4.79472069E-04  7.16956910E-19
  5.60690731E-05  4.73213080E-03 -7.95518537E-03  9.58086885E-04 -2.70797997E-18
  2.49178440E-07  1.77533321E-04 -3.48016438E-04  1.15111225E-04 -2.61616117E-19
  1.14557941E-10  1.85585227E-06 -4.65407222E-06  9.53184455E-07 -2.35219341E-21
  2.78911361E-06  4.16626666E-03  1.98901713E-04  1.51794016E-07  5.78140573E-03
  1.01894175E-01 -1.22735715E-01  4.48206800E-02 -1.00525735E-16  6.10850997E-02
  4.86008040E-01 -4.55071040E-01 -9.27252732E-02  1.33614262E-16  4.83128210E-02
  1.00000000E+00  2.89127764E-08  4.92515142E-05 -1.05909652E-04  2.48515718E-05
 -5.97083380E-20  7.47252902E-06  1.37187357E-03 -2.51368675E-03  6.92817825E-05
 -3.99110582E-19  1.32819924E-03  3.64817255E-02 -5.20184038E-02  7.69756180E-03
 -2.05091636E-17  9.08755529E-04  2.82732793E-02 -3.28687591E-02  2.57405154E-02
 -5.37867606E-17  3.49483384E-06  8.65694395E-04 -1.22148400E-03  1.08212511E-03
 -2.24437021E-18  1.98010906E-08  3.93342514E-05 -7.68802784E-05  4.25362888E-05
 -9.12492248E-20  5.46289496E-04  1.29837666E-01  2.65253358E-04  2.09214798E-06
  5.78115091E-03  1.01890936E-01 -4.15192813E-02  1.23887672E-01 -2.46636455E-16
  6.10855863E-02  4.86009995E-01  1.04860634E-01  4.52430078E-01 -8.73802391E-16
  1.41444010E-02  1.52206714E-01  1.00000000E+00  6.33881341E-08  2.65883850E-02
  4.36861748E-02  8.91677985E-03 -1.28566721E-17  3.88855306E-19  1.14385146E-03
  2.65040526E-03 -8.01670772E-04  1.84575270E-18  1.49285306E-41  2.34485482E-06
  8.45667496E-06 -1.01793783E-06  2.87762100E-21  9.22885316E-53  1.06745412E-07
  4.29246199E-07  8.75707565E-08 -1.26242119E-22  1.51058224E-41  2.34817295E-06
  7.39185638E-06  4.25538071E-06 -7.54686924E-21  3.91179358E-19  1.14467049E-03
  2.12573746E-03  1.77720085E-03 -3.25266754E-18  1.01718898E-03  2.04866536E-07
  2.05131401E-07  1.01737671E-03  9.02103186E-96  7.80481257E-13  4.23971132E-12
  8.65056351E-13 -1.24712317E-27  0.00000000E+00  3.77253247E-16  2.37488320E-15
  7.95092581E-17  9.35690641E-32  3.63456936E-12  5.21668335E-17  2.01943028E-12
  1.00000000E+00  2.65883850E-02  2.98493812E-01  3.29566904E-01  6.72678609E-02
 -9.69902640E-17  1.14385146E-03  4.65343398E-02  6.75924490E-02 -2.04447568E-02
  4.70716488E-17  2.34485482E-06  1.52711465E-03  3.01717788E-03 -3.63180506E-04
  1.02667945E-18  1.06745412E-07  2.93227593E-04  6.32203684E-04  1.28976226E-04
 -1.85932299E-19  2.34817295E-06  1.52827565E-03  2.63558426E-03  1.51726628E-03
 -2.69085447E-18  1.14467049E-03  4.65534822E-02  5.41969969E-02  4.53108396E-02
 -8.29287794E-17  3.04856017E-02  1.57958181E-04  1.58079961E-04  3.04893695E-02
  7.80481257E-13  5.63355794E-07  1.61753600E-06  3.30036571E-07 -4.75802826E-22
  3.77253247E-16  9.94828380E-09  3.31343834E-08  1.10931361E-09  1.30547610E-24
  2.40635379E-07  3.25513079E-10  1.69926554E-07  2.48362390E-01  1.00000000E+00
 -4.36861748E-02 -3.29566904E-01 -2.94979322E-01 -9.37446014E-02  1.35165791E-16
 -2.65040526E-03 -6.75924490E-02 -8.85136172E-02  3.24973117E-02 -7.48212396E-17
 -8.45667496E-06 -3.01717788E-03 -5.61944053E-03  7.37599924E-04 -2.08513033E-18
 -4.29246199E-07 -6.32203684E-04 -1.28669150E-03 -2.81762970E-04  4.06189871E-19
 -7.39185638E-06 -2.63558426E-03 -4.16355691E-03 -2.68973754E-03  4.77021890E-18
 -2.12573746E-03 -5.41969969E-02 -5.01125605E-02 -5.77259802E-02  1.05651211E-16
 -3.40091238E-02 -3.15852575E-04 -2.55811836E-04 -1.99234120E-02 -4.23971132E-12
 -1.61753600E-06 -4.47030127E-06 -9.48173809E-07  1.36695087E-21 -2.37488320E-15
 -3.31343834E-08 -1.07249239E-07 -3.69502799E-09 -4.34842834E-24 -6.22725543E-07
 -1.08693996E-09 -4.71085513E-07  3.07793116E-16 -6.95776166E-17  1.00000000E+00
 -8.91677985E-03 -6.72678609E-02 -9.37446014E-02  1.45171458E-01  2.75886733E-17
  8.01670772E-04  2.04447568E-02  3.24973117E-02  9.09631159E-03  2.26312564E-17
  1.01793783E-06  3.63180506E-04  7.37599924E-04  4.19498624E-04  2.50989076E-19
 -8.75707565E-08 -1.28976226E-04 -2.81762970E-04  3.69454331E-05  8.28670222E-20
 -4.25538071E-06 -1.51726628E-03 -2.68973754E-03 -1.03975993E-03  2.74614339E-18
 -1.77720085E-03 -4.53108396E-02 -5.77259802E-02 -2.93268311E-02  8.83286039E-17
  2.90126424E-02  8.92861032E-05 -2.06039548E-04 -4.00232367E-02 -8.65056351E-13
 -3.30036571E-07 -9.48173809E-07 -1.66867195E-08  2.78908030E-22 -7.95092581E-17
 -1.10931361E-09 -3.69502799E-09  2.99482886E-09 -1.45582028E-25 -2.32855574E-07
 -6.20812511E-11  6.20212030E-08  5.75170757E-17 -1.50897990E-16  0.00000000E+00
  1.00000000E+00  1.28566721E-17  9.69902640E-17  1.35165791E-16  2.75886733E-17
  1.64305657E-01 -1.84575270E-18 -4.70716488E-17 -7.48212396E-17  2.26312564E-17
  1.89258065E-02 -2.87762100E-21 -1.02667945E-18 -2.08513033E-18  2.50989076E-19
  5.08284213E-04  1.26242119E-22  1.85932299E-19  4.06189871E-19  8.28670222E-20
  9.44280538E-05  7.54686924E-21  2.69085447E-18  4.77021890E-18  2.74614339E-18
  5.08681585E-04  3.25266754E-18  8.29287794E-17  1.05651211E-16  8.83286039E-17
  1.89343784E-02 -6.03055229E-17 -2.07737820E-19  3.76115472E-19  7.61824135E-17
  1.24712317E-27  4.75802826E-22  1.36695087E-21  2.78908030E-22  1.76775456E-07
 -9.35690641E-32 -1.30547610E-24 -4.34842834E-24 -1.45582028E-25  3.11853555E-09
  3.90079008E-22  7.41870502E-27 -1.70696752E-22 -7.28799087E-32  2.04315539E-31
 -1.30258264E-46 -2.59694320E-47  1.00000000E+00  8.88424017E-19  1.26320676E-03
  2.92715020E-03 -7.72108474E-04  1.81696208E-18  4.15816668E-40  3.49292959E-06
  1.11351303E-05 -5.58991274E-06  1.20997491E-20  5.40065296E-68  1.61150042E-09
  7.20785179E-09 -2.14683477E-09  4.95439143E-24  1.47225279E-74  2.64963546E-10
  1.29521865E-09 -2.11748576E-11  1.77244852E-25  3.15953097E-53  9.38978532E-08
  3.77545207E-07  8.54157144E-08 -1.27449649E-22  2.41845956E-25  2.05744451E-04
  5.62474885E-04  1.33199226E-04 -2.01503751E-19  5.44616205E-06  1.39591865E-10
  3.74728463E-08  1.48084008E-03  0.00000000E+00  3.77253247E-16  2.37488320E-15
  7.95092581E-17  9.35690641E-32  0.00000000E+00  1.32352584E-20  9.47072263E-20
 -9.05143163E-21  2.76337963E-35  2.51067327E-14  7.73708215E-21  2.95521187E-16
  3.04987038E-06  4.47243006E-02  5.17653303E-02 -5.31703981E-02  1.09412038E-16
  1.00000000E+00  1.26320676E-03  4.92679015E-02  7.18434953E-02 -1.89505040E-02
  4.45952199E-17  3.49292959E-06  1.89227713E-03  3.31868299E-03 -1.66600191E-03
  3.60617526E-18  1.61150042E-09  3.17846220E-05  7.53841746E-05 -2.24529266E-05
  5.18160916E-20  2.64963546E-10  1.22404593E-05  3.16710808E-05 -5.17774068E-07
  4.33404510E-21  9.38978532E-08  2.73906286E-04  5.90151022E-04  1.33515590E-04
 -1.99219959E-19  2.05744451E-04  1.76113287E-02  2.85372124E-02  6.75787439E-03
 -1.02233104E-17  1.13225154E-03  2.08624942E-06  5.74574690E-05  3.92739296E-02
  3.77253247E-16  9.94828380E-09  3.31343834E-08  1.10931361E-09  1.30547610E-24
  1.32352584E-20  4.35420739E-11  1.65098631E-10 -1.57789329E-11  4.81726910E-26
  1.26462377E-08  1.74466664E-12  9.09887554E-10  4.47243006E-02  4.02773183E-01
  2.88955938E-01 -2.96799077E-01  6.10741936E-16  2.48362390E-01  1.00000000E+00
 -2.92715020E-03 -7.18434953E-02 -9.46869801E-02  3.02923286E-02 -7.12853366E-17
 -1.11351303E-05 -3.31868299E-03 -5.36450788E-03  3.01121358E-03 -6.51797809E-18
 -7.20785179E-09 -7.53841746E-05 -1.69541690E-04  5.34912347E-05 -1.23445231E-19
 -1.29521865E-09 -3.16710808E-05 -7.83167081E-05  1.34342676E-06 -1.12451985E-20
 -3.77545207E-07 -5.90151022E-04 -1.19972541E-03 -2.91363378E-04  4.34746236E-19
 -5.62474885E-04 -2.85372124E-02 -4.28466297E-02 -1.17070996E-02  1.77104968E-17
 -1.55580819E-03 -4.91997829E-06 -1.15420705E-04 -4.60238929E-02 -2.37488320E-15
 -3.31343834E-08 -1.07249239E-07 -3.69502799E-09 -4.34842834E-24 -9.47072263E-20
 -1.65098631E-10 -6.12360559E-10  5.98293174E-11 -1.82657422E-25 -3.77302771E-08
 -6.52016240E-12 -2.88196906E-09 -5.17653303E-02 -2.88955938E-01 -3.45116016E-02
  2.85322875E-01 -5.87126641E-16  2.00098325E-16 -9.60127184E-16  1.00000000E+00
  7.72108474E-04  1.89505040E-02  3.02923286E-02  1.21642968E-02  1.88032758E-17
  5.58991274E-06  1.66600191E-03  3.01121358E-03 -8.77807551E-04  3.27207026E-18
  2.14683477E-09  2.24529266E-05  5.34912347E-05 -5.88069319E-06  3.67677531E-20
  2.11748576E-11  5.17774068E-07  1.34342676E-06  3.83573700E-06  1.83841915E-22
 -8.54157144E-08 -1.33515590E-04 -2.91363378E-04  2.22091918E-05  9.83568582E-20
 -1.33199226E-04 -6.75787439E-03 -1.17070996E-02  3.81786616E-03  4.19400854E-18
  1.41043300E-03  2.01183158E-06 -5.03504374E-05 -3.22486839E-02 -7.95092581E-17
 -1.10931361E-09 -3.69502799E-09  2.99482886E-09 -1.45582028E-25  9.05143163E-21
  1.57789329E-11  5.98293174E-11  7.92939705E-12  1.74570752E-26 -7.04753586E-09
  3.81113467E-13  7.04034012E-10  5.31703981E-02  2.96799077E-01  2.85322875E-01
 -4.97960002E-02  6.03063036E-16  2.62354908E-17  7.54489951E-17 -5.84779622E-32
  1.00000000E+00 -1.81696208E-18 -4.45952199E-17 -7.12853366E-17  1.88032758E-17
  2.01546499E-02 -1.20997491E-20 -3.60617526E-18 -6.51797809E-18  3.27207026E-18
  6.33842577E-04 -4.95439143E-24 -5.18160916E-20 -1.23445231E-19  3.67677531E-20
  1.00514938E-05 -1.77244852E-25 -4.33404510E-21 -1.12451985E-20  1.83841915E-22
  3.85769998E-06  1.27449649E-22  1.99219959E-19  4.34746236E-19  9.83568582E-20
  8.81271552E-05  2.01503751E-19  1.02233104E-17  1.77104968E-17  4.19400854E-18
  6.59021502E-03 -2.92149060E-18 -4.45043392E-21  8.63637798E-20  5.82407833E-17
 -9.35690641E-32 -1.30547610E-24 -4.34842834E-24 -1.45582028E-25  3.11853555E-09
 -2.76337963E-35 -4.81726910E-26 -1.82657422E-25  1.74570752E-26  1.36474504E-11
  9.82568154E-24 -1.42912024E-27 -1.67909327E-24 -1.09412038E-16 -6.10741936E-16
 -5.87126641E-16  6.03063036E-16  2.43271401E-01  1.49867846E-32 -3.08986688E-32
  0.00000000E+00  0.00000000E+00  1.00000000E+00  4.44493833E-03  8.43832651E-02
  8.72231161E-02  6.84032489E-02 -1.24626122E-16  1.14946288E-03  3.30926736E-02
  4.77834330E-02  5.94354396E-03 -6.61233956E-18  4.69613642E-06  1.03505424E-03
  1.90849174E-03  2.88671229E-04 -3.64392747E-19  7.41680361E-08  8.62330313E-05
  1.69957607E-04  7.32511064E-05 -1.25430234E-19  2.85181282E-07  1.92426968E-04
  3.03518210E-04  2.53656012E-04 -4.64233965E-19  6.94927243E-05  5.41006775E-03
  5.73149530E-03  7.04009814E-03 -1.31669580E-17  5.54692998E-02  2.06833017E-04
  1.49461234E-05  2.79609580E-03  3.63456936E-12  2.40635379E-07  6.22725543E-07
  2.32855574E-07 -3.90079008E-22  2.51067327E-14  1.26462377E-08  3.77302771E-08
  7.04753586E-09 -9.82568154E-24  5.59348657E-08  4.11819602E-10  2.83715240E-07
  6.10855877E-02  4.86010001E-01  1.04860636E-01  4.52430081E-01 -8.73802397E-16
  5.78115105E-03  1.01890938E-01 -4.15192821E-02  1.23887673E-01 -2.46636459E-16
  1.00000000E+00  5.60690731E-05  4.73213080E-03  7.95518537E-03 -9.58086885E-04
  2.70797997E-18  2.49178440E-07  1.77533321E-04  3.48016438E-04 -1.15111225E-04
  2.61616117E-19  1.14557941E-10  1.85585227E-06  4.65407222E-06 -9.53184455E-07
  2.35219341E-21  1.17574263E-11  4.82167356E-07  1.29920889E-06  2.80482495E-08
  8.13996524E-23  2.61557141E-09  1.18376124E-05  2.73329062E-05  6.05946473E-06
 -8.98375816E-21  5.71623743E-06  1.16596450E-03  2.10470388E-03  4.79472069E-04
 -7.16956910E-19  1.98901713E-04  1.51794016E-07  2.78911361E-06  4.16626666E-03
  5.21668335E-17  3.25513079E-10  1.08693996E-09  6.20812511E-11 -7.41870502E-27
  7.73708215E-21  1.74466664E-12  6.52016240E-12 -3.81113467E-13  1.42912024E-27
  4.11819602E-10  6.72822756E-14  4.63163947E-11  5.78140573E-03  1.01894175E-01
  1.22735715E-01 -4.48206800E-02  1.00525735E-16  6.10850997E-02  4.86008040E-01
  4.55071040E-01  9.27252732E-02 -1.33614262E-16  4.83128210E-02  1.00000000E+00
  9.08755529E-04  2.82732793E-02  3.28687591E-02 -2.57405154E-02  5.37867606E-17
  3.49483384E-06  8.65694395E-04  1.22148400E-03 -1.08212511E-03  2.24437021E-18
  1.98010906E-08  3.93342514E-05  7.68802784E-05 -4.25362888E-05  9.12492248E-20
  2.89127764E-08  4.92515142E-05  1.05909652E-04 -2.48515718E-05  5.97083380E-20
  7.47252902E-06  1.37187357E-03  2.51368675E-03 -6.92817825E-05  3.99110582E-19
  1.32819924E-03  3.64817255E-02  5.20184038E-02 -7.69756180E-03  2.05091636E-17
  2.65253358E-04  2.09214798E-06  5.46289496E-04  1.29837666E-01  2.01943028E-12
  1.69926554E-07  4.71085513E-07 -6.20212030E-08  1.70696752E-22  2.95521187E-16
  9.09887554E-10  2.88196906E-09 -7.04034012E-10  1.67909327E-24  2.83715240E-07
  4.63163947E-11  4.06637549E-09  5.78115091E-03  1.01890936E-01  4.15192813E-02
 -1.23887672E-01  2.46636455E-16  6.10855863E-02  4.86009995E-01 -1.04860634E-01
 -4.52430078E-01  8.73802391E-16  1.41444010E-02  1.52206714E-01  1.00000000E+00
Kinetic Energy Matrix                      R   N=        1830
  1.58911217E+01 -8.58900137E-02  4.72249973E-01  0.00000000E+00  0.00000000E+00
  1.47772808E+00  0.00000000E+00  0.00000000E+00  0.00000000E+00  1.47772808E+00
  0.00000000E+00  0.00000000E+00  0.00000000E+00  0.00000000E+00  1.47772808E+00
 -3.53940688E-05 -8.43110030E-03  7.71716965E-03 -8.71084328E-03  1.78447754E-17
  1.58911217E+01 -8.43110030E-03  4.60533250E-02 -9.92832755E-02  1.12067130E-01
 -2.29577401E-16 -8.58900137E-02  4.72249973E-01 -7.71716965E-03  9.92832755E-02
 -9.41345093E-02  1.90829709E-01 -3.90928086E-16  0.00000000E+00  0.00000000E+00
  1.47772808E+00  8.71084328E-03 -1.12067130E-01  1.90829709E-01 -1.40474564E-01
  4.41264537E-16  0.00000000E+00  0.00000000E+00  0.00000000E+00  1.47772808E+00
 -1.78447754E-17  2.29577401E-16 -3.90928086E-16  4.41264537E-16  7.49266469E-02
  0.00000000E+00  0.00000000E+00  0.00000000E+00  0.00000000E+00  1.47772808E+00
  0.00000000E+00 -2.29206936E-03  3.36295826E-03 -1.12334018E-03  2.54955662E-18
 -3.56485680E-05 -8.43112877E-03  1.13960470E-02  2.32475645E-03 -3.35129104E-18
  1.58911217E+01 -2.29206936E-03 -1.75273954E-02  9.77820148E-03 -3.26624528E-03
  7.41313939E-18 -8.43112877E-03  4.61444255E-02 -1.46862493E-01 -2.99594701E-02
  4.31885687E-17 -8.58900137E-02  4.72249973E-01 -3.36295826E-03 -9.77820148E-03
 -1.01223126E-02  2.08512477E-03 -4.73244328E-18 -1.13960470E-02  1.46862493E-01
 -2.94440655E-01 -7.53749244E-02  1.08657967E-16  0.00000000E+00  0.00000000E+00
  1.47772808E+00  1.12334018E-03  3.26624528E-03  2.08512477E-03 -4.57654834E-03
  1.58079383E-18 -2.32475645E-03  2.99594701E-02 -7.53749244E-02  5.96739312E-02
  2.21658711E-17  0.00000000E+00  0.00000000E+00  0.00000000E+00  1.47772808E+00
 -2.54955662E-18 -7.41313939E-18 -4.73244328E-18  1.58079383E-18 -3.88004715E-03
  3.35129104E-18 -4.31885687E-17  1.08657967E-16  2.21658711E-17  7.50501702E-02
  0.00000000E+00  0.00000000E+00  0.00000000E+00  0.00000000E+00  1.47772808E+00
  0.00000000E+00 -7.86369097E-04  1.58252465E-03  3.22764969E-04 -4.65253804E-19
  0.00000000E+00 -2.29398733E-03  2.65556483E-03  2.35214255E-03 -4.32149332E-18
 -3.55423808E-05 -8.43111840E-03  3.68545215E-03  1.10344154E-02 -2.11930607E-17
  1.58911217E+01 -7.86369097E-04 -1.21380658E-02  1.23197389E-02  2.51268134E-03
 -3.62193752E-18 -2.29398733E-03 -1.75307675E-02  7.71133828E-03  6.83024820E-03
 -1.25489299E-17 -8.43111840E-03  4.61064794E-02 -4.74612832E-02 -1.42101293E-01
  2.72924411E-16 -8.58900137E-02  4.72249973E-01 -1.58252465E-03 -1.23197389E-02
  6.44032044E-03  2.00491653E-03 -2.89001327E-18 -2.65556483E-03 -7.71133828E-03
 -7.78297102E-03 -3.45785357E-03  6.35297002E-18 -3.68545215E-03  4.74612832E-02
  3.63910900E-02 -1.15593020E-01  2.22011753E-16  0.00000000E+00  0.00000000E+00
  1.47772808E+00 -3.22764969E-04 -2.51268134E-03  2.00491653E-03 -2.98092081E-03
 -5.89434765E-19 -2.35214255E-03 -6.83024820E-03 -3.45785357E-03 -6.94182293E-03
  5.62708579E-18 -1.10344154E-02  1.42101293E-01 -1.15593020E-01 -2.71092175E-01
  6.64713529E-16  0.00000000E+00  0.00000000E+00  0.00000000E+00  1.47772808E+00
  4.65253804E-19  3.62193752E-18 -2.89001327E-18 -5.89434765E-19 -3.38983503E-03
  4.32149332E-18  1.25489299E-17  6.35297002E-18  5.62708579E-18 -3.87906037E-03
  2.11930607E-17 -2.72924411E-16  2.22011753E-16  6.64713529E-16  7.49987126E-02
  0.00000000E+00  0.00000000E+00  0.00000000E+00  0.00000000E+00  1.47772808E+00
  0.00000000E+00 -2.29398733E-03  2.65556483E-03  2.35214255E-03 -4.32149332E-18
  0.00000000E+00 -7.87015709E-04  5.11735627E-04  1.53302082E-03 -2.94440029E-18
  0.00000000E+00 -2.29227956E-03 -7.09216945E-04  3.47416773E-03 -6.86866949E-18
 -3.53940688E-05 -8.43110030E-03 -7.71716965E-03  8.71084328E-03 -1.78447754E-17
  1.58911217E+01 -2.29398733E-03 -1.75307675E-02  7.71133828E-03  6.83024820E-03
 -1.25489299E-17 -7.87015709E-04 -1.21421388E-02  3.98162305E-03  1.19278602E-02
 -2.29092747E-17 -2.29227956E-03 -1.75277652E-02 -2.06183898E-03  1.01001175E-02
 -1.99686296E-17 -8.43110030E-03  4.60533250E-02  9.92832755E-02 -1.12067130E-01
  2.29577401E-16 -8.58900137E-02  4.72249973E-01 -2.65556483E-03 -7.71133828E-03
 -7.78297102E-03 -3.45785357E-03  6.35297002E-18 -5.11735627E-04 -3.98162305E-03
 -2.36467689E-03  3.07386110E-03 -5.90381906E-18  7.09216945E-04  2.06183898E-03
 -4.15765383E-03  1.36041201E-03 -2.68962848E-18  7.71716965E-03 -9.92832755E-02
 -9.41345093E-02  1.90829709E-01 -3.90928086E-16  0.00000000E+00  0.00000000E+00
  1.47772808E+00 -2.35214255E-03 -6.83024820E-03 -3.45785357E-03 -6.94182293E-03
  5.62708579E-18 -1.53302082E-03 -1.19278602E-02  3.07386110E-03  5.81769386E-03
 -1.76862369E-17 -3.47416773E-03 -1.01001175E-02  1.36041201E-03 -1.05440489E-02
  1.31754050E-17 -8.71084328E-03  1.12067130E-01  1.90829709E-01 -1.40474564E-01
  4.41264537E-16  0.00000000E+00  0.00000000E+00  0.00000000E+00  1.47772808E+00
  4.32149332E-18  1.25489299E-17  6.35297002E-18  5.62708579E-18 -3.87906037E-03
  2.94440029E-18  2.29092747E-17 -5.90381906E-18 -1.76862369E-17 -3.39075835E-03
  6.86866949E-18  1.99686296E-17 -2.68962848E-18  1.31754050E-17 -3.87993918E-03
  1.78447754E-17 -2.29577401E-16 -3.90928086E-16  4.41264537E-16  7.49266469E-02
  0.00000000E+00  0.00000000E+00  0.00000000E+00  0.00000000E+00  1.47772808E+00
 -3.55423808E-05 -8.43111840E-03  3.68545215E-03  1.10344154E-02 -2.11930607E-17
  0.00000000E+00 -2.29227956E-03 -7.09216945E-04  3.47416773E-03 -6.86866949E-18
  0.00000000E+00 -7.86161413E-04 -1.07063031E-03  1.20880094E-03 -2.47628454E-18
  0.00000000E+00 -2.29206936E-03 -3.36295826E-03  1.12334018E-03 -2.54955662E-18
 -3.56485680E-05 -8.43112877E-03 -1.13960470E-02 -2.32475645E-03  3.35129104E-18
  1.58911217E+01 -8.43111840E-03  4.61064794E-02 -4.74612832E-02 -1.42101293E-01
  2.72924411E-16 -2.29227956E-03 -1.75277652E-02 -2.06183898E-03  1.01001175E-02
 -1.99686296E-17 -7.86161413E-04 -1.21367570E-02 -8.33616988E-03  9.41199767E-03
 -1.92809118E-17 -2.29206936E-03 -1.75273954E-02 -9.77820148E-03  3.26624528E-03
 -7.41313939E-18 -8.43112877E-03  4.61444255E-02  1.46862493E-01  2.99594701E-02
 -4.31885687E-17 -8.58900137E-02  4.72249973E-01 -3.68545215E-03  4.74612832E-02
  3.63910900E-02 -1.15593020E-01  2.22011753E-16  7.09216945E-04  2.06183898E-03
 -4.15765383E-03  1.36041201E-03 -2.68962848E-18  1.07063031E-03  8.33616988E-03
  1.11225453E-03 -5.08277350E-03  1.04122962E-17  3.36295826E-03  9.77820148E-03
 -1.01223126E-02  2.08512477E-03 -4.73244328E-18  1.13960470E-02 -1.46862493E-01
 -2.94440655E-01 -7.53749244E-02  1.08657967E-16  0.00000000E+00  0.00000000E+00
  1.47772808E+00 -1.10344154E-02  1.42101293E-01 -1.15593020E-01 -2.71092175E-01
  6.64713529E-16 -3.47416773E-03 -1.01001175E-02  1.36041201E-03 -1.05440489E-02
  1.31754050E-17 -1.20880094E-03 -9.41199767E-03 -5.08277350E-03  2.34919463E-03
 -1.17560593E-17 -1.12334018E-03 -3.26624528E-03  2.08512477E-03 -4.57654834E-03
  1.58079383E-18  2.32475645E-03 -2.99594701E-02 -7.53749244E-02  5.96739312E-02
  2.21658711E-17  0.00000000E+00  0.00000000E+00  0.00000000E+00  1.47772808E+00
  2.11930607E-17 -2.72924411E-16  2.22011753E-16  6.64713529E-16  7.49987126E-02
  6.86866949E-18  1.99686296E-17 -2.68962848E-18  1.31754050E-17 -3.87993918E-03
  2.47628454E-18  1.92809118E-17  1.04122962E-17 -1.17560593E-17 -3.38953827E-03
  2.54955662E-18  7.41313939E-18 -4.73244328E-18  1.58079383E-18 -3.88004715E-03
 -3.35129104E-18  4.31885687E-17  1.08657967E-16  2.21658711E-17  7.50501702E-02
  0.00000000E+00  0.00000000E+00  0.00000000E+00  0.00000000E+00  1.47772808E+00
 -2.30581548E-03 -1.49750251E-02  2.52716662E-04 -9.14823426E-04  1.81558701E-18
 -1.08452365E-02  1.03737710E-01  8.09145154E-02  2.42100140E-01 -4.64979820E-16
 -2.30601755E-03 -1.49747496E-02 -7.49159357E-04 -5.77317600E-04  1.05047013E-18
 -1.57947840E-04 -3.79960836E-03 -3.11734586E-03 -3.82222884E-03  7.14805396E-18
 -2.89026761E-05 -1.45227396E-03 -6.86304282E-04 -2.05526644E-03  3.94742764E-18
 -1.57904156E-04 -3.79900803E-03  1.94634147E-04 -4.92779808E-03  9.65751041E-18
  7.60031884E-01 -1.57762202E-04 -3.79705678E-03  4.36313802E-03 -2.29432926E-03
  4.94450563E-18 -2.30590958E-03 -1.49748969E-02  9.17133285E-04 -2.38179517E-04
  5.61981112E-19 -1.08460159E-02  1.03729691E-01 -1.69275433E-01  1.91043697E-01
 -3.91369045E-16 -2.30614332E-03 -1.49745779E-02  1.25260692E-04 -9.35401709E-04
  1.84246439E-18 -1.57845504E-04 -3.79820192E-03  1.75175588E-03 -4.60913225E-03
  9.19760904E-18 -2.88623797E-05 -1.45113596E-03  1.43576079E-03 -1.62086725E-03
  3.32043870E-18 -1.06935353E-02  7.60031884E-01 -1.57947840E-04 -3.79960836E-03
  3.11734586E-03  3.82222884E-03 -7.14805396E-18 -2.89026761E-05 -1.45227396E-03
  6.86304282E-04  2.05526644E-03 -3.94742764E-18 -1.57904156E-04 -3.79900803E-03
 -1.94634147E-04  4.92779808E-03 -9.65751041E-18 -2.30581548E-03 -1.49750251E-02
 -2.52716662E-04  9.14823426E-04 -1.81558701E-18 -1.08452365E-02  1.03737710E-01
 -8.09145154E-02 -2.42100140E-01  4.64979820E-16 -2.30601755E-03 -1.49747496E-02
  7.49159357E-04  5.77317600E-04 -1.05047013E-18 -1.17661996E-04 -5.95906669E-04
  7.60031884E-01 -2.30614332E-03 -1.49745779E-02 -1.25260692E-04  9.35401709E-04
 -1.84246439E-18 -1.57845504E-04 -3.79820192E-03 -1.75175588E-03  4.60913225E-03
 -9.19760904E-18 -2.88623797E-05 -1.45113596E-03 -1.43576079E-03  1.62086725E-03
 -3.32043870E-18 -1.57762202E-04 -3.79705678E-03 -4.36313802E-03  2.29432926E-03
 -4.94450563E-18 -2.30590958E-03 -1.49748969E-02 -9.17133285E-04  2.38179517E-04
 -5.61981112E-19 -1.08460159E-02  1.03729691E-01  1.69275433E-01 -1.91043697E-01
  3.91369045E-16 -5.95906669E-04 -1.17544236E-04 -1.06935353E-02  7.60031884E-01
  0.00000000E+00 -5.70158853E-07  2.11310060E-06  4.31094832E-07 -6.21466881E-22
  0.00000000E+00 -9.50079035E-06  2.68056985E-05  1.54316381E-05 -2.73678344E-20
  0.00000000E+00 -1.65122841E-03  2.18349576E-03  1.82548908E-03 -3.34104560E-18
 -3.01234143E-06 -8.00057657E-03  1.05502055E-02  2.15340117E-03 -3.10488464E-18
  0.00000000E+00 -1.65038980E-03  2.72319414E-03 -8.23687301E-04  1.89644317E-18
  0.00000000E+00 -9.48875655E-06  3.06721612E-05 -3.69203655E-06  1.04370637E-20
 -7.57944004E-07 -9.53415941E-04 -9.53300544E-04 -7.57050941E-07  1.58911217E+01
 -5.70158853E-07 -3.98615065E-04  7.38530389E-04  1.50667997E-04 -2.17203184E-19
 -9.50079035E-06 -1.56535083E-03  2.24202773E-03  1.29070169E-03 -2.28904476E-18
 -1.65122841E-03 -1.59908938E-02  9.48108168E-03  7.92656042E-03 -1.45073450E-17
 -8.00057657E-03  2.08886897E-02 -9.92240102E-02 -2.02526007E-02  2.92012420E-17
 -1.65038980E-03 -1.59882954E-02  1.18305211E-02 -3.57838974E-03  8.23882168E-18
 -9.48875655E-06 -1.56439302E-03  2.56707267E-03 -3.09000924E-04  8.73518525E-19
 -1.90373372E-04 -1.05867082E-02 -1.05860028E-02 -1.90248348E-04 -8.58900137E-02
  4.72249973E-01 -2.11310060E-06 -7.38530389E-04  1.26117122E-03  2.80091471E-04
 -4.03780236E-19 -2.68056985E-05 -2.24202773E-03  2.81594163E-03  1.87747475E-03
 -3.32968010E-18 -2.18349576E-03 -9.48108168E-03 -3.04792336E-03  7.98855182E-04
 -1.46208028E-18 -1.05502055E-02  9.92240102E-02 -2.14550844E-01 -5.25307866E-02
  7.57415918E-17 -2.72319414E-03 -1.18305211E-02 -2.50667934E-03 -4.52692660E-04
  1.04227163E-18 -3.06721612E-05 -2.56707267E-03  3.83299808E-03 -5.14954955E-04
  1.45573252E-18 -2.67179365E-04 -4.13484276E-03 -7.05886988E-03 -3.29929131E-04
  0.00000000E+00  0.00000000E+00  1.47772808E+00 -4.31094832E-07 -1.50667997E-04
  2.80091471E-04 -5.46135205E-05 -8.23754313E-20 -1.54316381E-05 -1.29070169E-03
  1.87747475E-03  6.35487261E-04 -1.91684683E-18 -1.82548908E-03 -7.92656042E-03
  7.98855182E-04 -3.33557179E-03 -1.22235712E-18 -2.15340117E-03  2.02526007E-02
 -5.25307866E-02  3.20923365E-02  1.54596071E-17  8.23687301E-04  3.57838974E-03
 -4.52692660E-04 -3.86640099E-03 -3.15256959E-19  3.69203655E-06  3.09000924E-04
 -5.14954955E-04 -3.83083755E-04 -1.75227876E-19 -2.15195342E-04 -8.30629767E-03
  6.02180957E-03  9.32653041E-05  0.00000000E+00  0.00000000E+00  0.00000000E+00
  1.47772808E+00  6.21466881E-22  2.17203184E-19 -4.03780236E-19 -8.23754313E-20
 -1.11755138E-04  2.73678344E-20  2.28904476E-18 -3.32968010E-18 -1.91684683E-18
 -4.45346760E-04  3.34104560E-18  1.45073450E-17 -1.46208028E-18 -1.22235712E-18
 -4.00344641E-03  3.10488464E-18 -2.92012420E-17  7.57415918E-17  1.54596071E-17
  4.28143890E-02 -1.89644317E-18 -8.23882168E-18  1.04227163E-18 -3.15256959E-19
 -4.00332740E-03 -1.04370637E-20 -8.73518525E-19  1.45573252E-18 -1.75227876E-19
 -4.45069362E-04  3.92828943E-19  1.58106604E-17 -1.25169011E-17 -2.16996042E-19
  0.00000000E+00  0.00000000E+00  0.00000000E+00  0.00000000E+00  1.47772808E+00
  0.00000000E+00 -2.07890539E-09  9.62253436E-09 -1.57313822E-10  1.31680059E-24
  0.00000000E+00 -5.06575030E-07  1.87886292E-06  4.25073385E-07 -6.34256286E-22
  0.00000000E+00 -4.45373554E-04  9.80685250E-04  2.32235288E-04 -3.51325475E-19
  0.00000000E+00 -1.77012919E-03  2.88919301E-03 -7.62096324E-04  1.79340102E-18
  0.00000000E+00 -1.35503211E-05  3.85224287E-05 -1.93385267E-05  4.18595659E-20
  0.00000000E+00 -1.14308024E-08  4.81201999E-08 -1.43324421E-08  3.30759168E-23
 -1.59048531E-07 -1.20924694E-03 -1.43427284E-05 -8.44307500E-10 -1.03696043E-04
 -8.25343488E-03  6.48506318E-03 -6.66108743E-03  1.37069343E-17  1.58911217E+01
 -2.07890539E-09 -2.49075308E-05  5.77178384E-05 -9.43598993E-07  7.89842684E-21
 -5.06575030E-07 -3.76213325E-04  6.97339027E-04  1.57765772E-04 -2.35403901E-19
 -4.45373554E-04 -9.53538616E-03  1.08548009E-02  2.57051670E-03 -3.88867691E-18
 -1.77012919E-03 -1.63423713E-02  1.16769127E-02 -3.08007537E-03  7.24817866E-18
 -1.35503211E-05 -1.85775885E-03  2.68955896E-03 -1.35017727E-03  2.92255120E-18
 -1.14308024E-08 -5.81233809E-05  1.22169716E-04 -3.63878450E-05  8.39746168E-20
 -7.96626465E-05 -1.20333193E-02 -9.80548576E-04 -4.18064665E-06 -8.25343488E-03
  6.11697558E-02 -1.23228592E-01  1.26573389E-01 -2.60457942E-16 -8.58900137E-02
  4.72249973E-01 -9.62253436E-09 -5.77178384E-05  1.25772111E-04 -2.17141344E-06
  1.81758886E-20 -1.87886292E-06 -6.97339027E-04  1.19088879E-03  2.93283897E-04
 -4.37611861E-19 -9.80685250E-04 -1.08548009E-02  8.49239578E-03  2.66024103E-03
 -4.02441185E-18 -2.88919301E-03 -1.16769127E-02 -3.87033595E-03 -3.75161763E-05
  8.82848360E-20 -3.85224287E-05 -2.68955896E-03  3.42800117E-03 -1.98706382E-03
  4.30113576E-18 -4.81201999E-08 -1.22169716E-04  2.38939062E-04 -7.60395026E-05
  1.75481348E-19 -1.40603066E-04 -7.53934180E-03 -1.13086745E-03 -8.95423588E-06
 -6.48506318E-03  1.23228592E-01 -1.22823892E-01  2.24923322E-01 -4.62838721E-16
  0.00000000E+00  0.00000000E+00  1.47772808E+00  1.57313822E-10  9.43598993E-07
 -2.17141344E-06 -7.01288986E-06 -2.97148172E-22 -4.25073385E-07 -1.57765772E-04
  2.93283897E-04 -3.91001767E-05 -9.90051763E-20 -2.32235288E-04 -2.57051670E-03
  2.66024103E-03 -2.11132429E-03 -9.53017743E-19  7.62096324E-04  3.08007537E-03
 -3.75161763E-05 -4.00266818E-03 -2.32873154E-20  1.93385267E-05  1.35017727E-03
 -1.98706382E-03  4.67281302E-04 -2.15920002E-18  1.43324421E-08  3.63878450E-05
 -7.60395026E-05  6.28971548E-06 -5.22665380E-20 -6.13358395E-05 -5.28277456E-03
  1.02519885E-03  3.66148252E-06  6.66108743E-03 -1.26573389E-01  2.24923322E-01
 -1.34872760E-01  4.75401565E-16  0.00000000E+00  0.00000000E+00  0.00000000E+00
  1.47772808E+00 -1.31680059E-24 -7.89842684E-21  1.81758886E-20 -2.97148172E-22
 -7.04838917E-06  6.34256286E-22  2.35403901E-19 -4.37611861E-19 -9.90051763E-20
 -1.05452638E-04  3.51325475E-19  3.88867691E-18 -4.02441185E-18 -9.53017743E-19
 -2.74129384E-03 -1.79340102E-18 -7.24817866E-18  8.82848360E-20 -2.32873154E-20
 -4.01256400E-03 -4.18595659E-20 -2.92255120E-18  4.30113576E-18 -2.15920002E-18
 -5.30238533E-04 -3.30759168E-23 -8.39746168E-20  1.75481348E-19 -5.22665380E-20
 -1.63583984E-05  1.05206532E-19  9.54063518E-18 -2.12353852E-18 -8.09967701E-21
 -1.37069343E-17  2.60457942E-16 -4.62838721E-16  4.75401565E-16  9.61556614E-02
  0.00000000E+00  0.00000000E+00  0.00000000E+00  0.00000000E+00  1.47772808E+00
 -2.98435808E-07 -1.13211651E-04  1.95063170E-04  8.40715118E-05 -1.43958363E-19
 -1.02333615E-06 -2.25032256E-04  3.06996985E-04  2.56563291E-04 -4.69554783E-19
 -1.25626701E-04 -3.33431397E-03  2.79897747E-03  3.43803407E-03 -6.43008793E-18
 -2.14310794E-03 -1.50529255E-02  2.62074168E-03  2.05527220E-03 -3.74456781E-18
 -1.03200554E-03 -1.10557063E-02  9.24273628E-03  1.14965807E-03 -1.27902302E-18
 -1.25929563E-05 -9.11739917E-04  1.41373547E-03  2.13836271E-04 -2.69927787E-19
 -2.04385924E-05 -1.71419908E-03 -1.09932119E-02 -1.99406900E-04 -1.08014555E-02
  1.04184621E-01 -5.78266795E-02 -2.49498098E-01  4.81869013E-16 -2.39134083E-03
 -1.48158827E-02  1.63626521E-04 -4.88238429E-04  9.71988527E-19  7.60031884E-01
 -8.04799161E-11 -1.10017088E-06  2.72139033E-06  5.87513180E-08  1.70503933E-22
 -1.33491668E-08 -1.98614947E-05  4.10036348E-05  9.09014495E-06 -1.34770425E-20
 -1.49643371E-05 -1.00410132E-03  1.52030482E-03  3.46340264E-04 -5.17884276E-19
 -1.05265800E-04 -3.01497200E-03  4.04809761E-03 -4.87534740E-04  1.37799017E-18
 -9.05020232E-07 -2.10145158E-04  3.56695846E-04 -1.17982059E-04  2.68140731E-19
 -7.00185681E-10 -3.76001285E-06  8.57182249E-06 -1.75556535E-06  4.33224570E-21
 -4.57656618E-06 -2.34144487E-03 -1.92887519E-04 -3.22730514E-07 -2.39138400E-03
 -1.48157805E-02 -4.84412796E-04  1.76898068E-04 -3.96754540E-19 -1.08015641E-02
  1.04183521E-01 -2.50953085E-01 -5.11341996E-02  7.36828061E-17 -1.05829622E-02
  7.60031884E-01 -1.25138450E-07 -6.96692642E-05  1.31875224E-04 -3.09443618E-05
  7.43468637E-20 -1.89132735E-05 -1.14478105E-03  1.75279952E-03 -4.83103454E-05
  2.78300721E-19 -1.13083202E-03 -1.16141880E-02  9.18577139E-03 -1.35928898E-03
  3.62165070E-18 -8.84737337E-04 -1.01578782E-02  7.24707698E-03 -5.67540431E-03
  1.18591880E-17 -9.70610738E-06 -7.88294655E-04  9.38784992E-04 -8.31679185E-04
  1.72493547E-18 -8.81226261E-08 -5.72589122E-05  9.87733596E-05 -5.46492838E-05
  1.17234129E-19 -4.51993717E-04 -9.39181489E-03 -2.46243143E-04 -3.53226785E-06
 -2.39134081E-03 -1.48158827E-02 -1.63626388E-04  4.88238032E-04 -9.71987737E-19
 -1.08014558E-02  1.04184618E-01  5.78266776E-02  2.49498093E-01 -4.81869002E-16
 -5.65016234E-03 -7.44381992E-03  7.60031884E-01 -3.01234143E-06 -8.00057657E-03
 -1.05502055E-02 -2.15340117E-03  3.10488464E-18  0.00000000E+00 -1.65038980E-03
 -2.72319414E-03  8.23687301E-04 -1.89644317E-18  0.00000000E+00 -9.48875655E-06
 -3.06721612E-05  3.69203655E-06 -1.04370637E-20  0.00000000E+00 -5.70158853E-07
 -2.11310060E-06 -4.31094832E-07  6.21466881E-22  0.00000000E+00 -9.50079035E-06
 -2.68056985E-05 -1.54316381E-05  2.73678344E-20  0.00000000E+00 -1.65122841E-03
 -2.18349576E-03 -1.82548908E-03  3.34104560E-18 -9.53300544E-04 -7.57050941E-07
 -7.57944004E-07 -9.53415941E-04  0.00000000E+00 -8.01634924E-12 -4.17840260E-11
 -8.52547128E-12  1.22908904E-26  0.00000000E+00  0.00000000E+00  0.00000000E+00
  0.00000000E+00  0.00000000E+00 -2.62515555E-11  0.00000000E+00 -1.49675210E-11
  1.58911217E+01 -8.00057657E-03  2.08886897E-02  9.92240102E-02  2.02526007E-02
 -2.92012420E-17 -1.65038980E-03 -1.59882954E-02 -1.18305211E-02  3.57838974E-03
 -8.23882168E-18 -9.48875655E-06 -1.56439302E-03 -2.56707267E-03  3.09000924E-04
 -8.73518525E-19 -5.70158853E-07 -3.98615065E-04 -7.38530389E-04 -1.50667997E-04
  2.17203184E-19 -9.50079035E-06 -1.56535083E-03 -2.24202773E-03 -1.29070169E-03
  2.28904476E-18 -1.65122841E-03 -1.59908938E-02 -9.48108168E-03 -7.92656042E-03
  1.45073450E-17 -1.05860028E-02 -1.90248348E-04 -1.90373372E-04 -1.05867082E-02
 -8.01634924E-12 -1.52672711E-06 -4.02852874E-06 -8.21967373E-07  1.18500322E-21
  0.00000000E+00 -3.58587163E-08 -1.12083484E-07 -3.75246863E-09 -4.41602633E-24
 -5.80906153E-07 -1.19717349E-09 -4.21483579E-07 -8.58900137E-02  4.72249973E-01
  1.05502055E-02 -9.92240102E-02 -2.14550844E-01 -5.25307866E-02  7.57415918E-17
  2.72319414E-03  1.18305211E-02 -2.50667934E-03 -4.52692660E-04  1.04227163E-18
  3.06721612E-05  2.56707267E-03  3.83299808E-03 -5.14954955E-04  1.45573252E-18
  2.11310060E-06  7.38530389E-04  1.26117122E-03  2.80091471E-04 -4.03780236E-19
  2.68056985E-05  2.24202773E-03  2.81594163E-03  1.87747475E-03 -3.32968010E-18
  2.18349576E-03  9.48108168E-03 -3.04792336E-03  7.98855182E-04 -1.46208028E-18
  7.05886988E-03  3.29929131E-04  2.67179365E-04  4.13484276E-03  4.17840260E-11
  4.02852874E-06  1.01217245E-05  2.15507921E-06 -3.10690654E-21  0.00000000E+00
  1.12083484E-07  3.38344924E-07  1.16807239E-08  1.37462533E-23  1.38615664E-06
  3.78858121E-09  1.07965907E-06  0.00000000E+00  0.00000000E+00  1.47772808E+00
  2.15340117E-03 -2.02526007E-02 -5.25307866E-02  3.20923365E-02  1.54596071E-17
 -8.23687301E-04 -3.57838974E-03 -4.52692660E-04 -3.86640099E-03 -3.15256959E-19
 -3.69203655E-06 -3.09000924E-04 -5.14954955E-04 -3.83083755E-04 -1.75227876E-19
  4.31094832E-07  1.50667997E-04  2.80091471E-04 -5.46135205E-05 -8.23754313E-20
  1.54316381E-05  1.29070169E-03  1.87747475E-03  6.35487261E-04 -1.91684683E-18
  1.82548908E-03  7.92656042E-03  7.98855182E-04 -3.33557179E-03 -1.22235712E-18
 -6.02180957E-03 -9.32653041E-05  2.15195342E-04  8.30629767E-03  8.52547128E-12
  8.21967373E-07  2.15507921E-06 -7.78435782E-10 -6.33922697E-22  0.00000000E+00
  3.75246863E-09  1.16807239E-08 -1.01586669E-08  4.60213962E-25  5.18325132E-07
  2.16387169E-10 -1.42143523E-07  0.00000000E+00  0.00000000E+00  0.00000000E+00
  1.47772808E+00 -3.10488464E-18  2.92012420E-17  7.57415918E-17  1.54596071E-17
  4.28143890E-02  1.89644317E-18  8.23882168E-18  1.04227163E-18 -3.15256959E-19
 -4.00332740E-03  1.04370637E-20  8.73518525E-19  1.45573252E-18 -1.75227876E-19
 -4.45069362E-04 -6.21466881E-22 -2.17203184E-19 -4.03780236E-19 -8.23754313E-20
 -1.11755138E-04 -2.73678344E-20 -2.28904476E-18 -3.32968010E-18 -1.91684683E-18
 -4.45346760E-04 -3.34104560E-18 -1.45073450E-17 -1.46208028E-18 -1.22235712E-18
 -4.00344641E-03  1.25169011E-17  2.16996042E-19 -3.92828943E-19 -1.58106604E-17
 -1.22908904E-26 -1.18500322E-21 -3.10690654E-21 -6.33922697E-22 -4.40493506E-07
  0.00000000E+00  4.41602633E-24  1.37462533E-23  4.60213962E-25 -1.05497285E-08
 -8.68296814E-22 -2.58582510E-26  3.91211980E-22  0.00000000E+00  0.00000000E+00
  0.00000000E+00  0.00000000E+00  1.47772808E+00  0.00000000E+00 -1.77012919E-03
 -2.88919301E-03  7.62096324E-04 -1.79340102E-18  0.00000000E+00 -1.35503211E-05
 -3.85224287E-05  1.93385267E-05 -4.18595659E-20  0.00000000E+00 -1.14308024E-08
 -4.81201999E-08  1.43324421E-08 -3.30759168E-23  0.00000000E+00 -2.07890539E-09
 -9.62253436E-09  1.57313822E-10 -1.31680059E-24  0.00000000E+00 -5.06575030E-07
 -1.87886292E-06 -4.25073385E-07  6.34256286E-22  0.00000000E+00 -4.45373554E-04
 -9.80685250E-04 -2.32235288E-04  3.51325475E-19 -1.43427284E-05 -8.44307500E-10
 -1.59048531E-07 -1.20924694E-03  0.00000000E+00  0.00000000E+00  0.00000000E+00
  0.00000000E+00  0.00000000E+00  0.00000000E+00  0.00000000E+00  0.00000000E+00
  0.00000000E+00  0.00000000E+00 -2.21484135E-13  0.00000000E+00  0.00000000E+00
 -1.03696043E-04 -8.25343488E-03 -6.48506318E-03  6.66108743E-03 -1.37069343E-17
  1.58911217E+01 -1.77012919E-03 -1.63423713E-02 -1.16769127E-02  3.08007537E-03
 -7.24817866E-18 -1.35503211E-05 -1.85775885E-03 -2.68955896E-03  1.35017727E-03
 -2.92255120E-18 -1.14308024E-08 -5.81233809E-05 -1.22169716E-04  3.63878450E-05
 -8.39746168E-20 -2.07890539E-09 -2.49075308E-05 -5.77178384E-05  9.43598993E-07
 -7.89842684E-21 -5.06575030E-07 -3.76213325E-04 -6.97339027E-04 -1.57765772E-04
  2.35403901E-19 -4.45373554E-04 -9.53538616E-03 -1.08548009E-02 -2.57051670E-03
  3.88867691E-18 -9.80548576E-04 -4.18064665E-06 -7.96626465E-05 -1.20333193E-02
  0.00000000E+00 -3.58587163E-08 -1.12083484E-07 -3.75246863E-09 -4.41602633E-24
  0.00000000E+00 -2.09492739E-10 -7.57629974E-10  7.24087926E-11 -2.21062248E-25
 -3.76472566E-08 -8.16781257E-12 -3.16759732E-09 -8.25343488E-03  6.11697558E-02
  1.23228592E-01 -1.26573389E-01  2.60457942E-16 -8.58900137E-02  4.72249973E-01
  2.88919301E-03  1.16769127E-02 -3.87033595E-03 -3.75161763E-05  8.82848360E-20
  3.85224287E-05  2.68955896E-03  3.42800117E-03 -1.98706382E-03  4.30113576E-18
  4.81201999E-08  1.22169716E-04  2.38939062E-04 -7.60395026E-05  1.75481348E-19
  9.62253436E-09  5.77178384E-05  1.25772111E-04 -2.17141344E-06  1.81758886E-20
  1.87886292E-06  6.97339027E-04  1.19088879E-03  2.93283897E-04 -4.37611861E-19
  9.80685250E-04  1.08548009E-02  8.49239578E-03  2.66024103E-03 -4.02441185E-18
  1.13086745E-03  8.95423588E-06  1.40603066E-04  7.53934180E-03  0.00000000E+00
  1.12083484E-07  3.38344924E-07  1.16807239E-08  1.37462533E-23  0.00000000E+00
  7.57629974E-10  2.67091055E-09 -2.61251779E-10  7.97595203E-25  1.05130232E-07
  2.92730248E-11  9.48142040E-09  6.48506318E-03 -1.23228592E-01 -1.22823892E-01
  2.24923322E-01 -4.62838721E-16  0.00000000E+00  0.00000000E+00  1.47772808E+00
 -7.62096324E-04 -3.08007537E-03 -3.75161763E-05 -4.00266818E-03 -2.32873154E-20
 -1.93385267E-05 -1.35017727E-03 -1.98706382E-03  4.67281302E-04 -2.15920002E-18
 -1.43324421E-08 -3.63878450E-05 -7.60395026E-05  6.28971548E-06 -5.22665380E-20
 -1.57313822E-10 -9.43598993E-07 -2.17141344E-06 -7.01288986E-06 -2.97148172E-22
  4.25073385E-07  1.57765772E-04  2.93283897E-04 -3.91001767E-05 -9.90051763E-20
  2.32235288E-04  2.57051670E-03  2.66024103E-03 -2.11132429E-03 -9.53017743E-19
 -1.02519885E-03 -3.66148252E-06  6.13358395E-05  5.28277456E-03  0.00000000E+00
  3.75246863E-09  1.16807239E-08 -1.01586669E-08  4.60213962E-25  0.00000000E+00
 -7.24087926E-11 -2.61251779E-10 -3.76587825E-11 -7.62283801E-26  1.96369902E-08
 -1.71105308E-12 -2.31620892E-09 -6.66108743E-03  1.26573389E-01  2.24923322E-01
 -1.34872760E-01  4.75401565E-16  0.00000000E+00  0.00000000E+00  0.00000000E+00
  1.47772808E+00  1.79340102E-18  7.24817866E-18  8.82848360E-20 -2.32873154E-20
 -4.01256400E-03  4.18595659E-20  2.92255120E-18  4.30113576E-18 -2.15920002E-18
 -5.30238533E-04  3.30759168E-23  8.39746168E-20  1.75481348E-19 -5.22665380E-20
 -1.63583984E-05  1.31680059E-24  7.89842684E-21  1.81758886E-20 -2.97148172E-22
 -7.04838917E-06 -6.34256286E-22 -2.35403901E-19 -4.37611861E-19 -9.90051763E-20
 -1.05452638E-04 -3.51325475E-19 -3.88867691E-18 -4.02441185E-18 -9.53017743E-19
 -2.74129384E-03  2.12353852E-18  8.09967701E-21 -1.05206532E-19 -9.54063518E-18
  0.00000000E+00  4.41602633E-24  1.37462533E-23  4.60213962E-25 -1.05497285E-08
  0.00000000E+00  2.21062248E-25  7.97595203E-25 -7.62283801E-26 -6.26273377E-11
 -2.73779113E-23  6.41620098E-27  5.52406665E-24  1.37069343E-17 -2.60457942E-16
 -4.62838721E-16  4.75401565E-16  9.61556614E-02  0.00000000E+00  0.00000000E+00
  0.00000000E+00  0.00000000E+00  1.47772808E+00 -2.14310794E-03 -1.50529255E-02
 -2.62074168E-03 -2.05527220E-03  3.74456781E-18 -1.03200554E-03 -1.10557063E-02
 -9.24273628E-03 -1.14965807E-03  1.27902302E-18 -1.25929563E-05 -9.11739917E-04
 -1.41373547E-03 -2.13836271E-04  2.69927787E-19 -2.98435808E-07 -1.13211651E-04
 -1.95063170E-04 -8.40715118E-05  1.43958363E-19 -1.02333615E-06 -2.25032256E-04
 -3.06996985E-04 -2.56563291E-04  4.69554783E-19 -1.25626701E-04 -3.33431397E-03
 -2.79897747E-03 -3.43803407E-03  6.43008793E-18 -1.09932119E-02 -1.99406900E-04
 -2.04385924E-05 -1.71419908E-03 -2.62515555E-11 -5.80906153E-07 -1.38615664E-06
 -5.18325132E-07  8.68296814E-22 -2.21484135E-13 -3.76472566E-08 -1.05130232E-07
 -1.96369902E-08  2.73779113E-23 -1.28309367E-07 -1.28569479E-09 -5.73450375E-07
 -1.08014555E-02  1.04184621E-01  5.78266795E-02  2.49498098E-01 -4.81869013E-16
 -2.39134083E-03 -1.48158827E-02 -1.63626521E-04  4.88238429E-04 -9.71988527E-19
  7.60031884E-01 -1.05265800E-04 -3.01497200E-03 -4.04809761E-03  4.87534740E-04
 -1.37799017E-18 -9.05020232E-07 -2.10145158E-04 -3.56695846E-04  1.17982059E-04
 -2.68140731E-19 -7.00185681E-10 -3.76001285E-06 -8.57182249E-06  1.75556535E-06
 -4.33224570E-21 -8.04799161E-11 -1.10017088E-06 -2.72139033E-06 -5.87513180E-08
 -1.70503933E-22 -1.33491668E-08 -1.98614947E-05 -4.10036348E-05 -9.09014495E-06
  1.34770425E-20 -1.49643371E-05 -1.00410132E-03 -1.52030482E-03 -3.46340264E-04
  5.17884276E-19 -1.92887519E-04 -3.22730514E-07 -4.57656618E-06 -2.34144487E-03
  0.00000000E+00 -1.19717349E-09 -3.78858121E-09 -2.16387169E-10  2.58582510E-26
  0.00000000E+00 -8.16781257E-12 -2.92730248E-11  1.71105308E-12 -6.41620098E-27
 -1.28569479E-09  0.00000000E+00 -1.61689920E-10 -2.39138400E-03 -1.48157805E-02
  4.84412796E-04 -1.76898068E-04  3.96754540E-19 -1.08015641E-02  1.04183521E-01
  2.50953085E-01  5.11341996E-02 -7.36828061E-17 -1.05829622E-02  7.60031884E-01
 -8.84737337E-04 -1.01578782E-02 -7.24707698E-03  5.67540431E-03 -1.18591880E-17
 -9.70610738E-06 -7.88294655E-04 -9.38784992E-04  8.31679185E-04 -1.72493547E-18
 -8.81226261E-08 -5.72589122E-05 -9.87733596E-05  5.46492838E-05 -1.17234129E-19
 -1.25138450E-07 -6.96692642E-05 -1.31875224E-04  3.09443618E-05 -7.43468637E-20
 -1.89132735E-05 -1.14478105E-03 -1.75279952E-03  4.83103454E-05 -2.78300721E-19
 -1.13083202E-03 -1.16141880E-02 -9.18577139E-03  1.35928898E-03 -3.62165070E-18
 -2.46243143E-04 -3.53226785E-06 -4.51993717E-04 -9.39181489E-03 -1.49675210E-11
 -4.21483579E-07 -1.07965907E-06  1.42143523E-07 -3.91211980E-22  0.00000000E+00
 -3.16759732E-09 -9.48142040E-09  2.31620892E-09 -5.52406665E-24 -5.73450375E-07
 -1.61689920E-10 -1.11243059E-08 -2.39134081E-03 -1.48158827E-02  1.63626388E-04
 -4.88238032E-04  9.71987737E-19 -1.08014558E-02  1.04184618E-01 -5.78266776E-02
 -2.49498093E-01  4.81869002E-16 -5.65016234E-03 -7.44381992E-03  7.60031884E-01
Nuclear Attraction Matrix                  R   N=        1830
 -4.83153191E+01 -7.83386164E+00 -1.98164389E+01  5.20418715E-02  5.92088618E-01
 -2.01189065E+01  1.87116200E-02  2.15243360E-01  9.71127726E-03 -1.99867798E+01
 -3.11357603E-17 -3.58848501E-16 -1.15042821E-16  1.53376209E-15 -1.92030324E+01
 -1.93565000E-05 -1.17954655E+00  1.29976970E+00 -1.46261502E+00  2.99668926E-15
 -4.74206633E+01 -1.21004701E+00 -7.09040167E+00  5.18859501E+00 -5.50377755E+00
  1.13076643E-14 -7.61166280E+00 -1.89150363E+01 -1.32967009E+00 -4.92288595E+00
  6.42038818E-01 -4.97431282E+00  1.01941824E-14  2.06447639E-02  2.39505635E-01
 -1.92508130E+01  1.50373525E+00  5.94370095E+00 -5.49058654E+00  1.99315771E+00
 -1.19102079E-14  1.09729756E-01  1.27666874E+00  7.31754003E-02 -1.89798768E+01
 -3.08024220E-15 -1.21401392E-14  1.12038384E-14 -1.18560645E-14 -3.80252772E+00
 -2.12429026E-16 -2.47161243E-15 -2.34642955E-16  1.18477517E-15 -1.83779824E+01
  0.00000000E+00 -5.61770889E-02  1.23941865E-01 -4.13076116E-02  9.37818599E-17
 -1.91139196E-05 -1.18460610E+00  1.92476796E+00  3.96186650E-01 -5.72949431E-16
 -4.75882020E+01 -5.73430631E-02 -1.18080267E+00  1.65423386E+00 -5.53887681E-01
  1.25670126E-15 -1.17897169E+00 -6.93992357E+00  7.26651274E+00  1.83501767E+00
 -2.82660685E-15 -7.65327310E+00 -1.90825540E+01 -1.26488570E-01 -1.66185870E+00
  2.07385184E+00 -8.59624957E-01  1.94517232E-15 -1.91700894E+00 -7.37765224E+00
  6.02784300E+00  2.38185761E+00 -3.63529288E-15 -5.10278117E-02 -5.92649033E-01
 -1.93531561E+01  4.22989023E-02  5.55580778E-01 -8.56572412E-01 -1.97235034E-01
 -5.72089269E-16 -3.87417516E-01 -1.15446795E+00  1.65649446E+00 -3.43966748E+00
 -3.84236444E-16  9.15309161E-02  1.06510731E+00 -1.36420549E-01 -1.92208467E+01
 -9.59875694E-17 -1.26081203E-15  1.93920258E-15 -5.72409400E-16 -4.43830831E-01
  5.56613699E-16  1.48402727E-15 -2.21672906E-15 -3.08165121E-16 -3.72497201E+00
 -1.84354829E-16 -2.14514110E-15  1.81222221E-16  1.32263459E-15 -1.85372201E+01
  0.00000000E+00 -1.29604248E-02  3.40392434E-02  6.94029118E-03 -1.00030388E-17
  0.00000000E+00 -5.74533924E-02  9.99933226E-02  8.86048337E-02 -1.62794302E-16
 -1.95933994E-05 -1.21173637E+00  6.35277786E-01  1.90703539E+00 -3.66288941E-15
 -4.83153191E+01 -1.29604248E-02 -5.03724509E-01  7.95692006E-01  1.62397628E-01
 -2.34147621E-16 -5.59950124E-02 -1.18408015E+00  1.31752711E+00  1.16425641E+00
 -2.13871630E-15 -1.18678617E+00 -7.14872586E+00  2.25615639E+00  7.43331762E+00
 -1.43004324E-14 -7.83386164E+00 -1.98164389E+01 -3.40392434E-02 -7.95692006E-01
  1.15771091E+00  2.77215383E-01 -4.02249342E-16 -9.75170968E-02 -1.30553090E+00
  1.10840934E+00  1.41242507E+00 -2.59931818E-15 -6.26134828E-01 -2.60322561E+00
 -2.95848673E+00  3.39103529E+00 -6.53996126E-15 -5.20418715E-02 -5.92088618E-01
 -2.01189065E+01 -6.94029118E-03 -1.62397628E-01  2.77215383E-01 -1.42364394E-01
 -3.70597462E-17 -8.62606815E-02 -1.16226895E+00  1.42383855E+00  7.72985063E-01
 -2.23252855E-15 -1.86645619E+00 -7.18328079E+00  2.96083134E+00  5.61552017E+00
 -1.81682947E-14 -1.87116200E-02 -2.15243360E-01  9.71127726E-03 -1.99867798E+01
  1.00030388E-17  2.34147621E-16 -4.02249342E-16 -3.70597462E-17 -1.76180225E-01
  1.58469627E-16  2.13608759E-15 -2.62163906E-15 -2.23372552E-15 -4.44941967E-01
  3.58448914E-15  1.37750470E-14 -5.69862851E-15 -1.81231778E-14 -3.83336441E+00
  3.11357603E-17  3.58848501E-16 -1.15042821E-16  1.53376209E-15 -1.92030324E+01
  0.00000000E+00 -5.59950124E-02  9.75170968E-02  8.62606815E-02 -1.58469627E-16
  0.00000000E+00 -1.26705914E-02  1.07543853E-02  3.22026342E-02 -6.18495599E-17
  0.00000000E+00 -5.60099174E-02 -2.60949379E-02  1.27581340E-01 -2.52242411E-16
 -1.93565000E-05 -1.17954655E+00 -1.29976970E+00  1.46261502E+00 -2.99668926E-15
 -4.74206633E+01 -5.74533924E-02 -1.18408015E+00  1.30553090E+00  1.16226895E+00
 -2.13608759E-15 -1.26705914E-02 -5.03251420E-01  2.56502508E-01  7.69375163E-01
 -1.47773607E-15 -5.62983748E-02 -1.19128563E+00 -3.39567219E-01  1.72953332E+00
 -3.41799101E-15 -1.21004701E+00 -7.09040167E+00 -5.18859501E+00  5.50377755E+00
 -1.13076643E-14 -7.61166280E+00 -1.89150363E+01 -9.99933226E-02 -1.31752711E+00
  1.10840934E+00  1.42383855E+00 -2.62163906E-15 -1.07543853E-02 -2.56502508E-01
 -5.96717978E-02  4.23754191E-01 -8.16556185E-16  2.61454255E-02  3.65330376E-01
 -3.79741933E-01 -5.83033055E-01  1.14724438E-15  1.32967009E+00  4.92288595E+00
  6.42038818E-01 -4.97431282E+00  1.01941824E-14 -2.06447639E-02 -2.39505635E-01
 -1.92508130E+01 -8.86048337E-02 -1.16425641E+00  1.41242507E+00  7.72985063E-01
 -2.23372552E-15 -3.22026342E-02 -7.69375163E-01  4.23754191E-01  1.07323200E+00
 -2.39794783E-15 -1.28254839E-01 -1.72684530E+00 -5.44163412E-01  2.27302313E+00
 -5.37606661E-15 -1.50373525E+00 -5.94370095E+00 -5.49058654E+00  1.99315771E+00
 -1.19102079E-14 -1.09729756E-01 -1.27666874E+00  7.31754003E-02 -1.89798768E+01
  1.62794302E-16  2.13871630E-15 -2.59931818E-15 -2.23252855E-15 -4.44941967E-01
  6.18495599E-17  1.47773607E-15 -8.16556185E-16 -2.39794783E-15 -1.75649795E-01
  2.53564841E-16  3.41543604E-15  1.07122856E-15 -5.38014300E-15 -4.46773687E-01
  3.08024220E-15  1.21401392E-14  1.12038384E-14 -1.18560645E-14 -3.80252772E+00
  2.12429026E-16  2.47161243E-15 -2.34642955E-16  1.18477517E-15 -1.83779824E+01
 -1.95933994E-05 -1.18678617E+00  6.26134828E-01  1.86645619E+00 -3.58448914E-15
  0.00000000E+00 -5.62983748E-02 -2.61454255E-02  1.28254839E-01 -2.53564841E-16
  0.00000000E+00 -1.27118060E-02 -2.25920821E-02  2.54976622E-02 -5.22340718E-17
  0.00000000E+00 -5.61770889E-02 -1.23941865E-01  4.13076116E-02 -9.37818599E-17
 -1.91139196E-05 -1.18460610E+00 -1.92476796E+00 -3.96186650E-01  5.72949431E-16
 -4.75882020E+01 -1.21173637E+00 -7.14872586E+00  2.60322561E+00  7.18328079E+00
 -1.37750470E-14 -5.60099174E-02 -1.19128563E+00 -3.65330376E-01  1.72684530E+00
 -3.41543604E-15 -1.27118060E-02 -5.03026928E-01 -5.37257396E-01  6.07216780E-01
 -1.24385370E-15 -5.73430631E-02 -1.18080267E+00 -1.65423386E+00  5.53887681E-01
 -1.25670126E-15 -1.17897169E+00 -6.93992357E+00 -7.26651274E+00 -1.83501767E+00
  2.82660685E-15 -7.65327310E+00 -1.90825540E+01 -6.35277786E-01 -2.25615639E+00
 -2.95848673E+00  2.96083134E+00 -5.69862851E-15  2.60949379E-02  3.39567219E-01
 -3.79741933E-01 -5.44163412E-01  1.07122856E-15  2.25920821E-02  5.37257396E-01
  4.19407433E-01 -7.01463472E-01  1.43422917E-15  1.26488570E-01  1.66185870E+00
  2.07385184E+00 -8.59624957E-01  1.94517232E-15  1.91700894E+00  7.37765224E+00
  6.02784300E+00  2.38185761E+00 -3.63529288E-15  5.10278117E-02  5.92649033E-01
 -1.93531561E+01 -1.90703539E+00 -7.43331762E+00  3.39103529E+00  5.61552017E+00
 -1.81231778E-14 -1.27581340E-01 -1.72953332E+00 -5.83033055E-01  2.27302313E+00
 -5.38014300E-15 -2.54976622E-02 -6.07216780E-01 -7.01463472E-01  5.94091418E-01
 -1.57890394E-15 -4.22989023E-02 -5.55580778E-01 -8.56572412E-01 -1.97235034E-01
 -5.72089269E-16  3.87417516E-01  1.15446795E+00  1.65649446E+00 -3.43966748E+00
 -3.84236444E-16 -9.15309161E-02 -1.06510731E+00 -1.36420549E-01 -1.92208467E+01
  3.66288941E-15  1.43004324E-14 -6.53996126E-15 -1.81682947E-14 -3.83336441E+00
  2.52242411E-16  3.41799101E-15  1.14724438E-15 -5.37606661E-15 -4.46773687E-01
  5.22340718E-17  1.24385370E-15  1.43422917E-15 -1.57890394E-15 -1.75643057E-01
  9.59875694E-17  1.26081203E-15  1.93920258E-15 -5.72409400E-16 -4.43830831E-01
 -5.56613699E-16 -1.48402727E-15 -2.21672906E-15 -3.08165121E-16 -3.72497201E+00
  1.84354829E-16  2.14514110E-15  1.81222221E-16  1.32263459E-15 -1.85372201E+01
 -1.67493811E-01 -1.67125326E+00  6.51882628E-01 -1.99663488E+00  3.97310450E-15
 -1.87374129E+00 -7.92467341E+00 -2.26879617E+00 -6.53115523E+00  1.25347837E-14
 -1.63582885E-01 -1.61794524E+00 -1.69973114E+00 -1.14032416E+00  2.05182990E-15
 -2.83112074E-03 -1.20989990E-01 -1.27734953E-01 -1.53588580E-01  2.86971066E-16
 -3.60621285E-04 -3.49644711E-02 -2.00203532E-02 -5.97972497E-02  1.14843497E-16
 -2.77645992E-03 -1.22988505E-01  8.37947037E-03 -2.03261816E-01  3.98389823E-16
 -1.40919632E+01 -2.82438074E-03 -1.20625684E-01  1.77602714E-01 -9.07763515E-02
  1.96153502E-16 -1.62761580E-01 -1.62409007E+00  2.02781182E+00 -3.83379978E-01
  9.62424542E-16 -1.88477277E+00 -8.07121123E+00  4.80591706E+00 -5.22271763E+00
  1.07178739E-14 -1.67719091E-01 -1.70293517E+00  2.01853966E-01 -2.13929017E+00
  4.20489371E-15 -2.76041486E-03 -1.23340488E-01  7.23660139E-02 -1.91289342E-01
  3.81686221E-16 -3.61711699E-04 -3.49540420E-02  4.18791797E-02 -4.71795733E-02
  9.66592261E-17 -7.24744961E-01 -1.45151666E+01 -2.83112074E-03 -1.20989990E-01
  1.27734953E-01  1.53588580E-01 -2.86971066E-16 -3.60621285E-04 -3.49644711E-02
  2.00203532E-02  5.97972497E-02 -1.14843497E-16 -2.77645992E-03 -1.22988505E-01
 -8.37947037E-03  2.03261816E-01 -3.98389823E-16 -1.67493811E-01 -1.67125326E+00
 -6.51882628E-01  1.99663488E+00 -3.97310450E-15 -1.87374129E+00 -7.92467341E+00
  2.26879617E+00  6.53115523E+00 -1.25347837E-14 -1.63582885E-01 -1.61794524E+00
  1.69973114E+00  1.14032416E+00 -2.05182990E-15 -2.08925698E-03 -1.41321633E-02
 -1.40919632E+01 -1.67719091E-01 -1.70293517E+00 -2.01853966E-01  2.13929017E+00
 -4.20489371E-15 -2.76041486E-03 -1.23340488E-01 -7.23660139E-02  1.91289342E-01
 -3.81686221E-16 -3.61711699E-04 -3.49540420E-02 -4.18791797E-02  4.71795733E-02
 -9.66592261E-17 -2.82438074E-03 -1.20625684E-01 -1.77602714E-01  9.07763515E-02
 -1.96153502E-16 -1.62761580E-01 -1.62409007E+00 -2.02781182E+00  3.83379978E-01
 -9.62424542E-16 -1.88477277E+00 -8.07121123E+00 -4.80591706E+00  5.22271763E+00
 -1.07178739E-14 -1.41321633E-02 -2.08728725E-03 -7.24744961E-01 -1.45151666E+01
  0.00000000E+00 -2.76791564E-06  1.12391925E-05  2.28963502E-06 -3.29905532E-21
  0.00000000E+00 -6.28795217E-05  1.99967473E-04  1.15102648E-04 -2.04130390E-19
  0.00000000E+00 -3.27398319E-02  6.14588161E-02  5.13818693E-02 -9.40400786E-17
 -1.21149394E-06 -7.82837117E-01  1.28815927E+00  2.61921658E-01 -3.77136072E-16
  0.00000000E+00 -3.25738490E-02  7.63090520E-02 -2.31521276E-02  5.32804862E-17
  0.00000000E+00 -6.25110415E-05  2.27783018E-04 -2.75470505E-05  7.77610568E-20
 -5.54269226E-06 -2.94649670E-02 -2.92762599E-02 -5.50124094E-06 -4.58360672E+01
 -3.02041200E-06 -5.66594154E-03  1.22576420E-02  2.49209397E-03 -3.58818793E-18
 -6.65309386E-05 -2.90140354E-02  4.94952506E-02  2.93453741E-02 -5.21988426E-17
 -3.45343311E-02 -8.31575311E-01  9.36605970E-01  8.46153504E-01 -1.55656363E-15
 -8.42202729E-01 -5.40057432E+00  5.88053952E+00  1.14663096E+00 -1.62570814E-15
 -3.42910729E-02 -8.13449933E-01  1.16276672E+00 -4.13641063E-01  9.30884692E-16
 -6.67111096E-05 -2.87300340E-02  5.64084541E-02 -7.68543730E-03  2.09458519E-17
 -2.86582784E-03 -4.94836747E-01 -4.69411567E-01 -2.82332732E-03 -7.21810871E+00
 -1.73316767E+01 -1.22570263E-05 -1.21811031E-02  2.49231679E-02  5.43698669E-03
 -7.85276441E-18 -2.11527579E-04 -5.07510578E-02  7.99129364E-02  5.24537844E-02
 -9.33239203E-17 -6.48895821E-02 -1.00689296E+00  9.00100770E-01  1.10864285E+00
 -2.04181584E-15 -1.38606080E+00 -6.14554659E+00  5.41039276E+00  1.63796809E+00
 -2.35042113E-15 -8.03611860E-02 -1.21312379E+00  1.56396052E+00 -6.62363201E-01
  1.49065866E-15 -2.42948221E-04 -5.72883182E-02  1.06421718E-01 -1.53320225E-02
  4.20135575E-17 -4.75439462E-03 -3.43172404E-01 -5.43652399E-01 -5.72884843E-03
 -5.86573164E-02 -7.06677945E-01 -1.76699887E+01 -2.50003012E-06 -2.49438335E-03
  5.47610840E-03 -6.83323695E-04 -1.19152420E-18 -1.21619338E-04 -2.82787093E-02
  4.94181023E-02  1.99918402E-02 -5.02708386E-17 -5.41305199E-02 -7.86095736E-01
  9.72133486E-01  5.47314620E-01 -1.56357741E-15 -2.83120229E-01 -1.32584300E+00
  1.77528801E+00 -2.44979241E+00 -3.46461318E-16  2.42026249E-02  3.07993013E-01
 -4.88275761E-01 -1.46469330E-01 -3.48130232E-16  2.91089406E-05  5.90825540E-03
 -1.16489787E-02 -7.45550523E-03 -2.83724476E-18 -3.63645835E-03 -6.28995678E-01
  4.08677828E-01  1.44193153E-03 -6.17412322E-02 -7.11930924E-01  1.40626512E-01
 -1.73336167E+01  3.60377292E-21  3.60069209E-18 -7.92927316E-18 -1.19562703E-18
 -1.58625280E-03  2.15662473E-19  4.99811080E-17 -8.73871578E-17 -4.99524762E-17
 -8.36353832E-03  9.90557089E-17  1.43173980E-15 -1.77484991E-15 -1.54926121E-15
 -3.04330472E-01  4.08326003E-16  1.94839378E-15 -2.61897222E-15 -3.60862529E-16
 -2.72215152E+00 -5.57598632E-17 -7.29554126E-16  1.15020279E-15 -3.66387379E-16
 -2.98296871E-01 -8.24060099E-20 -1.75625624E-17  3.48107753E-17 -3.22349821E-18
 -8.28160804E-03  6.61306709E-18  1.19411213E-15 -8.56249648E-16 -3.42073207E-18
  1.14593275E-16  1.31818321E-15 -3.60363067E-16  9.48423683E-16 -1.68561944E+01
  0.00000000E+00 -6.07813343E-09  2.99810262E-08 -4.74018244E-10  4.07123174E-24
  0.00000000E+00 -2.26939274E-06  9.21850810E-06  2.09229146E-06 -3.12503450E-21
  0.00000000E+00 -5.41191957E-03  1.49629224E-02  3.55636211E-03 -5.38582272E-18
  0.00000000E+00 -3.40351719E-02  7.97449224E-02 -2.10078793E-02  4.94473968E-17
  0.00000000E+00 -8.83118512E-05  2.84482334E-04 -1.42798149E-04  3.09099292E-19
  0.00000000E+00 -3.77478751E-08  1.70395897E-07 -5.06984540E-08  1.17018950E-22
 -9.29947689E-07 -4.02961009E-02 -1.42030974E-04 -3.35216643E-09 -5.59316707E-05
 -1.24377615E+00  1.44009879E+00 -1.48199414E+00  3.04930502E-15 -4.40525522E+01
 -7.11514110E-09 -2.32728996E-04  5.97066323E-04 -5.98149834E-06  7.43141731E-20
 -2.56792593E-06 -4.66935142E-03  9.83000252E-03  2.48222462E-03 -3.82348172E-18
 -6.05448721E-03 -2.78242839E-01  4.44085537E-01  1.22879655E-01 -1.93738073E-16
 -3.88132763E-02 -8.40011138E-01  1.21922925E+00 -3.00591493E-01  7.15719569E-16
 -9.86995590E-05 -3.34911939E-02  5.80219277E-02 -3.03132549E-02  6.53673842E-17
 -4.30081231E-08 -6.02910887E-04  1.41553548E-03 -4.33154066E-04  9.95554223E-19
 -8.90835437E-04 -5.61912838E-01 -1.85627234E-02 -3.82367618E-05 -1.31520983E+00
 -6.64785164E+00  4.55648773E+00 -5.06070512E+00  1.03748740E-14 -6.77515066E+00
 -1.55413311E+01 -3.50635805E-08 -6.07015196E-04  1.49261236E-03 -1.78313399E-05
  1.98027514E-19 -1.04234477E-05 -1.03123009E-02  2.05129660E-02  5.52072284E-03
 -8.50597820E-18 -1.67452143E-02 -4.61553569E-01  6.80334246E-01  2.15081946E-01
 -3.39234644E-16 -9.09744496E-02 -1.24574535E+00  1.63355749E+00 -4.92061880E-01
  1.16596738E-15 -3.17974081E-04 -5.96574544E-02  9.51419869E-02 -5.57554468E-02
  1.20041041E-16 -1.94000368E-07 -1.44425788E-03  3.22352387E-03 -1.04134001E-03
  2.39169768E-18 -1.84325020E-03 -6.77965561E-01 -2.61073011E-02 -9.12790986E-05
 -1.52663136E+00 -5.16562182E+00  8.22216268E-01 -5.00806490E+00  1.02645354E-14
 -1.02089480E-01 -1.18093414E+00 -1.57435502E+01  5.75518632E-10  1.37642679E-05
 -3.75603720E-05 -7.13069372E-05  1.20628385E-20 -2.35068261E-06 -2.07322900E-03
  4.40670079E-03 -3.41700326E-04 -1.46937885E-18 -3.94801484E-03 -9.18188707E-02
  1.58068328E-01 -6.02316177E-02 -5.29207596E-17  2.39687860E-02  3.54687379E-01
 -5.60820302E-01 -1.90142923E-01 -2.90119534E-16  1.59278786E-04  2.89841182E-02
 -5.20113908E-02  1.68385532E-02 -5.74891708E-17  5.77109793E-08  4.18712787E-04
 -9.87931745E-04  1.25767927E-04 -6.68975566E-19 -7.22491148E-04 -4.23289167E-01
  2.22672676E-02  3.56100151E-05  1.56297557E+00  4.96848546E+00 -4.49643375E+00
  1.18505420E+00 -9.95423755E-15  4.52465222E-02  5.17119227E-01  2.21026196E-01
 -1.55869437E+01 -4.80275693E-24 -9.05779982E-20  2.36610796E-19  1.41318899E-20
 -6.31245731E-05  3.50399363E-21  2.97304499E-18 -6.32732963E-18 -1.35254753E-18
 -1.32935898E-03  5.96484729E-18  1.31161801E-16 -2.27735383E-16 -4.69415458E-17
 -9.57684296E-02 -5.64156031E-17 -8.24293574E-16  1.30043549E-15 -2.82908602E-16
 -3.08417246E-01 -3.44842213E-19 -6.29395677E-17  1.12718939E-16 -5.78818228E-17
 -9.76860395E-03 -1.33208549E-22 -9.70324205E-19  2.28724925E-18 -6.74576675E-19
 -1.63325127E-04  1.21963919E-18  7.56709191E-16 -4.62851708E-17 -7.92138408E-20
 -3.21675215E-15 -1.02584057E-14  9.26395873E-15 -1.00078941E-14 -3.66378469E+00
 -9.91932957E-17 -1.13515810E-15 -4.93196049E-16  8.53381493E-16 -1.51624314E+01
 -2.16275321E-06 -1.63514990E-03  3.22497108E-03  1.37576561E-03 -2.35231622E-18
 -8.18374418E-06 -3.66413873E-03  5.74584069E-03  4.85283097E-03 -8.88790224E-18
 -2.08155318E-03 -9.73746667E-02  9.96358008E-02  1.28473811E-01 -2.40801966E-16
 -1.40099819E-01 -1.40931390E+00  1.42843898E+00  1.06661360E+00 -1.93612844E-15
 -3.48286955E-02 -5.16453825E-01  7.29023992E-01  4.71462937E-02 -1.57468802E-17
 -1.37611332E-04 -1.81905717E-02  3.31935860E-02  3.97570459E-03 -4.29400182E-18
 -2.75570048E-04 -4.63982758E-02 -7.29998666E-01 -3.26091446E-03 -1.78712222E+00
 -7.39188173E+00  1.24951752E+00  6.41143505E+00 -1.24075470E-14 -1.59406053E-01
 -1.53673155E+00 -7.60455830E-01  1.82082224E+00 -3.64066115E-15 -1.32696003E+01
 -3.22418461E-10 -9.00799494E-06  2.40183793E-05  6.83501862E-07  1.18219253E-21
 -7.20403616E-08 -1.95151403E-04  4.40287758E-04  1.09971342E-04 -1.68892085E-19
 -1.66227537E-04 -1.79945272E-02  3.21139693E-02  8.52991805E-03 -1.33137188E-17
 -1.70056408E-03 -7.84044060E-02  1.30379176E-01 -1.48019322E-02  4.26208611E-17
 -7.06763905E-06 -2.98912569E-03  5.79246615E-03 -2.07323579E-03  4.66202048E-18
 -3.11868656E-09 -3.38426856E-05  8.38345056E-05 -1.83667389E-05  4.47111122E-20
 -4.11870274E-05 -5.72718041E-02 -2.93855721E-03 -2.61433158E-06 -1.68496589E-01
 -1.49059812E+00  1.69444202E+00 -7.28853015E-01  1.60309077E-15 -1.67643653E+00
 -6.46865331E+00  5.47448689E+00  1.32189254E+00 -2.01104436E-15 -6.13825125E-01
 -1.14069886E+01 -8.36336672E-07 -9.20310137E-04  1.96960896E-03 -4.43381760E-04
  1.07366370E-18 -2.17991069E-04 -2.26147300E-02  4.06398647E-02  6.06042019E-04
  3.07682989E-18 -4.04186162E-02 -5.47951370E-01  7.56398523E-01 -7.91628363E-02
  2.34141716E-16 -2.82981822E-02 -4.60705922E-01  5.21203644E-01 -4.00601509E-01
  8.38100833E-16 -1.01865295E-04 -1.56984675E-02  2.16296890E-02 -1.96506942E-02
  4.06984599E-17 -5.60562365E-07 -7.50469753E-04  1.46222546E-03 -8.07691357E-04
  1.73291843E-18 -7.70429485E-03 -1.68138197E+00 -4.51711572E-03 -3.92776802E-05
 -1.69300713E-01 -1.60784450E+00  6.29576654E-01 -1.91760951E+00  3.81621842E-15
 -1.68401149E+00 -6.89390946E+00 -1.85970013E+00 -6.01968134E+00  1.15774179E-14
 -2.18415065E-01 -1.93238369E+00 -1.28573192E+01 -1.21149394E-06 -7.82837117E-01
 -1.28815927E+00 -2.61921658E-01  3.77136072E-16  0.00000000E+00 -3.25738490E-02
 -7.63090520E-02  2.31521276E-02 -5.32804862E-17  0.00000000E+00 -6.25110415E-05
 -2.27783018E-04  2.75470505E-05 -7.77610568E-20  0.00000000E+00 -2.76791564E-06
 -1.12391925E-05 -2.28963502E-06  3.29905532E-21  0.00000000E+00 -6.28795217E-05
 -1.99967473E-04 -1.15102648E-04  2.04130390E-19  0.00000000E+00 -3.27398319E-02
 -6.14588161E-02 -5.13818693E-02  9.40400786E-17 -2.92762599E-02 -5.50124094E-06
 -5.54269226E-06 -2.94649670E-02  0.00000000E+00 -1.82828983E-11 -1.00058389E-10
 -2.03927170E-11  2.93877577E-26  0.00000000E+00  0.00000000E+00  0.00000000E+00
  0.00000000E+00  0.00000000E+00 -9.05591423E-11  0.00000000E+00 -4.98201300E-11
 -4.58360672E+01 -8.42202729E-01 -5.40057432E+00 -5.88053952E+00 -1.14663096E+00
  1.62570814E-15 -3.42910729E-02 -8.13449933E-01 -1.16276672E+00  4.13641063E-01
 -9.30884692E-16 -6.67111096E-05 -2.87300340E-02 -5.64084541E-02  7.68543730E-03
 -2.09458519E-17 -3.02041200E-06 -5.66594154E-03 -1.22576420E-02 -2.49209397E-03
  3.58818793E-18 -6.65309386E-05 -2.90140354E-02 -4.94952506E-02 -2.93453741E-02
  5.21988426E-17 -3.45343311E-02 -8.31575311E-01 -9.36605970E-01 -8.46153504E-01
  1.55656363E-15 -4.69411567E-01 -2.82332732E-03 -2.86582784E-03 -4.94836747E-01
 -1.82828983E-11 -1.06754147E-05 -3.06546524E-05 -6.25470546E-06  9.01721975E-21
  0.00000000E+00 -1.90304322E-07 -6.32710573E-07 -2.10227852E-08 -2.52411061E-23
 -4.55040458E-06 -6.16905592E-09 -3.17053297E-06 -7.21810871E+00 -1.73316767E+01
  1.38606080E+00  6.14554659E+00  5.41039276E+00  1.63796809E+00 -2.35042113E-15
  8.03611860E-02  1.21312379E+00  1.56396052E+00 -6.62363201E-01  1.49065866E-15
  2.42948221E-04  5.72883182E-02  1.06421718E-01 -1.53320225E-02  4.20135575E-17
  1.22570263E-05  1.21811031E-02  2.49231679E-02  5.43698669E-03 -7.85276441E-18
  2.11527579E-04  5.07510578E-02  7.99129364E-02  5.24537844E-02 -9.33239203E-17
  6.48895821E-02  1.00689296E+00  9.00100770E-01  1.10864285E+00 -2.04181584E-15
  5.43652399E-01  5.72884843E-03  4.75439462E-03  3.43172404E-01  1.00058389E-10
  3.06546524E-05  8.46254700E-05  1.79675916E-05 -2.59521906E-20  0.00000000E+00
  6.34967770E-07  2.05181604E-06  6.91999602E-08  8.52995913E-23  1.17580916E-05
  2.06256143E-08  8.78411151E-06  5.86573164E-02  7.06677945E-01 -1.76699887E+01
  2.83120229E-01  1.32584300E+00  1.77528801E+00 -2.44979241E+00 -3.46461318E-16
 -2.42026249E-02 -3.07993013E-01 -4.88275761E-01 -1.46469330E-01 -3.48130232E-16
 -2.91089406E-05 -5.90825540E-03 -1.16489787E-02 -7.45550523E-03 -2.83724476E-18
  2.50003012E-06  2.49438335E-03  5.47610840E-03 -6.83323695E-04 -1.19152420E-18
  1.21619338E-04  2.82787093E-02  4.94181023E-02  1.99918402E-02 -5.02708386E-17
  5.41305199E-02  7.86095736E-01  9.72133486E-01  5.47314620E-01 -1.56357741E-15
 -4.08677828E-01 -1.44193153E-03  3.63645835E-03  6.28995678E-01  2.03927170E-11
  6.25470546E-06  1.79675916E-05  2.62417799E-07 -4.43485791E-21  0.00000000E+00
  2.14180959E-08  7.02711255E-08 -5.62291380E-08  1.57002449E-23  4.40012577E-06
  1.19655608E-09 -1.08503135E-06  6.17412322E-02  7.11930924E-01  1.40626512E-01
 -1.73336167E+01 -4.08326003E-16 -1.94839378E-15 -2.61897222E-15 -3.60862529E-16
 -2.72215152E+00  5.57598632E-17  7.29554126E-16  1.15020279E-15 -3.66387379E-16
 -2.98296871E-01  8.24060099E-20  1.75625624E-17  3.48107753E-17 -3.22349821E-18
 -8.28160804E-03 -3.60377292E-21 -3.60069209E-18 -7.92927316E-18 -1.19562703E-18
 -1.58625280E-03 -2.15662473E-19 -4.99811080E-17 -8.73871578E-17 -4.99524762E-17
 -8.36353832E-03 -9.90557089E-17 -1.43173980E-15 -1.77484991E-15 -1.54926121E-15
 -3.04330472E-01  8.56249648E-16  3.42073207E-18 -6.61306709E-18 -1.19411213E-15
 -2.93877577E-26 -9.01721975E-21 -2.59521906E-20 -4.43485791E-21 -2.96880867E-06
  0.00000000E+00  2.47047328E-23  8.32047560E-23  1.55879081E-23 -5.19693639E-08
 -7.37203930E-21 -1.76978089E-25  3.04317253E-21 -1.14593275E-16 -1.31818321E-15
 -3.60363067E-16  9.48423683E-16 -1.68561944E+01  0.00000000E+00 -3.40351719E-02
 -7.97449224E-02  2.10078793E-02 -4.94473968E-17  0.00000000E+00 -8.83118512E-05
 -2.84482334E-04  1.42798149E-04 -3.09099292E-19  0.00000000E+00 -3.77478751E-08
 -1.70395897E-07  5.06984540E-08 -1.17018950E-22  0.00000000E+00 -6.07813343E-09
 -2.99810262E-08  4.74018244E-10 -4.07123174E-24  0.00000000E+00 -2.26939274E-06
 -9.21850810E-06 -2.09229146E-06  3.12503450E-21  0.00000000E+00 -5.41191957E-03
 -1.49629224E-02 -3.55636211E-03  5.38582272E-18 -1.42030974E-04 -3.35216643E-09
 -9.29947689E-07 -4.02961009E-02  0.00000000E+00  0.00000000E+00  0.00000000E+00
  0.00000000E+00  0.00000000E+00  0.00000000E+00  0.00000000E+00  0.00000000E+00
  0.00000000E+00  0.00000000E+00 -5.61755267E-13  0.00000000E+00  0.00000000E+00
 -5.59316707E-05 -1.24377615E+00 -1.44009879E+00  1.48199414E+00 -3.04930502E-15
 -4.40525522E+01 -3.88132763E-02 -8.40011138E-01 -1.21922925E+00  3.00591493E-01
 -7.15719569E-16 -9.86995590E-05 -3.34911939E-02 -5.80219277E-02  3.03132549E-02
 -6.53673842E-17 -4.30081231E-08 -6.02910887E-04 -1.41553548E-03  4.33154066E-04
 -9.95554223E-19 -7.11514110E-09 -2.32728996E-04 -5.97066323E-04  5.98149834E-06
 -7.43141731E-20 -2.56792593E-06 -4.66935142E-03 -9.83000252E-03 -2.48222462E-03
  3.82348172E-18 -6.05448721E-03 -2.78242839E-01 -4.44085537E-01 -1.22879655E-01
  1.93738073E-16 -1.85627234E-02 -3.82367618E-05 -8.90835437E-04 -5.61912838E-01
  0.00000000E+00 -1.90304322E-07 -6.34967770E-07 -2.14180959E-08 -2.47047328E-23
  0.00000000E+00 -8.25029517E-10 -3.12824718E-09  2.98975237E-10 -9.12763986E-25
 -2.32981547E-07 -3.29061290E-11 -1.73087240E-08 -1.31520983E+00 -6.64785164E+00
 -4.55648773E+00  5.06070512E+00 -1.03748740E-14 -6.77515066E+00 -1.55413311E+01
  9.09744496E-02  1.24574535E+00  1.63355749E+00 -4.92061880E-01  1.16596738E-15
  3.17974081E-04  5.96574544E-02  9.51419869E-02 -5.57554468E-02  1.20041041E-16
  1.94000368E-07  1.44425788E-03  3.22352387E-03 -1.04134001E-03  2.39169768E-18
  3.50635805E-08  6.07015196E-04  1.49261236E-03 -1.78313399E-05  1.98027514E-19
  1.04234477E-05  1.03123009E-02  2.05129660E-02  5.52072284E-03 -8.50597820E-18
  1.67452143E-02  4.61553569E-01  6.80334246E-01  2.15081946E-01 -3.39234644E-16
  2.61073011E-02  9.12790986E-05  1.84325020E-03  6.77965561E-01  0.00000000E+00
  6.32710573E-07  2.05181604E-06  7.02711255E-08  8.32047560E-23  0.00000000E+00
  3.12824718E-09  1.15943860E-08 -1.13397855E-09  3.45765229E-24  6.98986770E-07
  1.22936464E-10  5.47534618E-08  1.52663136E+00  5.16562182E+00  8.22216268E-01
 -5.00806490E+00  1.02645354E-14  1.02089480E-01  1.18093414E+00 -1.57435502E+01
 -2.39687860E-02 -3.54687379E-01 -5.60820302E-01 -1.90142923E-01 -2.90119534E-16
 -1.59278786E-04 -2.89841182E-02 -5.20113908E-02  1.68385532E-02 -5.74891708E-17
 -5.77109793E-08 -4.18712787E-04 -9.87931745E-04  1.25767927E-04 -6.68975566E-19
 -5.75518632E-10 -1.37642679E-05 -3.75603720E-05 -7.13069372E-05  1.20628385E-20
  2.35068261E-06  2.07322900E-03  4.40670079E-03 -3.41700326E-04 -1.46937885E-18
  3.94801484E-03  9.18188707E-02  1.58068328E-01 -6.02316177E-02 -5.29207596E-17
 -2.22672676E-02 -3.56100151E-05  7.22491148E-04  4.23289167E-01  0.00000000E+00
  2.10227852E-08  6.91999602E-08 -5.62291380E-08  1.55879081E-23  0.00000000E+00
 -2.98975237E-10 -1.13397855E-09 -1.54504472E-10 -2.64920061E-25  1.21719132E-07
 -7.15378304E-12 -1.33014594E-08 -1.56297557E+00 -4.96848546E+00 -4.49643375E+00
  1.18505420E+00 -9.95423755E-15 -4.52465222E-02 -5.17119227E-01  2.21026196E-01
 -1.55869437E+01  5.64156031E-17  8.24293574E-16  1.30043549E-15 -2.82908602E-16
 -3.08417246E-01  3.44842213E-19  6.29395677E-17  1.12718939E-16 -5.78818228E-17
 -9.76860395E-03  1.33208549E-22  9.70324205E-19  2.28724925E-18 -6.74576675E-19
 -1.63325127E-04  4.80275693E-24  9.05779982E-20  2.36610796E-19  1.41318899E-20
 -6.31245731E-05 -3.50399363E-21 -2.97304499E-18 -6.32732963E-18 -1.35254753E-18
 -1.32935898E-03 -5.96484729E-18 -1.31161801E-16 -2.27735383E-16 -4.69415458E-17
 -9.57684296E-02  4.62851708E-17  7.92138408E-20 -1.21963919E-18 -7.56709191E-16
  0.00000000E+00  2.52411061E-23  8.52995913E-23  1.57002449E-23 -5.19693639E-08
  0.00000000E+00  9.12763986E-25  3.45765229E-24 -2.64920061E-25 -2.29157440E-10
 -1.64736117E-22  2.68831376E-26  3.17553179E-23  3.21675215E-15  1.02584057E-14
  9.26395873E-15 -1.00078941E-14 -3.66378469E+00  9.91932957E-17  1.13515810E-15
 -4.93196049E-16  8.53381493E-16 -1.51624314E+01 -1.40099819E-01 -1.40931390E+00
 -1.42843898E+00 -1.06661360E+00  1.93612844E-15 -3.48286955E-02 -5.16453825E-01
 -7.29023992E-01 -4.71462937E-02  1.57468802E-17 -1.37611332E-04 -1.81905717E-02
 -3.31935860E-02 -3.97570459E-03  4.29400182E-18 -2.16275321E-06 -1.63514990E-03
 -3.22497108E-03 -1.37576561E-03  2.35231622E-18 -8.18374418E-06 -3.66413873E-03
 -5.74584069E-03 -4.85283097E-03  8.88790224E-18 -2.08155318E-03 -9.73746667E-02
 -9.96358008E-02 -1.28473811E-01  2.40801966E-16 -7.29998666E-01 -3.26091446E-03
 -2.75570048E-04 -4.63982758E-02 -9.05591423E-11 -4.55040458E-06 -1.17580916E-05
 -4.40012577E-06  7.37203930E-21 -5.61755267E-13 -2.32981547E-07 -6.98986770E-07
 -1.21719132E-07  1.64736117E-22 -1.04657574E-06 -7.42952170E-09 -4.76411549E-06
 -1.78712222E+00 -7.39188173E+00 -1.24951752E+00 -6.41143505E+00  1.24075470E-14
 -1.59406053E-01 -1.53673155E+00  7.60455830E-01 -1.82082224E+00  3.64066115E-15
 -1.32696003E+01 -1.70056408E-03 -7.84044060E-02 -1.30379176E-01  1.48019322E-02
 -4.26208611E-17 -7.06763905E-06 -2.98912569E-03 -5.79246615E-03  2.07323579E-03
 -4.66202048E-18 -3.11868656E-09 -3.38426856E-05 -8.38345056E-05  1.83667389E-05
 -4.47111122E-20 -3.22418461E-10 -9.00799494E-06 -2.40183793E-05 -6.83501862E-07
 -1.18219253E-21 -7.20403616E-08 -1.95151403E-04 -4.40287758E-04 -1.09971342E-04
  1.68892085E-19 -1.66227537E-04 -1.79945272E-02 -3.21139693E-02 -8.52991805E-03
  1.33137188E-17 -2.93855721E-03 -2.61433158E-06 -4.11870274E-05 -5.72718041E-02
  0.00000000E+00 -6.16905592E-09 -2.06256143E-08 -1.19655608E-09  1.76978089E-25
  0.00000000E+00 -3.29061290E-11 -1.22936464E-10  7.15378304E-12 -2.68831376E-26
 -7.42952170E-09  0.00000000E+00 -8.61584026E-10 -1.68496589E-01 -1.49059812E+00
 -1.69444202E+00  7.28853015E-01 -1.60309077E-15 -1.67643653E+00 -6.46865331E+00
 -5.47448689E+00 -1.32189254E+00  2.01104436E-15 -6.13825125E-01 -1.14069886E+01
 -2.82981822E-02 -4.60705922E-01 -5.21203644E-01  4.00601509E-01 -8.38100833E-16
 -1.01865295E-04 -1.56984675E-02 -2.16296890E-02  1.96506942E-02 -4.06984599E-17
 -5.60562365E-07 -7.50469753E-04 -1.46222546E-03  8.07691357E-04 -1.73291843E-18
 -8.36336672E-07 -9.20310137E-04 -1.96960896E-03  4.43381760E-04 -1.07366370E-18
 -2.17991069E-04 -2.26147300E-02 -4.06398647E-02 -6.06042019E-04 -3.07682989E-18
 -4.04186162E-02 -5.47951370E-01 -7.56398523E-01  7.91628363E-02 -2.34141716E-16
 -4.51711572E-03 -3.92776802E-05 -7.70429485E-03 -1.68138197E+00 -4.98201300E-11
 -3.17053297E-06 -8.78411151E-06  1.08503135E-06 -3.04317253E-21  0.00000000E+00
 -1.73087240E-08 -5.47534618E-08  1.33014594E-08 -3.17553179E-23 -4.76411549E-06
 -8.61584026E-10 -7.60851037E-08 -1.69300713E-01 -1.60784450E+00 -6.29576654E-01
  1.91760951E+00 -3.81621842E-15 -1.68401149E+00 -6.89390946E+00  1.85970013E+00
  6.01968134E+00 -1.15774179E-14 -2.18415065E-01 -1.93238369E+00 -1.28573192E+01
Core Hamiltonian Matrix                    R   N=        1830
 -3.24241974E+01 -7.91975165E+00 -1.93441889E+01  5.20418715E-02  5.92088618E-01
 -1.86411784E+01  1.87116200E-02  2.15243360E-01  9.71127726E-03 -1.85090517E+01
 -3.11357603E-17 -3.58848501E-16 -1.15042821E-16  1.53376209E-15 -1.77253043E+01
 -5.47505688E-05 -1.18797766E+00  1.30748687E+00 -1.47132586E+00  3.01453403E-15
 -3.15295416E+01 -1.21847811E+00 -7.04434834E+00  5.08931173E+00 -5.39171042E+00
  1.10780869E-14 -7.69755281E+00 -1.84427863E+01 -1.33738726E+00 -4.82360267E+00
  5.47904308E-01 -4.78348311E+00  9.80325435E-15  2.06447639E-02  2.39505635E-01
 -1.77730849E+01  1.51244609E+00  5.83163382E+00 -5.29975684E+00  1.85268315E+00
 -1.14689433E-14  1.09729756E-01  1.27666874E+00  7.31754003E-02 -1.75021488E+01
 -3.09808698E-15 -1.19105618E-14  1.08129103E-14 -1.14147999E-14 -3.72760107E+00
 -2.12429026E-16 -2.47161243E-15 -2.34642955E-16  1.18477517E-15 -1.69002543E+01
  0.00000000E+00 -5.84691583E-02  1.27304824E-01 -4.24309518E-02  9.63314166E-17
 -5.47624876E-05 -1.19303722E+00  1.93616401E+00  3.98511407E-01 -5.76300722E-16
 -3.16970803E+01 -5.96351325E-02 -1.19833007E+00  1.66401206E+00 -5.57153926E-01
  1.26411440E-15 -1.18740282E+00 -6.89377915E+00  7.11965025E+00  1.80505820E+00
 -2.78341828E-15 -7.73916312E+00 -1.86103040E+01 -1.29851528E-01 -1.67163690E+00
  2.06372953E+00 -8.57539832E-01  1.94043988E-15 -1.92840499E+00 -7.23078975E+00
  5.73340235E+00  2.30648269E+00 -3.52663492E-15 -5.10278117E-02 -5.92649033E-01
 -1.78754280E+01  4.34222425E-02  5.58847024E-01 -8.54487288E-01 -2.01811582E-01
 -5.70508475E-16 -3.89742273E-01 -1.12450848E+00  1.58111954E+00 -3.37999355E+00
 -3.62070573E-16  9.15309161E-02  1.06510731E+00 -1.36420549E-01 -1.77431187E+01
 -9.85371260E-17 -1.26822517E-15  1.93447014E-15 -5.70828606E-16 -4.47710878E-01
  5.59964990E-16  1.44083871E-15 -2.10807109E-15 -2.85999250E-16 -3.64992184E+00
 -1.84354829E-16 -2.14514110E-15  1.81222221E-16  1.32263459E-15 -1.70594920E+01
  0.00000000E+00 -1.37467939E-02  3.56217681E-02  7.26305615E-03 -1.04682926E-17
  0.00000000E+00 -5.97473797E-02  1.02648887E-01  9.09569762E-02 -1.67115795E-16
 -5.51357803E-05 -1.22016749E+00  6.38963238E-01  1.91806981E+00 -3.68408247E-15
 -3.24241974E+01 -1.37467939E-02 -5.15862575E-01  8.08011745E-01  1.64910309E-01
 -2.37769558E-16 -5.82889997E-02 -1.20161092E+00  1.32523844E+00  1.17108666E+00
 -2.15126523E-15 -1.19521729E+00 -7.10261938E+00  2.20869511E+00  7.29121633E+00
 -1.40275080E-14 -7.91975165E+00 -1.93441889E+01 -3.56217681E-02 -8.08011745E-01
  1.16415123E+00  2.79220299E-01 -4.05139355E-16 -1.00172662E-01 -1.31324224E+00
  1.10062636E+00  1.40896722E+00 -2.59296521E-15 -6.29820280E-01 -2.55576432E+00
 -2.92209564E+00  3.27544227E+00 -6.31794950E-15 -5.20418715E-02 -5.92088618E-01
 -1.86411784E+01 -7.26305615E-03 -1.64910309E-01  2.79220299E-01 -1.45345315E-01
 -3.76491809E-17 -8.86128240E-02 -1.16909920E+00  1.42038069E+00  7.66043240E-01
 -2.22690147E-15 -1.87749061E+00 -7.04117950E+00  2.84523832E+00  5.34442800E+00
 -1.75035812E-14 -1.87116200E-02 -2.15243360E-01  9.71127726E-03 -1.85090517E+01
  1.04682926E-17  2.37769558E-16 -4.05139355E-16 -3.76491809E-17 -1.79570060E-01
  1.62791120E-16  2.14863652E-15 -2.61528609E-15 -2.22809844E-15 -4.48821027E-01
  3.60568220E-15  1.35021226E-14 -5.47661676E-15 -1.74584642E-14 -3.75836569E+00
  3.11357603E-17  3.58848501E-16 -1.15042821E-16  1.53376209E-15 -1.77253043E+01
  0.00000000E+00 -5.82889997E-02  1.00172662E-01  8.86128240E-02 -1.62791120E-16
  0.00000000E+00 -1.34576071E-02  1.12661209E-02  3.37356550E-02 -6.47939602E-17
  0.00000000E+00 -5.83021970E-02 -2.68041548E-02  1.31055507E-01 -2.59111080E-16
 -5.47505688E-05 -1.18797766E+00 -1.30748687E+00  1.47132586E+00 -3.01453403E-15
 -3.15295416E+01 -5.97473797E-02 -1.20161092E+00  1.31324224E+00  1.16909920E+00
 -2.14863652E-15 -1.34576071E-02 -5.15393559E-01  2.60484131E-01  7.81303023E-01
 -1.50064534E-15 -5.85906543E-02 -1.20881339E+00 -3.41629058E-01  1.73963343E+00
 -3.43795964E-15 -1.21847811E+00 -7.04434834E+00 -5.08931173E+00  5.39171042E+00
 -1.10780869E-14 -7.69755281E+00 -1.84427863E+01 -1.02648887E-01 -1.32523844E+00
  1.10062636E+00  1.42038069E+00 -2.61528609E-15 -1.12661209E-02 -2.60484131E-01
 -6.20364747E-02  4.26828052E-01 -8.22460004E-16  2.68546425E-02  3.67392215E-01
 -3.83899587E-01 -5.81672643E-01  1.14455475E-15  1.33738726E+00  4.82360267E+00
  5.47904308E-01 -4.78348311E+00  9.80325435E-15 -2.06447639E-02 -2.39505635E-01
 -1.77730849E+01 -9.09569762E-02 -1.17108666E+00  1.40896722E+00  7.66043240E-01
 -2.22809844E-15 -3.37356550E-02 -7.81303023E-01  4.26828052E-01  1.07904969E+00
 -2.41563407E-15 -1.31729007E-01 -1.73694542E+00 -5.42803000E-01  2.26247908E+00
 -5.36289120E-15 -1.51244609E+00 -5.83163382E+00 -5.29975684E+00  1.85268315E+00
 -1.14689433E-14 -1.09729756E-01 -1.27666874E+00  7.31754003E-02 -1.75021488E+01
  1.67115795E-16  2.15126523E-15 -2.59296521E-15 -2.22690147E-15 -4.48821027E-01
  6.47939602E-17  1.50064534E-15 -8.22460004E-16 -2.41563407E-15 -1.79040553E-01
  2.60433511E-16  3.43540467E-15  1.06853894E-15 -5.36696759E-15 -4.50653626E-01
  3.09808698E-15  1.19105618E-14  1.08129103E-14 -1.14147999E-14 -3.72760107E+00
  2.12429026E-16  2.47161243E-15 -2.34642955E-16  1.18477517E-15 -1.69002543E+01
 -5.51357803E-05 -1.19521729E+00  6.29820280E-01  1.87749061E+00 -3.60568220E-15
  0.00000000E+00 -5.85906543E-02 -2.68546425E-02  1.31729007E-01 -2.60433511E-16
  0.00000000E+00 -1.34979674E-02 -2.36627124E-02  2.67064632E-02 -5.47103564E-17
  0.00000000E+00 -5.84691583E-02 -1.27304824E-01  4.24309518E-02 -9.63314166E-17
 -5.47624876E-05 -1.19303722E+00 -1.93616401E+00 -3.98511407E-01  5.76300722E-16
 -3.16970803E+01 -1.22016749E+00 -7.10261938E+00  2.55576432E+00  7.04117950E+00
 -1.35021226E-14 -5.83021970E-02 -1.20881339E+00 -3.67392215E-01  1.73694542E+00
 -3.43540467E-15 -1.34979674E-02 -5.15163685E-01 -5.45593566E-01  6.16628777E-01
 -1.26313461E-15 -5.96351325E-02 -1.19833007E+00 -1.66401206E+00  5.57153926E-01
 -1.26411440E-15 -1.18740282E+00 -6.89377915E+00 -7.11965025E+00 -1.80505820E+00
  2.78341828E-15 -7.73916312E+00 -1.86103040E+01 -6.38963238E-01 -2.20869511E+00
 -2.92209564E+00  2.84523832E+00 -5.47661676E-15  2.68041548E-02  3.41629058E-01
 -3.83899587E-01 -5.42803000E-01  1.06853894E-15  2.36627124E-02  5.45593566E-01
  4.20519688E-01 -7.06546246E-01  1.44464146E-15  1.29851528E-01  1.67163690E+00
  2.06372953E+00 -8.57539832E-01  1.94043988E-15  1.92840499E+00  7.23078975E+00
  5.73340235E+00  2.30648269E+00 -3.52663492E-15  5.10278117E-02  5.92649033E-01
 -1.78754280E+01 -1.91806981E+00 -7.29121633E+00  3.27544227E+00  5.34442800E+00
 -1.74584642E-14 -1.31055507E-01 -1.73963343E+00 -5.81672643E-01  2.26247908E+00
 -5.36696759E-15 -2.67064632E-02 -6.16628777E-01 -7.06546246E-01  5.96440612E-01
 -1.59066000E-15 -4.34222425E-02 -5.58847024E-01 -8.54487288E-01 -2.01811582E-01
 -5.70508475E-16  3.89742273E-01  1.12450848E+00  1.58111954E+00 -3.37999355E+00
 -3.62070573E-16 -9.15309161E-02 -1.06510731E+00 -1.36420549E-01 -1.77431187E+01
  3.68408247E-15  1.40275080E-14 -6.31794950E-15 -1.75035812E-14 -3.75836569E+00
  2.59111080E-16  3.43795964E-15  1.14455475E-15 -5.36289120E-15 -4.50653626E-01
  5.47103564E-17  1.26313461E-15  1.44464146E-15 -1.59066000E-15 -1.79032595E-01
  9.85371260E-17  1.26822517E-15  1.93447014E-15 -5.70828606E-16 -4.47710878E-01
 -5.59964990E-16 -1.44083871E-15 -2.10807109E-15 -2.85999250E-16 -3.64992184E+00
  1.84354829E-16  2.14514110E-15  1.81222221E-16  1.32263459E-15 -1.70594920E+01
 -1.69799627E-01 -1.68622828E+00  6.52135345E-01 -1.99754971E+00  3.97492009E-15
 -1.88458653E+00 -7.82093570E+00 -2.18788166E+00 -6.28905509E+00  1.20698039E-14
 -1.65888903E-01 -1.63291999E+00 -1.70048030E+00 -1.14090147E+00  2.05288037E-15
 -2.98906858E-03 -1.24789599E-01 -1.30852299E-01 -1.57410809E-01  2.94119120E-16
 -3.89523962E-04 -3.64167450E-02 -2.07066574E-02 -6.18525162E-02  1.18790924E-16
 -2.93436408E-03 -1.26787513E-01  8.57410451E-03 -2.08189614E-01  4.08047334E-16
 -1.33319314E+01 -2.98214294E-03 -1.24422741E-01  1.81965852E-01 -9.30706807E-02
  2.01098008E-16 -1.65067490E-01 -1.63906497E+00  2.02872895E+00 -3.83618157E-01
  9.62986523E-16 -1.89561879E+00 -7.96748154E+00  4.63664163E+00 -5.03167393E+00
  1.03265049E-14 -1.70025234E-01 -1.71790974E+00  2.01979227E-01 -2.14022557E+00
  4.20673618E-15 -2.91826037E-03 -1.27138690E-01  7.41177698E-02 -1.95898475E-01
  3.90883830E-16 -3.90574079E-04 -3.64051780E-02  4.33149405E-02 -4.88004406E-02
  9.99796648E-17 -7.35438496E-01 -1.37551347E+01 -2.98906858E-03 -1.24789599E-01
  1.30852299E-01  1.57410809E-01 -2.94119120E-16 -3.89523962E-04 -3.64167450E-02
  2.07066574E-02  6.18525162E-02 -1.18790924E-16 -2.93436408E-03 -1.26787513E-01
 -8.57410451E-03  2.08189614E-01 -4.08047334E-16 -1.69799627E-01 -1.68622828E+00
 -6.52135345E-01  1.99754971E+00 -3.97492009E-15 -1.88458653E+00 -7.82093570E+00
  2.18788166E+00  6.28905509E+00 -1.20698039E-14 -1.65888903E-01 -1.63291999E+00
  1.70048030E+00  1.14090147E+00 -2.05288037E-15 -2.20691898E-03 -1.47280700E-02
 -1.33319314E+01 -1.70025234E-01 -1.71790974E+00 -2.01979227E-01  2.14022557E+00
 -4.20673618E-15 -2.91826037E-03 -1.27138690E-01 -7.41177698E-02  1.95898475E-01
 -3.90883830E-16 -3.90574079E-04 -3.64051780E-02 -4.33149405E-02  4.88004406E-02
 -9.99796648E-17 -2.98214294E-03 -1.24422741E-01 -1.81965852E-01  9.30706807E-02
 -2.01098008E-16 -1.65067490E-01 -1.63906497E+00 -2.02872895E+00  3.83618157E-01
 -9.62986523E-16 -1.89561879E+00 -7.96748154E+00 -4.63664163E+00  5.03167393E+00
 -1.03265049E-14 -1.47280700E-02 -2.20483148E-03 -7.35438496E-01 -1.37551347E+01
  0.00000000E+00 -3.33807450E-06  1.33522931E-05  2.72072985E-06 -3.92052220E-21
  0.00000000E+00 -7.23803120E-05  2.26773172E-04  1.30534286E-04 -2.31498224E-19
  0.00000000E+00 -3.43910603E-02  6.36423119E-02  5.32073584E-02 -9.73811242E-17
 -4.22383537E-06 -7.90837694E-01  1.29870948E+00  2.64075060E-01 -3.80240956E-16
  0.00000000E+00 -3.42242388E-02  7.90322462E-02 -2.39758149E-02  5.51769294E-17
  0.00000000E+00 -7.19997980E-05  2.58455179E-04 -3.12390871E-05  8.81981205E-20
 -6.30063627E-06 -3.04183830E-02 -3.02295604E-02 -6.25829188E-06 -2.99449455E+01
 -3.59057085E-06 -6.06455660E-03  1.29961724E-02  2.64276197E-03 -3.80539112E-18
 -7.60317289E-05 -3.05793862E-02  5.17372783E-02  3.06360758E-02 -5.44878873E-17
 -3.61855596E-02 -8.47566205E-01  9.46087052E-01  8.54080065E-01 -1.57107097E-15
 -8.50203306E-01 -5.37968563E+00  5.78131551E+00  1.12637836E+00 -1.59650690E-15
 -3.59414627E-02 -8.29438228E-01  1.17459724E+00 -4.17219453E-01  9.39123513E-16
 -7.61998662E-05 -3.02944270E-02  5.89755267E-02 -7.99443822E-03  2.18193704E-17
 -3.05620121E-03 -5.05423455E-01 -4.79997570E-01 -3.01357567E-03 -7.30399872E+00
 -1.68594268E+01 -1.43701269E-05 -1.29196335E-02  2.61843391E-02  5.71707817E-03
 -8.25654464E-18 -2.38333277E-04 -5.29930856E-02  8.27288780E-02  5.43312591E-02
 -9.66536004E-17 -6.70730779E-02 -1.01637404E+00  8.97052847E-01  1.10944171E+00
 -2.04327792E-15 -1.39661100E+00 -6.04632258E+00  5.19584192E+00  1.58543730E+00
 -2.27467953E-15 -8.30843801E-02 -1.22495431E+00  1.56145384E+00 -6.62815894E-01
  1.49170093E-15 -2.73620382E-04 -5.98553909E-02  1.10254716E-01 -1.58469775E-02
  4.34692900E-17 -5.02157399E-03 -3.47307247E-01 -5.50711269E-01 -6.05877756E-03
 -5.86573164E-02 -7.06677945E-01 -1.61922606E+01 -2.93112495E-06 -2.64505135E-03
  5.75619987E-03 -7.37937216E-04 -1.27389963E-18 -1.37050976E-04 -2.95694110E-02
  5.12955771E-02  2.06273275E-02 -5.21876854E-17 -5.59560090E-02 -7.94022297E-01
  9.72932341E-01  5.43979048E-01 -1.56479977E-15 -2.85273630E-01 -1.30559040E+00
  1.72275722E+00 -2.41770007E+00 -3.31001711E-16  2.50263122E-02  3.11571403E-01
 -4.88728453E-01 -1.50335731E-01 -3.48445489E-16  3.28009772E-05  6.21725633E-03
 -1.21639336E-02 -7.83858899E-03 -3.01247263E-18 -3.85165369E-03 -6.37301976E-01
  4.14699638E-01  1.53519683E-03 -6.17412322E-02 -7.11930924E-01  1.40626512E-01
 -1.58558886E+01  4.22523980E-21  3.81789527E-18 -8.33305340E-18 -1.27800246E-18
 -1.69800793E-03  2.43030308E-19  5.22701528E-17 -9.07168379E-17 -5.18693230E-17
 -8.80888508E-03  1.02396754E-16  1.44624715E-15 -1.77631199E-15 -1.55048357E-15
 -3.08333919E-01  4.11430887E-16  1.91919254E-15 -2.54323063E-15 -3.45402922E-16
 -2.67933713E+00 -5.76563064E-17 -7.37792948E-16  1.15124506E-15 -3.66702636E-16
 -3.02300199E-01 -9.28430736E-20 -1.84360809E-17  3.62665078E-17 -3.39872609E-18
 -8.72667741E-03  7.00589603E-18  1.20992279E-15 -8.68766549E-16 -3.63772811E-18
  1.14593275E-16  1.31818321E-15 -3.60363067E-16  9.48423683E-16 -1.53784664E+01
  0.00000000E+00 -8.15703882E-09  3.96035605E-08 -6.31332066E-10  5.38803233E-24
  0.00000000E+00 -2.77596777E-06  1.10973710E-05  2.51736485E-06 -3.75929079E-21
  0.00000000E+00 -5.85729312E-03  1.59436076E-02  3.78859740E-03 -5.73714820E-18
  0.00000000E+00 -3.58053011E-02  8.26341154E-02 -2.17699757E-02  5.12407978E-17
  0.00000000E+00 -1.01862172E-04  3.23004763E-04 -1.62136675E-04  3.50958858E-19
  0.00000000E+00 -4.91786775E-08  2.18516097E-07 -6.50308961E-08  1.50094867E-22
 -1.08899622E-06 -4.15053479E-02 -1.56373702E-04 -4.19647393E-09 -1.59627713E-04
 -1.25202959E+00  1.44658385E+00 -1.48865523E+00  3.06301196E-15 -2.81614305E+01
 -9.19404649E-09 -2.57636527E-04  6.54784161E-04 -6.92509733E-06  8.22125999E-20
 -3.07450096E-06 -5.04556474E-03  1.05273416E-02  2.63999039E-03 -4.05888562E-18
 -6.49986076E-03 -2.87778225E-01  4.54940338E-01  1.25450172E-01 -1.97626750E-16
 -4.05834055E-02 -8.56353510E-01  1.23090616E+00 -3.03671568E-01  7.22967748E-16
 -1.12249880E-04 -3.53489528E-02  6.07114866E-02 -3.16634322E-02  6.82899354E-17
 -5.44389255E-08 -6.61034268E-04  1.53770520E-03 -4.69541911E-04  1.07952884E-18
 -9.70498084E-04 -5.73946157E-01 -1.95432720E-02 -4.24174085E-05 -1.32346326E+00
 -6.58668188E+00  4.43325914E+00 -4.93413174E+00  1.01144160E-14 -6.86104067E+00
 -1.50690811E+01 -4.46861149E-08 -6.64733035E-04  1.61838447E-03 -2.00027533E-05
  2.16203402E-19 -1.23023107E-05 -1.10096399E-02  2.17038548E-02  5.81400674E-03
 -8.94359006E-18 -1.77258996E-02 -4.72408370E-01  6.88826642E-01  2.17742187E-01
 -3.43259056E-16 -9.38636426E-02 -1.25742226E+00  1.62968716E+00 -4.92099397E-01
  1.16605567E-15 -3.56496510E-04 -6.23470134E-02  9.85699881E-02 -5.77425106E-02
  1.24342177E-16 -2.42120568E-07 -1.56642760E-03  3.46246293E-03 -1.11737952E-03
  2.56717903E-18 -1.98385326E-03 -6.85504903E-01 -2.72381685E-02 -1.00233335E-04
 -1.53311643E+00 -5.04239323E+00  6.99392376E-01 -4.78314158E+00  9.80169669E-15
 -1.02089480E-01 -1.18093414E+00 -1.42658221E+01  7.32832453E-10  1.47078669E-05
 -3.97317855E-05 -7.83198271E-05  1.17656904E-20 -2.77575600E-06 -2.23099477E-03
  4.69998468E-03 -3.80800502E-04 -1.56838403E-18 -4.18025013E-03 -9.43893874E-02
  1.60728569E-01 -6.23429420E-02 -5.38737773E-17  2.47308823E-02  3.57767454E-01
 -5.60857818E-01 -1.94145591E-01 -2.90142822E-16  1.78617313E-04  3.03342954E-02
 -5.39984546E-02  1.73058345E-02 -5.96483708E-17  7.20434214E-08  4.55100632E-04
 -1.06397125E-03  1.32057642E-04 -7.21242104E-19 -7.83826988E-04 -4.28571941E-01
  2.32924664E-02  3.92714976E-05  1.56963666E+00  4.84191208E+00 -4.27151042E+00
  1.05018144E+00 -9.47883599E-15  4.52465222E-02  5.17119227E-01  2.21026196E-01
 -1.41092156E+01 -6.11955752E-24 -9.84764251E-20  2.54786685E-19  1.38347417E-20
 -7.01729622E-05  4.13824991E-21  3.20844889E-18 -6.76494149E-18 -1.45155271E-18
 -1.43481161E-03  6.31617276E-18  1.35050478E-16 -2.31759794E-16 -4.78945635E-17
 -9.85097234E-02 -5.82090041E-17 -8.31541752E-16  1.30052377E-15 -2.82931890E-16
 -3.12429810E-01 -3.86701779E-19 -6.58621189E-17  1.17020075E-16 -6.00410228E-17
 -1.02988425E-02 -1.66284465E-22 -1.05429882E-18  2.46273060E-18 -7.26843213E-19
 -1.79683525E-04  1.32484572E-18  7.66249826E-16 -4.84087093E-17 -8.73135178E-20
 -3.23045909E-15 -9.99794771E-15  8.80112001E-15 -9.53249250E-15 -3.56762902E+00
 -9.91932957E-17 -1.13515810E-15 -4.93196049E-16  8.53381493E-16 -1.36847033E+01
 -2.46118902E-06 -1.74836155E-03  3.42003425E-03  1.45983712E-03 -2.49627458E-18
 -9.20708033E-06 -3.88917098E-03  6.05283768E-03  5.10939427E-03 -9.35745702E-18
 -2.20717988E-03 -1.00708981E-01  1.02434778E-01  1.31911845E-01 -2.47232054E-16
 -1.42242927E-01 -1.42436683E+00  1.43105972E+00  1.06866887E+00 -1.93987301E-15
 -3.58607010E-02 -5.27509531E-01  7.38266728E-01  4.82959518E-02 -1.70259032E-17
 -1.50204288E-04 -1.91023116E-02  3.46073215E-02  4.18954086E-03 -4.56392961E-18
 -2.96008640E-04 -4.81124749E-02 -7.40991878E-01 -3.46032136E-03 -1.79792367E+00
 -7.28769711E+00  1.19169084E+00  6.16193695E+00 -1.19256780E-14 -1.61797394E-01
 -1.55154743E+00 -7.60292203E-01  1.82033400E+00 -3.63968916E-15 -1.25095684E+01
 -4.02898377E-10 -1.01081658E-05  2.67397697E-05  7.42253180E-07  1.35269646E-21
 -8.53895283E-08 -2.15012898E-04  4.81291393E-04  1.19061487E-04 -1.82369127E-19
 -1.81191874E-04 -1.89986285E-02  3.36342741E-02  8.87625832E-03 -1.38316031E-17
 -1.80582988E-03 -8.14193780E-02  1.34427274E-01 -1.52894669E-02  4.39988512E-17
 -7.97265928E-06 -3.19927084E-03  6.14916199E-03 -2.19121785E-03  4.93016121E-18
 -3.81887224E-09 -3.76026984E-05  9.24063281E-05 -2.01223042E-05  4.90433579E-20
 -4.57635936E-05 -5.96132490E-02 -3.13144473E-03 -2.93706209E-06 -1.70887973E-01
 -1.50541390E+00  1.69395760E+00 -7.28676116E-01  1.60269401E-15 -1.68723810E+00
 -6.36446979E+00  5.22353381E+00  1.27075834E+00 -1.93736155E-15 -6.24408087E-01
 -1.06469567E+01 -9.61475121E-07 -9.89979401E-04  2.10148418E-03 -4.74326122E-04
  1.14801057E-18 -2.36904343E-04 -2.37595110E-02  4.23926642E-02  5.57731674E-04
  3.35513061E-18 -4.15494483E-02 -5.59565558E-01  7.65584294E-01 -8.05221253E-02
  2.37763367E-16 -2.91829195E-02 -4.70863801E-01  5.28450721E-01 -4.06276913E-01
  8.49960021E-16 -1.11571403E-04 -1.64867622E-02  2.25684740E-02 -2.04823734E-02
  4.24233954E-17 -6.48684991E-07 -8.07728665E-04  1.56099882E-03 -8.62340641E-04
  1.85015256E-18 -8.15628857E-03 -1.69077379E+00 -4.76335887E-03 -4.28099480E-05
 -1.71692054E-01 -1.62266039E+00  6.29413028E-01 -1.91712127E+00  3.81524643E-15
 -1.69481295E+00 -6.78972485E+00 -1.80187346E+00 -5.77018325E+00  1.10955489E-14
 -2.24065227E-01 -1.93982751E+00 -1.20972873E+01 -4.22383537E-06 -7.90837694E-01
 -1.29870948E+00 -2.64075060E-01  3.80240956E-16  0.00000000E+00 -3.42242388E-02
 -7.90322462E-02  2.39758149E-02 -5.51769294E-17  0.00000000E+00 -7.19997980E-05
 -2.58455179E-04  3.12390871E-05 -8.81981205E-20  0.00000000E+00 -3.33807450E-06
 -1.33522931E-05 -2.72072985E-06  3.92052220E-21  0.00000000E+00 -7.23803120E-05
 -2.26773172E-04 -1.30534286E-04  2.31498224E-19  0.00000000E+00 -3.43910603E-02
 -6.36423119E-02 -5.32073584E-02  9.73811242E-17 -3.02295604E-02 -6.25829188E-06
 -6.30063627E-06 -3.04183830E-02  0.00000000E+00 -2.62992476E-11 -1.41842415E-10
 -2.89181883E-11  4.16786482E-26  0.00000000E+00  0.00000000E+00  0.00000000E+00
  0.00000000E+00  0.00000000E+00 -1.16810698E-10  0.00000000E+00 -6.47876510E-11
 -2.99449455E+01 -8.50203306E-01 -5.37968563E+00 -5.78131551E+00 -1.12637836E+00
  1.59650690E-15 -3.59414627E-02 -8.29438228E-01 -1.17459724E+00  4.17219453E-01
 -9.39123513E-16 -7.61998662E-05 -3.02944270E-02 -5.89755267E-02  7.99443822E-03
 -2.18193704E-17 -3.59057085E-06 -6.06455660E-03 -1.29961724E-02 -2.64276197E-03
  3.80539112E-18 -7.60317289E-05 -3.05793862E-02 -5.17372783E-02 -3.06360758E-02
  5.44878873E-17 -3.61855596E-02 -8.47566205E-01 -9.46087052E-01 -8.54080065E-01
  1.57107097E-15 -4.79997570E-01 -3.01357567E-03 -3.05620121E-03 -5.05423455E-01
 -2.62992476E-11 -1.22021418E-05 -3.46831811E-05 -7.07667284E-06  1.02022230E-20
  0.00000000E+00 -2.26163038E-07 -7.44794058E-07 -2.47752539E-08 -2.96571324E-23
 -5.13131073E-06 -7.36622941E-09 -3.59201654E-06 -7.30399872E+00 -1.68594268E+01
  1.39661100E+00  6.04632258E+00  5.19584192E+00  1.58543730E+00 -2.27467953E-15
  8.30843801E-02  1.22495431E+00  1.56145384E+00 -6.62815894E-01  1.49170093E-15
  2.73620382E-04  5.98553909E-02  1.10254716E-01 -1.58469775E-02  4.34692900E-17
  1.43701269E-05  1.29196335E-02  2.61843391E-02  5.71707817E-03 -8.25654464E-18
  2.38333277E-04  5.29930856E-02  8.27288780E-02  5.43312591E-02 -9.66536004E-17
  6.70730779E-02  1.01637404E+00  8.97052847E-01  1.10944171E+00 -2.04327792E-15
  5.50711269E-01  6.05877756E-03  5.02157399E-03  3.47307247E-01  1.41842415E-10
  3.46831811E-05  9.47471945E-05  2.01226708E-05 -2.90590972E-20  0.00000000E+00
  7.47051255E-07  2.39016096E-06  8.08806841E-08  9.90458446E-23  1.31442483E-05
  2.44141955E-08  9.86377057E-06  5.86573164E-02  7.06677945E-01 -1.61922606E+01
  2.85273630E-01  1.30559040E+00  1.72275722E+00 -2.41770007E+00 -3.31001711E-16
 -2.50263122E-02 -3.11571403E-01 -4.88728453E-01 -1.50335731E-01 -3.48445489E-16
 -3.28009772E-05 -6.21725633E-03 -1.21639336E-02 -7.83858899E-03 -3.01247263E-18
  2.93112495E-06  2.64505135E-03  5.75619987E-03 -7.37937216E-04 -1.27389963E-18
  1.37050976E-04  2.95694110E-02  5.12955771E-02  2.06273275E-02 -5.21876854E-17
  5.59560090E-02  7.94022297E-01  9.72932341E-01  5.43979048E-01 -1.56479977E-15
 -4.14699638E-01 -1.53519683E-03  3.85165369E-03  6.37301976E-01  2.89181883E-11
  7.07667284E-06  2.01226708E-05  2.61639364E-07 -5.06878061E-21  0.00000000E+00
  2.51705645E-08  8.19518494E-08 -6.63878049E-08  1.61604588E-23  4.91845090E-06
  1.41294325E-09 -1.22717487E-06  6.17412322E-02  7.11930924E-01  1.40626512E-01
 -1.58558886E+01 -4.11430887E-16 -1.91919254E-15 -2.54323063E-15 -3.45402922E-16
 -2.67933713E+00  5.76563064E-17  7.37792948E-16  1.15124506E-15 -3.66702636E-16
 -3.02300199E-01  9.28430736E-20  1.84360809E-17  3.62665078E-17 -3.39872609E-18
 -8.72667741E-03 -4.22523980E-21 -3.81789527E-18 -8.33305340E-18 -1.27800246E-18
 -1.69800793E-03 -2.43030308E-19 -5.22701528E-17 -9.07168379E-17 -5.18693230E-17
 -8.80888508E-03 -1.02396754E-16 -1.44624715E-15 -1.77631199E-15 -1.55048357E-15
 -3.08333919E-01  8.68766549E-16  3.63772811E-18 -7.00589603E-18 -1.20992279E-15
 -4.16786482E-26 -1.02022230E-20 -2.90590972E-20 -5.06878061E-21 -3.40930217E-06
  0.00000000E+00  2.91207591E-23  9.69510093E-23  1.60481220E-23 -6.25190924E-08
 -8.24033612E-21 -2.02836340E-25  3.43438451E-21 -1.14593275E-16 -1.31818321E-15
 -3.60363067E-16  9.48423683E-16 -1.53784664E+01  0.00000000E+00 -3.58053011E-02
 -8.26341154E-02  2.17699757E-02 -5.12407978E-17  0.00000000E+00 -1.01862172E-04
 -3.23004763E-04  1.62136675E-04 -3.50958858E-19  0.00000000E+00 -4.91786775E-08
 -2.18516097E-07  6.50308961E-08 -1.50094867E-22  0.00000000E+00 -8.15703882E-09
 -3.96035605E-08  6.31332066E-10 -5.38803233E-24  0.00000000E+00 -2.77596777E-06
 -1.10973710E-05 -2.51736485E-06  3.75929079E-21  0.00000000E+00 -5.85729312E-03
 -1.59436076E-02 -3.78859740E-03  5.73714820E-18 -1.56373702E-04 -4.19647393E-09
 -1.08899622E-06 -4.15053479E-02  0.00000000E+00  0.00000000E+00  0.00000000E+00
  0.00000000E+00  0.00000000E+00  0.00000000E+00  0.00000000E+00  0.00000000E+00
  0.00000000E+00  0.00000000E+00 -7.83239403E-13  0.00000000E+00  0.00000000E+00
 -1.59627713E-04 -1.25202959E+00 -1.44658385E+00  1.48865523E+00 -3.06301196E-15
 -2.81614305E+01 -4.05834055E-02 -8.56353510E-01 -1.23090616E+00  3.03671568E-01
 -7.22967748E-16 -1.12249880E-04 -3.53489528E-02 -6.07114866E-02  3.16634322E-02
 -6.82899354E-17 -5.44389255E-08 -6.61034268E-04 -1.53770520E-03  4.69541911E-04
 -1.07952884E-18 -9.19404649E-09 -2.57636527E-04 -6.54784161E-04  6.92509733E-06
 -8.22125999E-20 -3.07450096E-06 -5.04556474E-03 -1.05273416E-02 -2.63999039E-03
  4.05888562E-18 -6.49986076E-03 -2.87778225E-01 -4.54940338E-01 -1.25450172E-01
  1.97626750E-16 -1.95432720E-02 -4.24174085E-05 -9.70498084E-04 -5.73946157E-01
  0.00000000E+00 -2.26163038E-07 -7.47051255E-07 -2.51705645E-08 -2.91207591E-23
  0.00000000E+00 -1.03452226E-09 -3.88587715E-09  3.71384030E-10 -1.13382623E-24
 -2.70628803E-07 -4.10739415E-11 -2.04763214E-08 -1.32346326E+00 -6.58668188E+00
 -4.43325914E+00  4.93413174E+00 -1.01144160E-14 -6.86104067E+00 -1.50690811E+01
  9.38636426E-02  1.25742226E+00  1.62968716E+00 -4.92099397E-01  1.16605567E-15
  3.56496510E-04  6.23470134E-02  9.85699881E-02 -5.77425106E-02  1.24342177E-16
  2.42120568E-07  1.56642760E-03  3.46246293E-03 -1.11737952E-03  2.56717903E-18
  4.46861149E-08  6.64733035E-04  1.61838447E-03 -2.00027533E-05  2.16203402E-19
  1.23023107E-05  1.10096399E-02  2.17038548E-02  5.81400674E-03 -8.94359006E-18
  1.77258996E-02  4.72408370E-01  6.88826642E-01  2.17742187E-01 -3.43259056E-16
  2.72381685E-02  1.00233335E-04  1.98385326E-03  6.85504903E-01  0.00000000E+00
  7.44794058E-07  2.39016096E-06  8.19518494E-08  9.69510093E-23  0.00000000E+00
  3.88587715E-09  1.42652965E-08 -1.39523033E-09  4.25524749E-24  8.04117002E-07
  1.52209488E-10  6.42348822E-08  1.53311643E+00  5.04239323E+00  6.99392376E-01
 -4.78314158E+00  9.80169669E-15  1.02089480E-01  1.18093414E+00 -1.42658221E+01
 -2.47308823E-02 -3.57767454E-01 -5.60857818E-01 -1.94145591E-01 -2.90142822E-16
 -1.78617313E-04 -3.03342954E-02 -5.39984546E-02  1.73058345E-02 -5.96483708E-17
 -7.20434214E-08 -4.55100632E-04 -1.06397125E-03  1.32057642E-04 -7.21242104E-19
 -7.32832453E-10 -1.47078669E-05 -3.97317855E-05 -7.83198271E-05  1.17656904E-20
  2.77575600E-06  2.23099477E-03  4.69998468E-03 -3.80800502E-04 -1.56838403E-18
  4.18025013E-03  9.43893874E-02  1.60728569E-01 -6.23429420E-02 -5.38737773E-17
 -2.32924664E-02 -3.92714976E-05  7.83826988E-04  4.28571941E-01  0.00000000E+00
  2.47752539E-08  8.08806841E-08 -6.63878049E-08  1.60481220E-23  0.00000000E+00
 -3.71384030E-10 -1.39523033E-09 -1.92163254E-10 -3.41148441E-25  1.41356122E-07
 -8.86483612E-12 -1.56176683E-08 -1.56963666E+00 -4.84191208E+00 -4.27151042E+00
  1.05018144E+00 -9.47883599E-15 -4.52465222E-02 -5.17119227E-01  2.21026196E-01
 -1.41092156E+01  5.82090041E-17  8.31541752E-16  1.30052377E-15 -2.82931890E-16
 -3.12429810E-01  3.86701779E-19  6.58621189E-17  1.17020075E-16 -6.00410228E-17
 -1.02988425E-02  1.66284465E-22  1.05429882E-18  2.46273060E-18 -7.26843213E-19
 -1.79683525E-04  6.11955752E-24  9.84764251E-20  2.54786685E-19  1.38347417E-20
 -7.01729622E-05 -4.13824991E-21 -3.20844889E-18 -6.76494149E-18 -1.45155271E-18
 -1.43481161E-03 -6.31617276E-18 -1.35050478E-16 -2.31759794E-16 -4.78945635E-17
 -9.85097234E-02  4.84087093E-17  8.73135178E-20 -1.32484572E-18 -7.66249826E-16
  0.00000000E+00  2.96571324E-23  9.90458446E-23  1.61604588E-23 -6.25190924E-08
  0.00000000E+00  1.13382623E-24  4.25524749E-24 -3.41148441E-25 -2.91784778E-10
 -1.92114028E-22  3.32993386E-26  3.72793846E-23  3.23045909E-15  9.99794771E-15
  8.80112001E-15 -9.53249250E-15 -3.56762902E+00  9.91932957E-17  1.13515810E-15
 -4.93196049E-16  8.53381493E-16 -1.36847033E+01 -1.42242927E-01 -1.42436683E+00
 -1.43105972E+00 -1.06866887E+00  1.93987301E-15 -3.58607010E-02 -5.27509531E-01
 -7.38266728E-01 -4.82959518E-02  1.70259032E-17 -1.50204288E-04 -1.91023116E-02
 -3.46073215E-02 -4.18954086E-03  4.56392961E-18 -2.46118902E-06 -1.74836155E-03
 -3.42003425E-03 -1.45983712E-03  2.49627458E-18 -9.20708033E-06 -3.88917098E-03
 -6.05283768E-03 -5.10939427E-03  9.35745702E-18 -2.20717988E-03 -1.00708981E-01
 -1.02434778E-01 -1.31911845E-01  2.47232054E-16 -7.40991878E-01 -3.46032136E-03
 -2.96008640E-04 -4.81124749E-02 -1.16810698E-10 -5.13131073E-06 -1.31442483E-05
 -4.91845090E-06  8.24033612E-21 -7.83239403E-13 -2.70628803E-07 -8.04117002E-07
 -1.41356122E-07  1.92114028E-22 -1.17488511E-06 -8.71521649E-09 -5.33756586E-06
 -1.79792367E+00 -7.28769711E+00 -1.19169084E+00 -6.16193695E+00  1.19256780E-14
 -1.61797394E-01 -1.55154743E+00  7.60292203E-01 -1.82033400E+00  3.63968916E-15
 -1.25095684E+01 -1.80582988E-03 -8.14193780E-02 -1.34427274E-01  1.52894669E-02
 -4.39988512E-17 -7.97265928E-06 -3.19927084E-03 -6.14916199E-03  2.19121785E-03
 -4.93016121E-18 -3.81887224E-09 -3.76026984E-05 -9.24063281E-05  2.01223042E-05
 -4.90433579E-20 -4.02898377E-10 -1.01081658E-05 -2.67397697E-05 -7.42253180E-07
 -1.35269646E-21 -8.53895283E-08 -2.15012898E-04 -4.81291393E-04 -1.19061487E-04
  1.82369127E-19 -1.81191874E-04 -1.89986285E-02 -3.36342741E-02 -8.87625832E-03
  1.38316031E-17 -3.13144473E-03 -2.93706209E-06 -4.57635936E-05 -5.96132490E-02
  0.00000000E+00 -7.36622941E-09 -2.44141955E-08 -1.41294325E-09  2.02836340E-25
  0.00000000E+00 -4.10739415E-11 -1.52209488E-10  8.86483612E-12 -3.32993386E-26
 -8.71521649E-09  0.00000000E+00 -1.02327395E-09 -1.70887973E-01 -1.50541390E+00
 -1.69395760E+00  7.28676116E-01 -1.60269401E-15 -1.68723810E+00 -6.36446979E+00
 -5.22353381E+00 -1.27075834E+00  1.93736155E-15 -6.24408087E-01 -1.06469567E+01
 -2.91829195E-02 -4.70863801E-01 -5.28450721E-01  4.06276913E-01 -8.49960021E-16
 -1.11571403E-04 -1.64867622E-02 -2.25684740E-02  2.04823734E-02 -4.24233954E-17
 -6.48684991E-07 -8.07728665E-04 -1.56099882E-03  8.62340641E-04 -1.85015256E-18
 -9.61475121E-07 -9.89979401E-04 -2.10148418E-03  4.74326122E-04 -1.14801057E-18
 -2.36904343E-04 -2.37595110E-02 -4.23926642E-02 -5.57731674E-04 -3.35513061E-18
 -4.15494483E-02 -5.59565558E-01 -7.65584294E-01  8.05221253E-02 -2.37763367E-16
 -4.76335887E-03 -4.28099480E-05 -8.15628857E-03 -1.69077379E+00 -6.47876510E-11
 -3.59201654E-06 -9.86377057E-06  1.22717487E-06 -3.43438451E-21  0.00000000E+00
 -2.04763214E-08 -6.42348822E-08  1.56176683E-08 -3.72793846E-23 -5.33756586E-06
 -1.02327395E-09 -8.72094096E-08 -1.71692054E-01 -1.62266039E+00 -6.29413028E-01
  1.91712127E+00 -3.81524643E-15 -1.69481295E+00 -6.78972485E+00  1.80187346E+00
  5.77018325E+00 -1.10955489E-14 -2.24065227E-01 -1.93982751E+00 -1.20972873E+01
Multipole Matrix (1,0,0)                   R   N=        1830
  2.58290277E+00  6.41495906E-01  2.58290277E+00  7.18554879E-02  8.38743577E-01
  2.58290277E+00  0.00000000E+00  0.00000000E+00  0.00000000E+00  2.58290277E+00
  0.00000000E+00  0.00000000E+00  0.00000000E+00  0.00000000E+00  2.58290277E+00
  1.58657192E-06  3.50872644E-02 -3.71090837E-02  4.47825422E-02 -9.17401888E-17
  8.34595104E-01  9.46010014E-02  6.27232808E-01 -1.92166282E-01  5.21471936E-01
 -1.06827195E-15  2.07282035E-01  8.34595104E-01  1.05468915E-01  6.90854566E-01
 -4.07874774E-02  6.72585448E-01 -1.37783861E-15  7.18554879E-02  8.38743577E-01
  8.34595104E-01 -1.16154001E-01 -4.75247920E-01  2.48490746E-01 -1.52622059E-01
  1.06492396E-15  0.00000000E+00  0.00000000E+00  0.00000000E+00  8.34595104E-01
  2.37949643E-16  9.73578804E-16 -5.09050778E-16  1.06492396E-15  3.67215572E-01
  0.00000000E+00  0.00000000E+00  0.00000000E+00  0.00000000E+00  8.34595104E-01
  0.00000000E+00 -2.85125773E-03  6.33232273E-03 -2.08135908E-03  4.72389660E-18
 -4.27331012E-07 -6.13470994E-02  9.98176832E-02  1.98385127E-02 -2.85985355E-17
 -1.74784262E+00  4.38991924E-03  2.55845094E-02 -4.75242710E-03  1.50903675E-02
 -3.42494172E-17  2.66536745E-02 -1.67716281E-01  3.99685289E-01  2.64554594E-02
 -3.81373043E-17 -4.34098371E-01 -1.74784262E+00  9.69228676E-03  6.66448194E-02
 -4.42840727E-02  3.69326577E-02 -8.38231411E-17  4.34607042E-02  5.08799536E-02
  1.39911272E-01 -8.07651988E-03  1.16428406E-17  7.18554879E-02  8.38743577E-01
 -1.74784262E+00 -3.20369909E-03 -8.75869313E-03 -1.89919193E-04  4.57788726E-03
  1.39278702E-17  8.34187262E-03 -4.46996925E-02  1.05228255E-01 -8.83002104E-02
 -1.42849419E-17  0.00000000E+00  0.00000000E+00  0.00000000E+00 -1.74784262E+00
  7.27118321E-18  1.98789152E-17  4.31044618E-19  1.39278702E-17  1.07145371E-02
 -1.20253642E-17  6.44375796E-17 -1.51693528E-16 -1.42849419E-17 -9.82095291E-02
  0.00000000E+00  0.00000000E+00  0.00000000E+00  0.00000000E+00 -1.74784262E+00
  0.00000000E+00 -9.88857714E-04  2.59640750E-03  5.24759722E-04 -7.56421793E-19
  0.00000000E+00 -4.47340542E-03  7.81302411E-03  6.83045071E-03 -1.25493020E-17
 -2.01982024E-06 -9.64455135E-02  5.29698219E-02  1.50908274E-01 -2.89839390E-16
 -2.58290277E+00  9.88857714E-04  0.00000000E+00  1.29168224E-02 -8.05640677E-04
  1.16130133E-18  1.24796945E-03 -5.36035304E-02  9.35716652E-02  4.70480353E-02
 -8.64393912E-17 -6.80019513E-02 -7.95130716E-01  5.32601897E-01  7.86467854E-01
 -1.51051600E-15 -6.41495906E-01 -2.58290277E+00  2.59640750E-03  1.29168224E-02
  1.73472348E-18 -5.36680554E-03  7.73605234E-18  2.25491362E-03 -2.44788076E-02
  4.93156320E-02  2.46954703E-02 -4.53719566E-17 -3.33993338E-02 -2.10029019E-03
 -3.47542352E-01  8.45891186E-02 -1.62464640E-16  7.18554879E-02  8.38743577E-01
 -2.58290277E+00  5.24759722E-04 -8.05640677E-04  5.36680554E-03  2.16840434E-19
 -3.85185989E-34  1.90740457E-03 -5.75141042E-02  1.02436858E-01  3.38526993E-02
 -1.03443437E-16 -1.07685001E-01 -8.14455400E-01  6.22146390E-01  5.92433699E-01
 -2.03202863E-15  0.00000000E+00  0.00000000E+00  0.00000000E+00 -2.58290277E+00
 -7.56421793E-19  1.16130133E-18 -7.73605234E-18  5.77778983E-34  0.00000000E+00
 -3.50439479E-18  1.05668263E-16 -1.88202963E-16 -1.03443437E-16 -2.24504562E-02
  2.06823351E-16  1.56426980E-15 -1.19491480E-15 -2.03202863E-15 -4.65565818E-01
  0.00000000E+00  0.00000000E+00  0.00000000E+00  0.00000000E+00 -2.58290277E+00
  0.00000000E+00 -1.24796945E-03  2.25491362E-03  1.90740457E-03 -3.50439479E-18
  0.00000000E+00 -3.19862524E-04  2.92441775E-04  8.05609511E-04 -1.54729593E-18
  0.00000000E+00 -1.61589783E-03 -6.42545799E-04  3.64401864E-03 -7.20447647E-18
 -1.58657192E-06 -3.50872644E-02 -3.71090837E-02  4.47825422E-02 -9.17401888E-17
 -8.34595104E-01  4.47340542E-03  5.36035304E-02 -2.44788076E-02 -5.75141042E-02
  1.05668263E-16  3.19862524E-04  2.80443751E-18  1.64645639E-02 -1.23659119E-03
  2.37506198E-18 -3.14309400E-03 -7.91268459E-02  1.67233206E-02  1.16115596E-01
 -2.29568552E-16 -9.46010014E-02 -6.27232808E-01 -1.92166282E-01  5.21471936E-01
 -1.06827195E-15 -2.07282035E-01 -8.34595104E-01  7.81302411E-03  9.35716652E-02
 -4.93156320E-02 -1.02436858E-01  1.88202963E-16  2.92441775E-04  1.64645639E-02
  1.59867358E-18 -2.54878022E-02  4.89532115E-17  1.54890903E-03  6.32880136E-02
 -2.55737384E-02 -9.44590472E-02  1.86752059E-16  1.05468915E-01  6.90854566E-01
  4.07874774E-02 -6.72585448E-01  1.37783861E-15  7.18554879E-02  8.38743577E-01
 -8.34595104E-01  6.83045071E-03  4.70480353E-02 -2.46954703E-02 -3.38526993E-02
  1.03443437E-16  8.05609511E-04 -1.23659119E-03  2.54878022E-02 -5.27666773E-18
  1.75397403E-32 -7.09103458E-03 -1.11986051E-01  2.03521846E-02  1.48371984E-01
 -3.58857434E-16 -1.16154001E-01 -4.75247920E-01 -2.48490746E-01  1.52622059E-01
 -1.06492396E-15  0.00000000E+00  0.00000000E+00  0.00000000E+00 -8.34595104E-01
 -1.25493020E-17 -8.64393912E-17  4.53719566E-17  1.03443437E-16  2.24504562E-02
 -1.54729593E-18  2.37506198E-18 -4.89532115E-17  1.44582524E-32  1.10230514E-18
  1.40194650E-17  2.21404156E-16 -4.02376743E-17 -3.58857434E-16 -3.31378296E-02
  2.37949643E-16  9.73578804E-16  5.09050778E-16 -1.06492396E-15 -3.67215572E-01
  0.00000000E+00  0.00000000E+00  0.00000000E+00  0.00000000E+00 -8.34595104E-01
  2.01982024E-06  6.80019513E-02 -3.33993338E-02 -1.07685001E-01  2.06823351E-16
  0.00000000E+00  3.14309400E-03  1.54890903E-03 -7.09103458E-03  1.40194650E-17
  0.00000000E+00  6.68928473E-04  1.20127088E-03 -1.32978029E-03  2.72411633E-18
  0.00000000E+00  2.85125773E-03  6.33232273E-03 -2.08135908E-03  4.72389660E-18
  4.27331012E-07  6.13470994E-02  9.98176832E-02  1.98385127E-02 -2.85985355E-17
  1.74784262E+00  9.64455135E-02  7.95130716E-01 -2.10029019E-03 -8.14455400E-01
  1.56426980E-15  1.61589783E-03  7.91268459E-02  6.32880136E-02 -1.11986051E-01
  2.21404156E-16 -6.68928473E-04  1.18609723E-17  1.50552396E-02  2.04167344E-03
 -4.18246230E-18 -4.38991924E-03 -2.55845094E-02 -4.75242710E-03  1.50903675E-02
 -3.42494172E-17 -2.66536745E-02  1.67716281E-01  3.99685289E-01  2.64554594E-02
 -3.81373043E-17  4.34098371E-01  1.74784262E+00  5.29698219E-02  5.32601897E-01
  3.47542352E-01 -6.22146390E-01  1.19491480E-15 -6.42545799E-04  1.67233206E-02
  2.55737384E-02 -2.03521846E-02  4.02376743E-17  1.20127088E-03  1.50552396E-02
 -3.76606084E-18 -2.01001255E-02  4.11760350E-17  9.69228676E-03  6.66448194E-02
  4.42840727E-02 -3.69326577E-02  8.38231411E-17  4.34607042E-02  5.08799536E-02
 -1.39911272E-01  8.07651988E-03 -1.16428406E-17  7.18554879E-02  8.38743577E-01
  1.74784262E+00  1.50908274E-01  7.86467854E-01 -8.45891186E-02 -5.92433699E-01
  2.03202863E-15  3.64401864E-03  1.16115596E-01  9.44590472E-02 -1.48371984E-01
  3.58857434E-16 -1.32978029E-03  2.04167344E-03  2.01001255E-02 -1.54551319E-17
  4.05205631E-32 -3.20369909E-03 -8.75869313E-03  1.89919193E-04 -4.57788726E-03
 -1.39278702E-17  8.34187262E-03 -4.46996925E-02 -1.05228255E-01  8.83002104E-02
  1.42849419E-17  0.00000000E+00  0.00000000E+00  0.00000000E+00  1.74784262E+00
 -2.89839390E-16 -1.51051600E-15  1.62464640E-16  2.03202863E-15  4.65565818E-01
 -7.20447647E-18 -2.29568552E-16 -1.86752059E-16  3.58857434E-16  3.31378296E-02
  2.72411633E-18 -4.18246230E-18 -4.11760350E-17  4.05205631E-32  4.62377327E-18
  7.27118321E-18  1.98789152E-17 -4.31044618E-19 -1.39278702E-17 -1.07145371E-02
 -1.20253642E-17  6.44375796E-17  1.51693528E-16  1.42849419E-17  9.82095291E-02
  0.00000000E+00  0.00000000E+00  0.00000000E+00  0.00000000E+00  1.74784262E+00
  1.34612954E-02  1.97612727E-01  5.56946588E-04  2.47114221E-01 -4.90430563E-16
  5.33542400E-02  5.72445131E-01  5.21623737E-01  5.15250144E-01 -9.89594301E-16
 -8.64246305E-03 -2.04664052E-02  4.58651770E-02 -1.76985075E-02  3.22036838E-17
 -2.24169571E-04 -5.27903621E-03 -1.16062562E-03 -7.08245796E-03  1.32450970E-17
 -9.13385378E-06  3.03064580E-04  1.45548463E-03  4.61022675E-04 -8.85458748E-19
  1.59920449E-04  1.05607023E-02  3.92274423E-03  1.75193184E-02 -3.43344020E-17
  1.49330241E+00  2.18453045E-04  7.20096988E-04  3.07513889E-03  8.07863056E-04
 -1.74102449E-18  3.67468347E-03 -9.93845514E-02  1.90211925E-01 -3.15238752E-02
  7.43801258E-17 -1.11724777E-01 -1.19845986E+00  1.10369859E+00 -8.51291550E-01
  1.74394218E-15 -1.37715980E-02 -2.71534488E-01  1.15380865E-01 -3.47563790E-01
  6.84597751E-16 -8.43003263E-05 -1.17747889E-02  1.14716351E-02 -1.80451378E-02
  3.60094077E-17  1.90981705E-05 -6.32988557E-04  1.97330730E-03 -7.59844535E-04
  1.55658472E-18 -4.08226103E-02 -3.12599029E+00  2.24169571E-04  5.27903621E-03
 -1.16062562E-03 -7.08245796E-03  1.32450970E-17  9.13385378E-06 -3.03064580E-04
  1.45548463E-03  4.61022675E-04 -8.85458748E-19 -1.59920449E-04 -1.05607023E-02
  3.92274423E-03  1.75193184E-02 -3.43344020E-17 -1.34612954E-02 -1.97612727E-01
  5.56946588E-04  2.47114221E-01 -4.90430563E-16 -5.33542400E-02 -5.72445131E-01
  5.21623737E-01  5.15250144E-01 -9.89594301E-16  8.64246305E-03  2.04664052E-02
  4.58651770E-02 -1.76985075E-02  3.22036838E-17  2.50251936E-20 -1.75911297E-03
 -1.49330241E+00  1.37715980E-02  2.71534488E-01  1.15380865E-01 -3.47563790E-01
  6.84597751E-16  8.43003263E-05  1.17747889E-02  1.14716351E-02 -1.80451378E-02
  3.60094077E-17 -1.90981705E-05  6.32988557E-04  1.97330730E-03 -7.59844535E-04
  1.55658472E-18 -2.18453045E-04 -7.20096988E-04  3.07513889E-03  8.07863056E-04
 -1.74102449E-18 -3.67468347E-03  9.93845514E-02  1.90211925E-01 -3.15238752E-02
  7.43801258E-17  1.11724777E-01  1.19845986E+00  1.10369859E+00 -8.51291550E-01
  1.74394218E-15  1.75911297E-03 -3.38813179E-21  4.08226103E-02  3.12599029E+00
  0.00000000E+00 -5.37393433E-07  2.16845810E-06  4.41097438E-07 -6.35886652E-22
  0.00000000E+00 -1.20423679E-05  3.80614028E-05  2.18329801E-05 -3.87205416E-20
  0.00000000E+00 -6.02479246E-03  1.12543790E-02  9.35630558E-03 -1.71240923E-17
 -2.54106925E-07 -1.40781812E-01  2.31715442E-01  4.69589659E-02 -6.77078539E-17
  0.00000000E+00 -5.97195831E-03  1.39049300E-02 -4.18674872E-03  9.63949671E-18
  0.00000000E+00 -1.19207539E-05  4.31500272E-05 -5.17763953E-06  1.46367331E-20
 -1.06172068E-06 -5.44597488E-03 -5.38624638E-03 -1.04785515E-06 -5.43458912E+00
  2.32988997E-07 -4.18096563E-04  1.06581953E-03  1.81614055E-04 -2.61815063E-19
  1.24078639E-06 -3.51502941E-03  6.90421525E-03  3.44196088E-03 -6.10427843E-18
 -2.19672518E-03 -1.67183604E-01  2.20387244E-01  1.58864938E-01 -2.90757697E-16
 -7.23903487E-02 -1.19658586E+00  1.49702117E+00  2.61528188E-01 -3.77084802E-16
 -1.19905720E-03 -1.45866174E-01  2.35052151E-01 -6.19154222E-02  1.42552980E-16
  3.27586861E-06 -2.81504229E-03  6.37765524E-03 -6.56388227E-04  1.85555198E-18
 -3.89218621E-04 -1.34106401E-01 -1.11751180E-01 -2.78267162E-04 -1.34974754E+00
 -5.43458912E+00  9.44382576E-07 -7.37027090E-04  1.83462029E-03  3.24524043E-04
 -4.67834291E-19  4.05890767E-06 -5.21945657E-03  9.57616844E-03  5.26845325E-03
 -9.34354185E-18 -4.01358518E-03 -1.68878987E-01  1.79965022E-01  1.78126058E-01
 -3.26009773E-16 -1.18538110E-01 -1.14527881E+00  1.18249716E+00  3.27980633E-01
 -4.72899357E-16 -2.71094879E-03 -1.88697364E-01  2.77454086E-01 -8.86994659E-02
  2.04220092E-16  1.19724104E-05 -4.74591473E-03  1.03587264E-02 -1.13995189E-03
  3.22254406E-18 -5.28211457E-04 -6.59167846E-02 -1.03659837E-01 -4.58591871E-04
  7.18554879E-02  8.38743577E-01 -5.43458912E+00  1.91373107E-07 -1.86185689E-04
  4.78975572E-04 -5.26783937E-05 -1.18155378E-19  2.25825430E-06 -3.53745493E-03
  7.10432335E-03  2.39144472E-03 -6.31612158E-18 -3.40831820E-03 -1.66577075E-01
  2.36486855E-01  1.05318981E-01 -3.17207084E-16 -2.45312443E-02 -2.77791341E-01
  4.23615949E-01 -5.81955493E-01 -1.10595982E-16  8.39073036E-04  6.62565244E-02
 -1.15032168E-01 -2.85132266E-02 -7.09397578E-17 -1.42476081E-06  6.82566231E-04
 -1.57939205E-03 -7.73292542E-04 -4.62666549E-19 -5.13013631E-04 -1.76780991E-01
  1.07267826E-01  1.60348082E-04  0.00000000E+00  0.00000000E+00  0.00000000E+00
 -5.43458912E+00 -2.75883725E-22  2.68405536E-19 -6.90491820E-19 -1.18155378E-19
 -1.34639596E-04 -4.00498829E-21  6.27363604E-18 -1.25994366E-17 -6.31612158E-18
 -1.16996612E-03  6.23797022E-18  3.04872600E-16 -4.32822839E-16 -3.17207084E-16
 -6.79974404E-02  3.53704106E-17  4.00533853E-16 -6.10791278E-16 -1.10595982E-16
 -6.58659637E-01 -1.93186702E-18 -1.52547858E-16  2.64848043E-16 -7.09397578E-17
 -5.93246838E-02  4.02767393E-21 -1.92955490E-18  4.46480287E-18 -4.62666549E-19
 -9.36957521E-04  9.36482178E-19  3.36494589E-16 -2.22966329E-16 -3.73074419E-19
  0.00000000E+00  0.00000000E+00  0.00000000E+00  0.00000000E+00 -5.43458912E+00
  0.00000000E+00 -1.76911349E-09  8.66781525E-09 -1.41439285E-10  1.18392226E-24
  0.00000000E+00 -6.36804337E-07  2.56705207E-06  5.79508737E-07 -8.64690833E-22
  0.00000000E+00 -1.42505023E-03  3.90860733E-03  9.22867402E-04 -1.39611353E-18
  0.00000000E+00 -8.80325476E-03  2.04734316E-02 -5.38200458E-03  1.26651871E-17
  0.00000000E+00 -2.40080794E-05  7.67633839E-05 -3.84343610E-05  8.31938074E-20
  0.00000000E+00 -1.08369390E-08  4.85883301E-08 -1.44426622E-08  3.33302789E-23
 -2.56883589E-07 -1.04241352E-02 -3.79823498E-05 -9.46711246E-10 -1.92401648E-05
 -3.17084201E-01  3.68591062E-01 -3.75330158E-01  7.72340230E-16 -7.18244858E+00
  5.50401518E-10 -2.81502765E-05  7.99801291E-05 -1.18853872E-06  9.94870296E-21
  4.07545240E-08 -8.69358484E-04  2.02697282E-03  4.21482411E-04 -6.28898158E-19
 -4.12307624E-04 -7.86371470E-02  1.36136466E-01  2.96041113E-02 -4.47850909E-17
 -3.53240312E-03 -2.40559184E-01  3.75202811E-01 -9.04730739E-02  2.12905506E-16
 -3.99488968E-06 -7.58523421E-03  1.43338770E-02 -6.61930845E-03  1.43279466E-17
  2.07906925E-09 -8.63684481E-05  2.23283673E-04 -6.08678827E-05  1.40468806E-19
 -1.98499221E-04 -2.09883853E-01 -5.37180219E-03 -5.71426098E-06 -2.47203985E-01
 -2.54090222E+00  2.09775069E+00 -1.84803893E+00  3.80282475E-15 -1.78385010E+00
 -7.18244858E+00  2.71039776E-09 -6.56924579E-05  1.80110643E-04 -2.78163814E-06
  2.32837948E-20  1.70450415E-07 -1.71921940E-03  3.80784056E-03  8.44844665E-04
 -1.26060125E-18 -1.11445718E-03 -1.18709151E-01  1.91316440E-01  4.80332171E-02
 -7.26646367E-17 -8.11121856E-03 -3.26374163E-01  4.62325814E-01 -1.35681359E-01
  3.19291774E-16 -1.25074423E-05 -1.22721496E-02  2.15037470E-02 -1.10605929E-02
  2.39414112E-17  9.41649581E-09 -1.86399611E-04  4.60696140E-04 -1.31984120E-04
  3.04588412E-19 -3.62305169E-04 -2.18932687E-01 -6.64967975E-03 -1.21043027E-05
 -2.84534062E-01 -1.54801727E+00  2.17717089E-01 -1.58159196E+00  3.25454023E-15
  7.18554879E-02  8.38743577E-01 -7.18244858E+00 -4.40445579E-11  1.19298683E-06
 -3.39751478E-06 -8.82132401E-06 -4.22794655E-22  3.73022977E-08 -4.26054993E-04
  1.00468737E-03 -7.04903477E-05 -3.12177462E-19 -2.66640477E-04 -3.07456748E-02
  5.65145911E-02 -1.70473283E-02 -1.87268588E-17  2.15790594E-03  9.45852556E-02
 -1.60133873E-01 -5.93943161E-02 -9.18102973E-17  6.38021362E-06  6.73710161E-03
 -1.30804379E-02  3.51871074E-03 -1.31161651E-17 -2.77546113E-09  6.11549259E-05
 -1.58719663E-04  1.59796251E-05 -9.99091250E-20 -1.75187111E-04 -1.73337203E-01
  6.74725628E-03  5.52732186E-06  2.95522759E-01  1.89668621E+00 -2.01833751E+00
  3.14139006E-01 -3.80443453E-15  0.00000000E+00  0.00000000E+00  0.00000000E+00
 -7.18244858E+00  3.68676441E-25 -9.98593600E-21  2.84390107E-20 -4.22794655E-22
 -8.87183389E-06 -5.56591347E-23  6.35720954E-19 -1.49910416E-18 -3.12177462E-19
 -2.79709134E-04  4.03373636E-19  4.65120478E-17 -8.54952568E-17 -1.87268588E-17
 -2.94262696E-02 -5.07808606E-18 -2.22582486E-16  3.76834584E-16 -9.18102973E-17
 -9.84086187E-02 -1.38104095E-20 -1.45829180E-17  2.83135039E-17 -1.31161651E-17
 -2.54077181E-03  6.40511372E-24 -1.41131234E-19  3.66287778E-19 -9.99091250E-20
 -2.73129541E-05  3.00490361E-19  3.13045162E-16 -1.39758824E-17 -1.22271571E-20
 -6.08115578E-16 -3.90292928E-15  4.15325873E-15 -3.80443453E-15 -1.53468222E+00
  0.00000000E+00  0.00000000E+00  0.00000000E+00  0.00000000E+00 -7.18244858E+00
  1.67919452E-07 -9.15146777E-05  2.34737921E-04  7.57052268E-05 -1.29632503E-19
  1.66375648E-07 -3.95529053E-04  7.47700619E-04  5.14102075E-04 -9.40894885E-19
 -1.31860893E-04 -1.91671676E-02  2.39597121E-02  2.46848387E-02 -4.61675715E-17
 -1.20014537E-02 -3.49632034E-01  4.20367459E-01  2.81957191E-01 -5.13707052E-16
 -1.16518780E-03 -1.03126731E-01  1.70968271E-01  1.82841930E-02 -2.03416166E-17
  6.89134414E-06 -1.58437508E-03  3.54630781E-03  4.26860021E-04 -5.38829920E-19
 -3.29553694E-05 -1.26232279E-02 -2.05139155E-01 -2.87208398E-04 -3.33788628E-01
 -2.76062520E+00  9.44985035E-01  2.56704973E+00 -4.95788034E-15 -4.12606637E-02
 -6.69923381E-01 -2.00015102E-01  8.15543748E-01 -1.62359028E-15 -5.90319098E+00
  2.49155820E-11 -1.20845950E-06  3.57525914E-06  7.01468498E-08  2.03575242E-22
  1.17682345E-09 -4.13373718E-05  1.03055228E-04  2.10628606E-05 -3.12277824E-20
 -1.15536373E-05 -5.76975997E-03  1.11222653E-02  2.34765974E-03 -3.51046699E-18
 -1.58233011E-04 -2.57637358E-02  4.62255142E-02 -5.16090015E-03  1.45870009E-17
 -2.85886262E-07 -7.86491460E-04  1.65184572E-03 -5.05948259E-04  1.14988107E-18
  1.51389832E-10 -5.52755775E-06  1.50788613E-05 -2.83088035E-06  6.98582322E-21
 -1.07698581E-05 -2.57101871E-02 -1.06505769E-03 -4.62219922E-07 -3.21945363E-02
 -7.36744987E-01  9.57834628E-01 -3.23012653E-01  7.24466568E-16 -4.46610969E-01
 -4.00872575E+00  4.09118532E+00  7.62301203E-01 -1.09845255E-15 -3.65227423E-01
 -9.21608439E+00  6.45249676E-08 -6.95676531E-05  1.80597870E-04 -3.44813676E-05
  8.28448668E-20  4.17547576E-06 -3.29418990E-03  6.86178741E-03 -1.62581111E-04
  9.36578697E-19 -2.55432571E-03 -1.45626153E-01  2.32071874E-01 -3.04309624E-02
  8.10793865E-17 -2.48006482E-03 -1.25306630E-01  1.65047583E-01 -1.13218224E-01
  2.36578071E-16 -3.67117401E-06 -2.90321789E-03  4.65410588E-03 -3.58757696E-03
  7.44077626E-18  2.82664689E-08 -7.43324837E-05  1.70517162E-04 -7.94902000E-05
  1.70523083E-19 -1.42596426E-03 -6.38790737E-01 -1.08848693E-03 -3.75316329E-06
 -3.16803363E-02 -6.15638415E-01  3.23835239E-01 -7.47551688E-01  1.48823120E-15
 -4.36930525E-01 -3.37138126E+00 -3.78045554E-01 -3.14127764E+00  6.06691740E-15
 -8.92302206E-02 -1.21232123E+00 -6.71384672E+00  2.54106925E-07  1.40781812E-01
  2.31715442E-01  4.69589659E-02 -6.77078539E-17  0.00000000E+00  5.97195831E-03
  1.39049300E-02 -4.18674872E-03  9.63949671E-18  0.00000000E+00  1.19207539E-05
  4.31500272E-05 -5.17763953E-06  1.46367331E-20  0.00000000E+00  5.37393433E-07
  2.16845810E-06  4.41097438E-07 -6.35886652E-22  0.00000000E+00  1.20423679E-05
  3.80614028E-05  2.18329801E-05 -3.87205416E-20  0.00000000E+00  6.02479246E-03
  1.12543790E-02  9.35630558E-03 -1.71240923E-17  5.38624638E-03  1.04785515E-06
  1.06172068E-06  5.44597488E-03  0.00000000E+00  3.78954580E-12  2.06457111E-11
  4.20240461E-12 -6.05846796E-27  0.00000000E+00  0.00000000E+00  0.00000000E+00
  0.00000000E+00  0.00000000E+00  1.81240717E-11  0.00000000E+00  1.00028461E-11
  5.43458912E+00  7.23903487E-02  1.19658586E+00  1.49702117E+00  2.61528188E-01
 -3.77084802E-16  1.19905720E-03  1.45866174E-01  2.35052151E-01 -6.19154222E-02
  1.42552980E-16 -3.27586861E-06  2.81504229E-03  6.37765524E-03 -6.56388227E-04
  1.85555198E-18 -2.32988997E-07  4.18096563E-04  1.06581953E-03  1.81614055E-04
 -2.61815063E-19 -1.24078639E-06  3.51502941E-03  6.90421525E-03  3.44196088E-03
 -6.10427843E-18  2.19672518E-03  1.67183604E-01  2.20387244E-01  1.58864938E-01
 -2.90757697E-16  1.11751180E-01  2.78267162E-04  3.89218621E-04  1.34106401E-01
 -3.78954580E-12  1.03397577E-25  3.32987586E-07 -3.27683405E-10  4.72410345E-25
  0.00000000E+00 -8.69410119E-09 -2.30552578E-08 -9.69625132E-10 -1.14108619E-24
  1.30740536E-07 -2.89692099E-10  3.28209887E-08  1.34974754E+00  5.43458912E+00
 -1.18538110E-01 -1.14527881E+00 -1.18249716E+00 -3.27980633E-01  4.72899357E-16
 -2.71094879E-03 -1.88697364E-01 -2.77454086E-01  8.86994659E-02 -2.04220092E-16
  1.19724104E-05 -4.74591473E-03 -1.03587264E-02  1.13995189E-03 -3.22254406E-18
  9.44382576E-07 -7.37027090E-04 -1.83462029E-03 -3.24524043E-04  4.67834291E-19
  4.05890767E-06 -5.21945657E-03 -9.57616844E-03 -5.26845325E-03  9.34354185E-18
 -4.01358518E-03 -1.68878987E-01 -1.79965022E-01 -1.78126058E-01  3.26009773E-16
 -1.03659837E-01 -4.58591871E-04 -5.28211457E-04 -6.59167846E-02  2.06457111E-11
  3.32987586E-07 -3.30872245E-24  1.96018379E-07 -2.82593224E-22  0.00000000E+00
  3.48589880E-08  9.37282921E-08  3.88784283E-09  4.57533907E-24 -1.78138260E-07
  1.18687646E-09  2.21166338E-08  7.18554879E-02  8.38743577E-01  5.43458912E+00
 -2.45312443E-02 -2.77791341E-01 -4.23615949E-01  5.81955493E-01  1.10595982E-16
  8.39073036E-04  6.62565244E-02  1.15032168E-01  2.85132266E-02  7.09397578E-17
 -1.42476081E-06  6.82566231E-04  1.57939205E-03  7.73292542E-04  4.62666549E-19
  1.91373107E-07 -1.86185689E-04 -4.78975572E-04  5.26783937E-05  1.18155378E-19
  2.25825430E-06 -3.53745493E-03 -7.10432335E-03 -2.39144472E-03  6.31612158E-18
 -3.40831820E-03 -1.66577075E-01 -2.36486855E-01 -1.05318981E-01  3.17207084E-16
  1.07267826E-01  1.60348082E-04 -5.13013631E-04 -1.76780991E-01  4.20240461E-12
 -3.27683405E-10 -1.96018379E-07  1.55096365E-25  3.67341985E-40  0.00000000E+00
  9.69299158E-10  2.57054636E-09 -2.61726988E-09  1.27228453E-25 -1.27422976E-07
  5.52439891E-11  1.22048319E-08  0.00000000E+00  0.00000000E+00  0.00000000E+00
  5.43458912E+00  3.53704106E-17  4.00533853E-16  6.10791278E-16  1.10595982E-16
  6.58659637E-01 -1.93186702E-18 -1.52547858E-16 -2.64848043E-16  7.09397578E-17
  5.93246838E-02  4.02767393E-21 -1.92955490E-18 -4.46480287E-18  4.62666549E-19
  9.36957521E-04 -2.75883725E-22  2.68405536E-19  6.90491820E-19  1.18155378E-19
  1.34639596E-04 -4.00498829E-21  6.27363604E-18  1.25994366E-17  6.31612158E-18
  1.16996612E-03  6.23797022E-18  3.04872600E-16  4.32822839E-16  3.17207084E-16
  6.79974404E-02 -2.22966329E-16 -3.73074419E-19  9.36482178E-19  3.36494589E-16
 -6.05846796E-27  4.72410345E-25  2.82593224E-22 -3.67341985E-40  1.03397577E-25
  0.00000000E+00  1.14070257E-24  3.02510201E-24  1.27228453E-25 -2.72538083E-09
  2.13458613E-22 -6.60165271E-27 -3.35905313E-23  0.00000000E+00  0.00000000E+00
  0.00000000E+00  0.00000000E+00  5.43458912E+00  0.00000000E+00  8.80325476E-03
  2.04734316E-02 -5.38200458E-03  1.26651871E-17  0.00000000E+00  2.40080794E-05
  7.67633839E-05 -3.84343610E-05  8.31938074E-20  0.00000000E+00  1.08369390E-08
  4.85883301E-08 -1.44426622E-08  3.33302789E-23  0.00000000E+00  1.76911349E-09
  8.66781525E-09 -1.41439285E-10  1.18392226E-24  0.00000000E+00  6.36804337E-07
  2.56705207E-06  5.79508737E-07 -8.64690833E-22  0.00000000E+00  1.42505023E-03
  3.90860733E-03  9.22867402E-04 -1.39611353E-18  3.79823498E-05  9.46711246E-10
  2.56883589E-07  1.04241352E-02  0.00000000E+00  0.00000000E+00  0.00000000E+00
  0.00000000E+00  0.00000000E+00  0.00000000E+00  0.00000000E+00  0.00000000E+00
  0.00000000E+00  0.00000000E+00  1.67074322E-13  0.00000000E+00  0.00000000E+00
  1.92401648E-05  3.17084201E-01  3.68591062E-01 -3.75330158E-01  7.72340230E-16
  7.18244858E+00  3.53240312E-03  2.40559184E-01  3.75202811E-01 -9.04730739E-02
  2.12905506E-16  3.99488968E-06  7.58523421E-03  1.43338770E-02 -6.61930845E-03
  1.43279466E-17 -2.07906925E-09  8.63684481E-05  2.23283673E-04 -6.08678827E-05
  1.40468806E-19 -5.50401518E-10  2.81502765E-05  7.99801291E-05 -1.18853872E-06
  9.94870296E-21 -4.07545240E-08  8.69358484E-04  2.02697282E-03  4.21482411E-04
 -6.28898158E-19  4.12307624E-04  7.86371470E-02  1.36136466E-01  2.96041113E-02
 -4.47850909E-17  5.37180219E-03  5.71426098E-06  1.98499221E-04  2.09883853E-01
  0.00000000E+00  8.69410119E-09  3.48589880E-08  9.69299158E-10  1.14070257E-24
  0.00000000E+00  0.00000000E+00  2.58514806E-11  0.00000000E+00  0.00000000E+00
  1.94068365E-08  1.80199322E-13  1.07722186E-09  2.47203985E-01  2.54090222E+00
  2.09775069E+00 -1.84803893E+00  3.80282475E-15  1.78385010E+00  7.18244858E+00
 -8.11121856E-03 -3.26374163E-01 -4.62325814E-01  1.35681359E-01 -3.19291774E-16
 -1.25074423E-05 -1.22721496E-02 -2.15037470E-02  1.10605929E-02 -2.39414112E-17
  9.41649581E-09 -1.86399611E-04 -4.60696140E-04  1.31984120E-04 -3.04588412E-19
  2.71039776E-09 -6.56924579E-05 -1.80110643E-04  2.78163814E-06 -2.32837948E-20
  1.70450415E-07 -1.71921940E-03 -3.80784056E-03 -8.44844665E-04  1.26060125E-18
 -1.11445718E-03 -1.18709151E-01 -1.91316440E-01 -4.80332171E-02  7.26646367E-17
 -6.64967975E-03 -1.21043027E-05 -3.62305169E-04 -2.18932687E-01  0.00000000E+00
 -2.30552578E-08 -9.37282921E-08 -2.57054636E-09 -3.02510201E-24  0.00000000E+00
  2.58514806E-11  0.00000000E+00 -9.36809216E-12  2.86005531E-26 -4.94147078E-08
  5.03900018E-13 -2.79929900E-09 -2.84534062E-01 -1.54801727E+00 -2.17717089E-01
  1.58159196E+00 -3.25454023E-15  7.18554879E-02  8.38743577E-01  7.18244858E+00
  2.15790594E-03  9.45852556E-02  1.60133873E-01  5.93943161E-02  9.18102973E-17
  6.38021362E-06  6.73710161E-03  1.30804379E-02 -3.51871074E-03  1.31161651E-17
 -2.77546113E-09  6.11549259E-05  1.58719663E-04 -1.59796251E-05  9.99091250E-20
 -4.40445579E-11  1.19298683E-06  3.39751478E-06  8.82132401E-06  4.22794655E-22
  3.73022977E-08 -4.26054993E-04 -1.00468737E-03  7.04903477E-05  3.12177462E-19
 -2.66640477E-04 -3.07456748E-02 -5.65145911E-02  1.70473283E-02  1.87268588E-17
  6.74725628E-03  5.52732186E-06 -1.75187111E-04 -1.73337203E-01  0.00000000E+00
 -9.69625132E-10 -3.88784283E-09  2.61726988E-09 -1.27228453E-25  0.00000000E+00
  0.00000000E+00  9.36809216E-12  0.00000000E+00  0.00000000E+00 -1.08247902E-08
  3.93631568E-14  8.33858521E-10  2.95522759E-01  1.89668621E+00  2.01833751E+00
 -3.14139006E-01  3.80443453E-15  0.00000000E+00  0.00000000E+00  0.00000000E+00
  7.18244858E+00 -5.07808606E-18 -2.22582486E-16 -3.76834584E-16  9.18102973E-17
  9.84086187E-02 -1.38104095E-20 -1.45829180E-17 -2.83135039E-17  1.31161651E-17
  2.54077181E-03  6.40511372E-24 -1.41131234E-19 -3.66287778E-19  9.99091250E-20
  2.73129541E-05  3.68676441E-25 -9.98593600E-21 -2.84390107E-20  4.22794655E-22
  8.87183389E-06 -5.56591347E-23  6.35720954E-19  1.49910416E-18  3.12177462E-19
  2.79709134E-04  4.03373636E-19  4.65120478E-17  8.54952568E-17  1.87268588E-17
  2.94262696E-02 -1.39758824E-17 -1.22271571E-20  3.00490361E-19  3.13045162E-16
  0.00000000E+00 -1.14108619E-24 -4.57533907E-24 -1.27228453E-25  2.72538083E-09
  0.00000000E+00  0.00000000E+00 -2.86005531E-26  0.00000000E+00  0.00000000E+00
  1.50919334E-23 -1.47606131E-28 -1.98871959E-24 -6.08115578E-16 -3.90292928E-15
 -4.15325873E-15  3.80443453E-15  1.53468222E+00  0.00000000E+00  0.00000000E+00
  0.00000000E+00  0.00000000E+00  7.18244858E+00  1.20014537E-02  3.49632034E-01
  4.20367459E-01  2.81957191E-01 -5.13707052E-16  1.16518780E-03  1.03126731E-01
  1.70968271E-01  1.82841930E-02 -2.03416166E-17 -6.89134414E-06  1.58437508E-03
  3.54630781E-03  4.26860021E-04 -5.38829920E-19 -1.67919452E-07  9.15146777E-05
  2.34737921E-04  7.57052268E-05 -1.29632503E-19 -1.66375648E-07  3.95529053E-04
  7.47700619E-04  5.14102075E-04 -9.40894885E-19  1.31860893E-04  1.91671676E-02
  2.39597121E-02  2.46848387E-02 -4.61675715E-17  2.05139155E-01  2.87208398E-04
  3.29553694E-05  1.26232279E-02 -1.81240717E-11 -1.30740536E-07 -1.78138260E-07
 -1.27422976E-07  2.13458613E-22 -1.67074322E-13 -1.94068365E-08 -4.94147078E-08
 -1.08247902E-08  1.50919334E-23  1.03397577E-25 -6.82144569E-10 -1.14997694E-07
  3.33788628E-01  2.76062520E+00  9.44985035E-01  2.56704973E+00 -4.95788034E-15
  4.12606637E-02  6.69923381E-01 -2.00015102E-01  8.15543748E-01 -1.62359028E-15
  5.90319098E+00  1.58233011E-04  2.57637358E-02  4.62255142E-02 -5.16090015E-03
  1.45870009E-17  2.85886262E-07  7.86491460E-04  1.65184572E-03 -5.05948259E-04
  1.14988107E-18 -1.51389832E-10  5.52755775E-06  1.50788613E-05 -2.83088035E-06
  6.98582322E-21 -2.49155820E-11  1.20845950E-06  3.57525914E-06  7.01468498E-08
  2.03575242E-22 -1.17682345E-09  4.13373718E-05  1.03055228E-04  2.10628606E-05
 -3.12277824E-20  1.15536373E-05  5.76975997E-03  1.11222653E-02  2.34765974E-03
 -3.51046699E-18  1.06505769E-03  4.62219922E-07  1.07698581E-05  2.57101871E-02
  0.00000000E+00  2.89692099E-10  1.18687646E-09  5.52439891E-11 -6.60165271E-27
  0.00000000E+00 -1.80199322E-13  5.03900018E-13  3.93631568E-14 -1.47606131E-28
  6.82144569E-10  0.00000000E+00  5.79470070E-11  3.21945363E-02  7.36744987E-01
  9.57834628E-01 -3.23012653E-01  7.24466568E-16  4.46610969E-01  4.00872575E+00
  4.09118532E+00  7.62301203E-01 -1.09845255E-15  3.65227423E-01  9.21608439E+00
  2.48006482E-03  1.25306630E-01  1.65047583E-01 -1.13218224E-01  2.36578071E-16
  3.67117401E-06  2.90321789E-03  4.65410588E-03 -3.58757696E-03  7.44077626E-18
 -2.82664689E-08  7.43324837E-05  1.70517162E-04 -7.94902000E-05  1.70523083E-19
 -6.45249676E-08  6.95676531E-05  1.80597870E-04 -3.44813676E-05  8.28448668E-20
 -4.17547576E-06  3.29418990E-03  6.86178741E-03 -1.62581111E-04  9.36578697E-19
  2.55432571E-03  1.45626153E-01  2.32071874E-01 -3.04309624E-02  8.10793865E-17
  1.08848693E-03  3.75316329E-06  1.42596426E-03  6.38790737E-01 -1.00028461E-11
 -3.28209887E-08  2.21166338E-08  1.22048319E-08 -3.35905313E-23  0.00000000E+00
 -1.07722186E-09 -2.79929900E-09  8.33858521E-10 -1.98871959E-24  1.14997694E-07
 -5.79470070E-11  2.01948392E-27  3.16803363E-02  6.15638415E-01  3.23835239E-01
 -7.47551688E-01  1.48823120E-15  4.36930525E-01  3.37138126E+00 -3.78045554E-01
 -3.14127764E+00  6.06691740E-15  8.92302206E-02  1.21232123E+00  6.71384672E+00
Multipole Matrix (0,1,0)                   R   N=        1830
  5.26797819E-01  1.30836766E-01  5.26797819E-01  0.00000000E+00  0.00000000E+00
  5.26797819E-01  7.18554879E-02  8.38743577E-01  0.00000000E+00  5.26797819E-01
  0.00000000E+00  0.00000000E+00  0.00000000E+00  0.00000000E+00  5.26797819E-01
  1.40529174E-06  9.10235096E-02 -9.88293163E-02  1.14119690E-01 -2.28527690E-16
  2.50022004E+00  2.38467000E-02  5.55565792E-01 -3.67951860E-01  6.85149550E-01
 -8.50832442E-16  6.20960626E-01  2.50022004E+00  2.74578579E-02  4.14175877E-01
 -3.61271396E-02  5.95775892E-01 -8.35647615E-16  0.00000000E+00  0.00000000E+00
  2.50022004E+00 -2.84283990E-02 -1.97686056E-01  2.20059024E-01 -1.35183610E-01
  5.08852860E-16  7.18554879E-02  8.38743577E-01  0.00000000E+00  2.50022004E+00
  6.34920999E-17  9.57718416E-16 -8.35647615E-16  1.37764070E-15  3.25257875E-01
  0.00000000E+00  0.00000000E+00  0.00000000E+00  0.00000000E+00  2.50022004E+00
  0.00000000E+00  3.51280937E-03 -7.67247349E-03  2.66419260E-03 -5.81672566E-18
  2.09332225E-06  7.59986114E-02 -1.23944861E-01 -2.27158292E-02  3.64490689E-17
  1.97341116E+00  1.09401485E-03  7.66012128E-02 -1.03717504E-01  7.50689085E-02
 -7.86312609E-17  9.39504825E-02  8.21574410E-01 -8.63450436E-01  9.38585178E-02
  2.53919075E-16  4.90121113E-01  1.97341116E+00  2.38741533E-03  1.10049178E-01
 -1.32588576E-01  1.10571909E-01 -1.24839911E-16  1.52125246E-01  8.45206203E-01
 -6.85368885E-01  3.97586368E-02  3.43025912E-16  0.00000000E+00  0.00000000E+00
  1.97341116E+00 -6.96145649E-04  3.66371020E-03 -5.62438119E-04  1.37064077E-02
 -4.26400722E-19  3.36015731E-02  4.42418905E-01 -5.15665798E-01  4.32547112E-01
  1.51644353E-16  7.18554879E-02  8.38743577E-01  0.00000000E+00  1.97341116E+00
  1.80996911E-18  8.34314877E-17 -1.24839911E-16  8.38277849E-17  3.20798230E-02
 -4.47362121E-17 -2.48553905E-16  3.43025912E-16 -1.16920160E-17  4.81088867E-01
  0.00000000E+00  0.00000000E+00  0.00000000E+00  0.00000000E+00  1.97341116E+00
  0.00000000E+00 -2.01683197E-04  5.24759722E-04  1.30525330E-04 -1.54276559E-19
  0.00000000E+00 -7.13454218E-04  1.23203733E-03  1.19272313E-03 -2.00493734E-18
  6.74687299E-07 -1.51152072E-02  7.18654800E-03  2.40839003E-02 -4.13259872E-17
 -5.26797819E-01  2.01683197E-04  0.00000000E+00 -8.05640677E-04  1.67025836E-02
  2.36854061E-19  4.35420187E-03  6.05055965E-02 -7.18584434E-02 -2.31934514E-02
  1.16937753E-16  7.00461429E-02  2.65600168E-01 -1.03297951E-01 -3.93542081E-02
  5.94011173E-16 -1.30836766E-01 -5.26797819E-01  5.24759722E-04 -8.05640677E-04
 -8.67361738E-19  2.63135807E-02  0.00000000E+00  7.50581796E-03  6.13923745E-02
 -5.56655822E-02 -2.78660876E-02  1.31825178E-16  3.60367254E-02  7.53104054E-02
  1.16090732E-01 -2.82655839E-02  2.26704993E-16  0.00000000E+00  0.00000000E+00
 -5.26797819E-01  1.30525330E-04  1.67025836E-02 -2.63135807E-02  0.00000000E+00
  7.73605234E-18  6.74966763E-03  9.48322566E-02 -1.15635978E-01 -3.82116205E-02
  1.88178463E-16  1.10462675E-01  4.95407531E-01 -2.07807638E-01 -1.97892606E-01
  1.19499039E-15  7.18554879E-02  8.38743577E-01  0.00000000E+00 -5.26797819E-01
 -1.54276559E-19  2.36854061E-19  5.77778983E-34 -7.73605234E-18  5.42101086E-20
 -1.22144795E-17 -9.99059535E-17  1.31825178E-16  4.53474567E-17  2.53412086E-02
 -2.07227901E-16 -4.33069792E-16  2.26704993E-16  1.62540229E-16  1.55514504E-01
  0.00000000E+00  0.00000000E+00  0.00000000E+00  0.00000000E+00 -5.26797819E-01
  0.00000000E+00 -4.35420187E-03  7.50581796E-03  6.74966763E-03 -1.22144795E-17
  0.00000000E+00 -9.58221166E-04  8.05609511E-04  2.43690943E-03 -4.63527798E-18
  0.00000000E+00 -4.22596840E-03 -1.94703279E-03  9.63907279E-03 -1.88567473E-17
 -1.40529174E-06 -9.10235096E-02 -9.88293163E-02  1.14119690E-01 -2.28527690E-16
 -2.50022004E+00  7.13454218E-04 -6.05055965E-02  6.13923745E-02  9.48322566E-02
 -9.99059535E-17  9.58221166E-04 -4.33680869E-19 -1.23659119E-03  1.31728577E-02
  7.11504002E-18  3.25514958E-03 -1.61416187E-02 -2.68475025E-03  5.35786785E-02
 -2.60014404E-17 -2.38467000E-02 -5.55565792E-01 -3.67951860E-01  6.85149550E-01
 -8.50832442E-16 -6.20960626E-01 -2.50022004E+00  1.23203733E-03 -7.18584434E-02
  5.56655822E-02  1.15635978E-01 -1.31825178E-16  8.05609511E-04 -1.23659119E-03
  0.00000000E+00  8.50804914E-03  6.16297582E-33 -1.49998315E-03  6.81429539E-03
 -5.21695930E-03 -1.92775674E-02  1.49442285E-17  2.74578579E-02  4.14175877E-01
  3.61271396E-02 -5.95775892E-01  8.35647615E-16  0.00000000E+00  0.00000000E+00
 -2.50022004E+00  1.19272313E-03 -2.31934514E-02  2.78660876E-02  3.82116205E-02
 -4.53474567E-17  2.43690943E-03  1.31728577E-02 -8.50804914E-03  0.00000000E+00
  4.89532115E-17  7.44915691E-03  7.04668562E-03  4.16000888E-03  3.02674012E-02
  4.02891193E-17 -2.84283990E-02 -1.97686056E-01 -2.20059024E-01  1.35183610E-01
 -5.08852860E-16  7.18554879E-02  8.38743577E-01  0.00000000E+00 -2.50022004E+00
 -2.00493734E-18  1.16937753E-16 -1.31825178E-16 -1.88178463E-16 -2.53412086E-02
 -4.63527798E-18  7.11504002E-18 -3.08148791E-33 -4.89532115E-17  0.00000000E+00
 -1.45271324E-17  6.59955225E-17  1.49442285E-17 -1.86700614E-16 -6.76000925E-03
  6.34920999E-17  9.57718416E-16  8.35647615E-16 -1.37764070E-15 -3.25257875E-01
  0.00000000E+00  0.00000000E+00  0.00000000E+00  0.00000000E+00 -2.50022004E+00
 -6.74687299E-07 -7.00461429E-02  3.60367254E-02  1.10462675E-01 -2.07227901E-16
  0.00000000E+00 -3.25514958E-03 -1.49998315E-03  7.44915691E-03 -1.45271324E-17
  0.00000000E+00 -7.55257309E-04 -1.32978029E-03  1.52488526E-03 -3.07567827E-18
  0.00000000E+00 -3.51280937E-03 -7.67247349E-03  2.66419260E-03 -5.81672566E-18
 -2.09332225E-06 -7.59986114E-02 -1.23944861E-01 -2.27158292E-02  3.64490689E-17
 -1.97341116E+00  1.51152072E-02 -2.65600168E-01  7.53104054E-02  4.95407531E-01
 -4.33069792E-16  4.22596840E-03  1.61416187E-02  6.81429539E-03  7.04668562E-03
  6.59955225E-17  7.55257309E-04  4.33680869E-19  2.04167344E-03  1.45583795E-02
  4.72223167E-18 -1.09401485E-03 -7.66012128E-02 -1.03717504E-01  7.50689085E-02
 -7.86312609E-17 -9.39504825E-02 -8.21574410E-01 -8.63450436E-01  9.38585178E-02
  2.53919075E-16 -4.90121113E-01 -1.97341116E+00  7.18654800E-03 -1.03297951E-01
 -1.16090732E-01  2.07807638E-01 -2.26704993E-16 -1.94703279E-03 -2.68475025E-03
  5.21695930E-03 -4.16000888E-03 -1.49442285E-17 -1.32978029E-03  2.04167344E-03
 -3.46944695E-18 -1.78026033E-02 -3.08148791E-33  2.38741533E-03  1.10049178E-01
  1.32588576E-01 -1.10571909E-01  1.24839911E-16  1.52125246E-01  8.45206203E-01
  6.85368885E-01 -3.97586368E-02 -3.43025912E-16  0.00000000E+00  0.00000000E+00
 -1.97341116E+00  2.40839003E-02 -3.93542081E-02  2.82655839E-02  1.97892606E-01
 -1.62540229E-16  9.63907279E-03  5.35786785E-02  1.92775674E-02 -3.02674012E-02
  1.86700614E-16  1.52488526E-03  1.45583795E-02  1.78026033E-02  2.60208521E-18
  4.11760350E-17 -6.96145649E-04  3.66371020E-03  5.62438119E-04 -1.37064077E-02
  4.26400722E-19  3.36015731E-02  4.42418905E-01  5.15665798E-01 -4.32547112E-01
 -1.51644353E-16  7.18554879E-02  8.38743577E-01  0.00000000E+00 -1.97341116E+00
 -4.13259872E-17  5.94011173E-16 -2.26704993E-16 -1.19499039E-15 -1.55514504E-01
 -1.88567473E-17 -2.60014404E-17 -1.49442285E-17 -4.02891193E-17  6.76000925E-03
 -3.07567827E-18  4.72223167E-18  0.00000000E+00 -4.11760350E-17  2.16840434E-19
  1.80996911E-18  8.34314877E-17  1.24839911E-16 -8.38277849E-17 -3.20798230E-02
 -4.47362121E-17 -2.48553905E-16 -3.43025912E-16  1.16920160E-17 -4.81088867E-01
  0.00000000E+00  0.00000000E+00  0.00000000E+00  0.00000000E+00 -1.97341116E+00
  3.52527437E-03  2.28776380E-01 -7.79471258E-02  3.50986593E-01 -5.59993899E-16
  1.59825459E-01  1.71427366E+00  5.15701792E-01  1.89242193E+00 -2.96350940E-15
  1.09103736E-02  3.01668462E-01  3.07416394E-01  3.05733135E-01 -4.31058806E-16
 -3.19419119E-05  1.05562831E-02  1.07612236E-02  1.78102212E-02 -2.46754164E-17
 -2.73636184E-05  9.05978026E-04  4.60107643E-04  2.67941609E-03 -2.64640870E-18
 -1.60204302E-04  5.26335091E-03 -3.20235423E-04  1.27225119E-02 -1.58896934E-17
  4.47110415E+00  5.83130500E-05  1.17685902E-02 -1.70179814E-02  1.35602570E-02
 -1.92855473E-17  1.34215924E-02  2.85544122E-01 -3.56581298E-01  1.61430357E-01
 -2.18498181E-16  1.26141028E-01  1.35296685E+00 -8.51538219E-01  1.31044975E+00
 -1.96877771E-15 -2.02879132E-03  1.33131860E-01 -2.24267233E-02  2.36312895E-01
 -3.29875545E-16 -2.09936156E-04  7.06025105E-04 -2.12483008E-04  5.17243916E-03
 -1.11564383E-18 -2.15631727E-05  7.14178636E-04 -7.59345275E-04  2.15748301E-03
 -1.75611388E-18  2.00023730E-01  3.52878408E+00  3.19419119E-05 -1.05562831E-02
  1.07612236E-02  1.78102212E-02 -2.46754164E-17  2.73636184E-05 -9.05978026E-04
  4.60107643E-04  2.67941609E-03 -2.64640870E-18  1.60204302E-04 -5.26335091E-03
 -3.20235423E-04  1.27225119E-02 -1.58896934E-17 -3.52527437E-03 -2.28776380E-01
 -7.79471258E-02  3.50986593E-01 -5.59993899E-16 -1.59825459E-01 -1.71427366E+00
  5.15701792E-01  1.89242193E+00 -2.96350940E-15 -1.09103736E-02 -3.01668462E-01
  3.07416394E-01  3.05733135E-01 -4.31058806E-16  9.92537416E-20 -3.58853088E-04
 -4.47110415E+00  2.02879132E-03 -1.33131860E-01 -2.24267233E-02  2.36312895E-01
 -3.29875545E-16  2.09936156E-04 -7.06025105E-04 -2.12483008E-04  5.17243916E-03
 -1.11564383E-18  2.15631727E-05 -7.14178636E-04 -7.59345275E-04  2.15748301E-03
 -1.75611388E-18 -5.83130500E-05 -1.17685902E-02 -1.70179814E-02  1.35602570E-02
 -1.92855473E-17 -1.34215924E-02 -2.85544122E-01 -3.56581298E-01  1.61430357E-01
 -2.18498181E-16 -1.26141028E-01 -1.35296685E+00 -8.51538219E-01  1.31044975E+00
 -1.96877771E-15  3.58853088E-04  4.65868121E-21 -2.00023730E-01 -3.52878408E+00
  0.00000000E+00 -1.09649051E-07  4.41158226E-07  9.63285932E-08 -1.29745468E-22
  0.00000000E+00 -2.18987356E-06  6.90323258E-06  4.11026926E-06 -7.04799863E-21
  0.00000000E+00 -1.10539220E-03  2.05508417E-03  1.78128890E-03 -3.14455839E-18
 -5.18404956E-08 -2.87243724E-02  4.69415721E-02  1.12295906E-02 -1.38147229E-17
  0.00000000E+00 -1.34229085E-03  3.10891812E-03 -8.77245465E-04  2.16506287E-18
  0.00000000E+00 -2.69911774E-06  9.73166209E-06 -1.03541829E-06  3.31147116E-21
 -1.84705194E-07 -9.61289066E-04 -1.24884658E-03 -2.45685955E-07 -1.10885517E+00
  4.75170984E-08 -8.53376387E-05  1.81703585E-04  2.12670073E-04 -5.34393680E-20
  5.45703890E-06  1.06319452E-03 -1.88127670E-03 -1.57703903E-04  1.92072850E-18
  2.09502392E-03  2.01240458E-02 -2.72842375E-02  7.55572701E-03  4.17485956E-17
 -1.47649991E-02 -2.44116148E-01  2.61396970E-01  2.69064095E-01 -7.69281164E-17
 -2.78595510E-03 -8.39729662E-02  1.24143667E-01 -7.19640502E-03  8.64541409E-17
 -4.52834932E-06 -2.35348704E-03  4.66296190E-03  3.63324086E-04  1.58670366E-18
  2.03170357E-04  2.96530155E-02 -7.98071366E-02 -3.39157034E-04 -2.75397922E-01
 -1.10885517E+00  1.91312319E-07 -1.86275219E-04  3.74464125E-04  4.60539182E-04
 -1.18212901E-19  1.71880018E-05  1.78578265E-03 -2.89651340E-03 -2.76693874E-04
  3.31855749E-18  3.89290321E-03  1.95721007E-02 -2.16625571E-02  9.94945587E-03
  4.56706935E-17 -2.45138505E-02 -2.77660123E-01  2.41241905E-01  3.10940919E-01
 -1.10542165E-16 -6.45659380E-03 -1.19802565E-01  1.59726151E-01 -1.51133228E-02
  1.35017741E-16 -1.63340624E-05 -4.63678389E-03  8.66030618E-03  6.88618625E-04
  3.21346351E-18  3.23068374E-04  1.86366768E-02 -8.81151570E-02 -6.75119965E-04
  0.00000000E+00  0.00000000E+00 -1.10885517E+00  4.53573903E-08  1.37598512E-04
 -2.96536973E-04 -1.07521805E-05  8.72120845E-20  1.00310565E-05  1.95336709E-03
 -3.46571244E-03 -7.23342716E-04  3.53839108E-18  3.31777853E-03  4.67294846E-02
 -5.98567976E-02 -1.26773437E-02  9.15890444E-17 -3.35516703E-03  1.59037217E-01
 -1.57607281E-01 -1.18725065E-01  4.63832126E-17  2.01604465E-03  6.65902599E-02
 -1.02171920E-01 -1.64146364E-02 -7.11529288E-17  2.10213721E-06  1.48274313E-03
 -2.96209804E-03 -6.46503244E-04 -1.00793699E-18  3.68939421E-04  5.95224800E-02
  9.72510126E-02  2.99489659E-04  7.18554879E-02  8.38743577E-01  0.00000000E+00
 -1.10885517E+00 -5.62653148E-23  5.47838941E-20 -1.18212901E-19 -1.35445444E-19
 -2.74812716E-05 -1.75484474E-20 -1.82323187E-18  3.31855749E-18  2.82496356E-19
  3.53880843E-04 -5.95667158E-18 -2.99479770E-17  4.56706935E-17 -1.52240212E-17
  8.18491511E-03  7.21433130E-18  8.17142993E-17 -1.10542165E-16 -9.15087086E-17
 -1.34373520E-01 -4.49639746E-18 -8.34309802E-17  1.35017741E-16 -1.05249778E-17
 -3.41523296E-02 -5.55812318E-21 -1.57779586E-18  3.21346351E-18  2.34321814E-19
 -7.83333659E-04 -4.75001534E-19 -7.12622427E-17 -1.56247207E-16 -4.44029782E-19
  0.00000000E+00  0.00000000E+00  0.00000000E+00  0.00000000E+00 -1.10885517E+00
  0.00000000E+00  1.79693030E-10 -8.78450241E-10  3.06520573E-11 -1.20211968E-25
  0.00000000E+00  7.29652158E-08 -2.93149818E-07 -6.07512521E-08  9.89599147E-23
  0.00000000E+00  1.53712092E-04 -4.19938098E-04 -8.79305957E-05  1.50440676E-19
  0.00000000E+00  7.95993567E-04 -1.84570713E-03  5.56496979E-04 -1.14568083E-18
  0.00000000E+00  1.85568844E-06 -5.92877120E-06  3.17825514E-06 -6.44237129E-21
  0.00000000E+00  8.86523072E-10 -3.97093632E-09  1.28080397E-09 -2.72946412E-24
  3.10727293E-08  1.16501035E-03  2.71007111E-06  7.29641785E-11 -6.44145881E-07
  2.64425215E-02 -2.89706365E-02  3.29362737E-02 -6.12328052E-17  6.86446481E-01
  1.41772483E-10  7.42533371E-06 -1.92101551E-05  7.59393285E-06 -2.62882340E-21
  2.26255929E-07  4.36423996E-04 -9.42593544E-04 -4.92697577E-05  3.18195581E-19
  3.93538857E-04  2.34218137E-02 -3.85232430E-02  2.00130179E-03  1.38007548E-17
 -5.94324297E-04  3.93277728E-03 -3.67876810E-03  3.31795626E-02 -2.28351184E-18
 -8.19107176E-06 -1.71608111E-03  3.06856631E-03 -3.92255669E-04  3.33439137E-18
 -2.96046719E-09 -2.04528429E-05  4.86519066E-05  4.43308580E-06  3.34413909E-20
  1.32876737E-04  7.75489747E-02 -1.72536083E-03 -2.35855160E-06 -4.53344549E-02
 -8.50674470E-02  8.53523880E-02  2.10878466E-01  1.80402186E-16  1.70487489E-01
  6.86446481E-01  6.92966398E-10  1.92146032E-05 -4.75086497E-05  1.96508503E-05
 -6.82158648E-21  9.09960853E-07  9.38020962E-04 -1.91156240E-03 -1.10979335E-04
  6.92695638E-19  1.07616502E-03  3.73816795E-02 -5.69829678E-02  2.33800179E-03
  2.35537001E-17 -1.37839151E-03  7.79094982E-03 -7.55832485E-03  4.87691826E-02
 -5.69030432E-18 -2.61253761E-05 -2.95077315E-03  4.86500128E-03 -7.19059887E-04
  5.91106816E-18 -1.32471870E-08 -4.83648634E-05  1.09097083E-04  1.04607185E-05
  7.94348262E-20  2.65682453E-04  8.98802502E-02 -2.31512716E-03 -5.54525322E-06
 -5.08367621E-02 -3.67051120E-02  7.28900026E-03  1.52340679E-01  1.24003699E-16
  0.00000000E+00  0.00000000E+00  6.86446481E-01  4.96178197E-12  6.96574642E-06
 -1.80209454E-05  2.32684302E-06 -2.46608540E-21  2.11440145E-07  3.76199904E-04
 -8.17498588E-04  3.53866440E-05  2.75966709E-19  2.66360385E-04  1.99762856E-02
 -3.34772200E-02  5.07749024E-03  1.19930428E-17  4.33230894E-04  3.01541400E-02
 -4.39330528E-02  9.71006857E-04 -2.72704459E-17  1.33170911E-05  2.62949454E-03
 -4.74259969E-03  7.96072063E-04 -5.15344362E-18  4.04370449E-09  3.33292093E-05
 -7.93020483E-05  3.78412221E-06 -5.45090826E-20  1.55184312E-04  9.14250769E-02
  2.89182611E-03  3.68039738E-06  5.53959121E-02  3.36248976E-01 -2.72863541E-01
  1.05171317E-02 -5.76728787E-16  7.18554879E-02  8.38743577E-01  0.00000000E+00
  6.86446481E-01  9.48293377E-26  2.62943211E-21 -6.82158648E-21  2.68913056E-21
  2.34016626E-06 -3.07179616E-22 -3.16651994E-19  6.92695638E-19  3.74637980E-20
  1.40415928E-04 -3.85530615E-19 -1.33917955E-17  2.35537001E-17 -8.37577182E-19
  8.76451689E-03 -8.55605263E-19  4.83605537E-18 -5.69030432E-18  3.02723638E-17
  1.60883145E-03 -2.83885762E-20 -3.20639398E-18  5.91106816E-18 -7.81350910E-19
 -5.74823454E-04 -9.10559090E-24 -3.32440888E-20  7.94348262E-20  7.19028301E-21
 -6.46795876E-06 -1.98797441E-19 -1.13738666E-16 -4.34733683E-18 -5.01603494E-21
 -1.07449401E-16 -7.75805174E-17  1.24003699E-16  3.21989718E-16 -5.13799774E-02
  0.00000000E+00  0.00000000E+00  0.00000000E+00  0.00000000E+00  6.86446481E-01
  2.88787661E-08 -9.00115943E-05  1.75372416E-04  1.34671120E-04 -1.29426411E-19
  6.53148996E-07  1.63431695E-05 -3.30601718E-05  1.04910378E-04  5.05658445E-20
  1.24364996E-04 -1.25217778E-03  1.06925834E-03  5.17664320E-03 -2.45640604E-18
 -2.74986349E-03 -1.47719365E-01  1.51227197E-01  1.79432414E-01 -2.16076425E-16
 -2.89951500E-03 -9.21309994E-02  1.32792837E-01  4.04889857E-02 -1.83760621E-17
 -9.46657662E-06 -2.55587358E-03  4.69765080E-03  1.43475754E-03 -8.96933343E-19
  1.00170910E-05  5.56572050E-04 -2.10832753E-01 -6.88698266E-04 -7.55598187E-02
 -1.05390586E+00  2.24553390E-01  1.31886931E+00 -1.87120065E-15  3.18621290E-03
 -1.14767259E-01 -4.57723315E-02  2.09881552E-01 -2.71900794E-16 -3.13067751E+00
  6.07606960E-12  2.01029222E-07 -5.41827638E-07  3.14324736E-07 -3.39472594E-23
  6.31645618E-09  1.82422810E-05 -4.22182196E-05 -1.31408824E-06  1.38762513E-20
  1.09245217E-05  1.45077838E-03 -2.64382811E-03  2.14623251E-04  9.00606897E-19
 -2.79217786E-05 -8.62046518E-04  1.50451942E-03  3.19233942E-03  5.12145006E-19
 -5.97226773E-07 -2.32738245E-04  4.60240680E-04 -3.00215411E-05  3.45979001E-19
 -2.16067287E-10 -1.86594086E-06  4.68750130E-06  2.96614223E-07  2.36908865E-21
  6.61462976E-06  7.91769178E-03 -4.17597258E-04 -2.47174638E-07 -6.12773720E-03
 -4.61607839E-02  5.66654596E-02  5.26125654E-02  4.64114049E-17  4.03279828E-02
  2.28071239E-01 -2.16075217E-01  3.05985767E-01  6.34422499E-17 -6.90536276E-02
  2.72072857E-01  1.76137931E-08  7.21196678E-05 -1.54463535E-04  6.98937108E-05
 -8.70814015E-20  1.87397734E-05  3.55233682E-03 -6.50517333E-03  1.14230197E-03
 -1.03285881E-18  2.65553869E-03  8.41071677E-02 -1.19630534E-01  4.41288718E-02
 -4.71664263E-17 -3.74701266E-04  2.60473481E-02 -2.94177846E-02  4.35141300E-02
 -4.81395519E-17 -8.06952047E-06 -2.32510097E-04  3.69538127E-04  2.77133849E-04
  6.78994048E-19 -3.55663950E-08  1.54201192E-06 -2.12053922E-06  2.80194702E-05
 -2.51686861E-21  1.96100803E-03  4.04902198E-01 -2.33798992E-04 -8.58319652E-07
 -5.62822122E-03  7.17276409E-02 -2.82342255E-02  1.57550321E-01 -1.67719409E-16
  4.97567342E-02  8.48611001E-01  1.80259344E-01  1.12775891E+00 -1.50209892E-15
 -2.98735885E-03  2.26814007E-01  2.70826884E+00  5.18404956E-08  2.87243724E-02
  4.69415721E-02  1.12295906E-02 -1.38147229E-17  0.00000000E+00  1.34229085E-03
  3.10891812E-03 -8.77245465E-04  2.16506287E-18  0.00000000E+00  2.69911774E-06
  9.73166209E-06 -1.03541829E-06  3.31147116E-21  0.00000000E+00  1.09649051E-07
  4.41158226E-07  9.63285932E-08 -1.29745468E-22  0.00000000E+00  2.18987356E-06
  6.90323258E-06  4.11026926E-06 -7.04799863E-21  0.00000000E+00  1.10539220E-03
  2.05508417E-03  1.78128890E-03 -3.14455839E-18  1.24884658E-03  2.45685955E-07
  1.84705194E-07  9.61289066E-04  0.00000000E+00  7.73206101E-13  4.20240461E-12
  9.06829782E-13 -1.23614930E-27  0.00000000E+00  0.00000000E+00  0.00000000E+00
  0.00000000E+00  0.00000000E+00  3.42133405E-12  0.00000000E+00  2.36721577E-12
  1.10885517E+00  1.47649991E-02  2.44116148E-01  2.61396970E-01  2.69064095E-01
 -7.69281164E-17  2.78595510E-03  8.39729662E-02  1.24143667E-01 -7.19640502E-03
  8.64541409E-17  4.52834932E-06  2.35348704E-03  4.66296190E-03  3.63324086E-04
  1.58670366E-18 -4.75170984E-08  8.53376387E-05  1.81703585E-04  2.12670073E-04
 -5.34393680E-20 -5.45703890E-06 -1.06319452E-03 -1.88127670E-03 -1.57703903E-04
  1.92072850E-18 -2.09502392E-03 -2.01240458E-02 -2.72842375E-02  7.55572701E-03
  4.17485956E-17  7.98071366E-02  3.39157034E-04 -2.03170357E-04 -2.96530155E-02
 -7.73206101E-13  0.00000000E+00 -3.27683405E-10  3.34526730E-07  9.63890082E-26
  0.00000000E+00  8.93008542E-09  2.97429439E-08  6.90250426E-09  1.17185528E-24
 -1.73290656E-07  2.43339655E-10  3.05684612E-07  2.75397922E-01  1.10885517E+00
 -2.45138505E-02 -2.77660123E-01 -2.41241905E-01 -3.10940919E-01  1.10542165E-16
 -6.45659380E-03 -1.19802565E-01 -1.59726151E-01  1.51133228E-02 -1.35017741E-16
 -1.63340624E-05 -4.63678389E-03 -8.66030618E-03 -6.88618625E-04 -3.21346351E-18
  1.91312319E-07 -1.86275219E-04 -3.74464125E-04 -4.60539182E-04  1.18212901E-19
  1.71880018E-05  1.78578265E-03  2.89651340E-03  2.76693874E-04 -3.31855749E-18
  3.89290321E-03  1.95721007E-02  2.16625571E-02 -9.94945587E-03 -4.56706935E-17
 -8.81151570E-02 -6.75119965E-04  3.23068374E-04  1.86366768E-02  4.20240461E-12
 -3.27683405E-10 -1.65436123E-24 -9.60701970E-07  3.67341985E-40  0.00000000E+00
 -2.97432699E-08 -9.62723618E-08 -2.29901843E-08 -3.90337003E-24  4.47538944E-07
 -8.12468190E-10 -8.47220522E-07  0.00000000E+00  0.00000000E+00  1.10885517E+00
 -3.35516703E-03  1.59037217E-01  1.57607281E-01  1.18725065E-01 -4.63832126E-17
  2.01604465E-03  6.65902599E-02  1.02171920E-01  1.64146364E-02  7.11529288E-17
  2.10213721E-06  1.48274313E-03  2.96209804E-03  6.46503244E-04  1.00793699E-18
  4.53573903E-08  1.37598512E-04  2.96536973E-04  1.07521805E-05 -8.72120845E-20
  1.00310565E-05  1.95336709E-03  3.46571244E-03  7.23342716E-04 -3.53839108E-18
  3.31777853E-03  4.67294846E-02  5.98567976E-02  1.26773437E-02 -9.15890444E-17
  9.72510126E-02  2.99489659E-04  3.68939421E-04  5.95224800E-02  9.06829782E-13
  3.34526730E-07  9.60701970E-07  1.80945759E-25 -2.82593224E-22  0.00000000E+00
  4.91095169E-09  1.63564949E-08  2.68831051E-09  6.44436711E-25  3.29977041E-07
  1.73241010E-10  2.26360725E-07  7.18554879E-02  8.38743577E-01  0.00000000E+00
  1.10885517E+00  7.21433130E-18  8.17142993E-17  1.10542165E-16  9.15087086E-17
  1.34373520E-01 -4.49639746E-18 -8.34309802E-17 -1.35017741E-16  1.05249778E-17
  3.41523296E-02 -5.55812318E-21 -1.57779586E-18 -3.21346351E-18 -2.34321814E-19
  7.83333659E-04 -5.62653148E-23  5.47838941E-20  1.18212901E-19  1.35445444E-19
  2.74812716E-05 -1.75484474E-20 -1.82323187E-18 -3.31855749E-18 -2.82496356E-19
 -3.53880843E-04 -5.95667158E-18 -2.99479770E-17 -4.56706935E-17  1.52240212E-17
 -8.18491511E-03 -1.56247207E-16 -4.44029782E-19 -4.75001534E-19 -7.12622427E-17
 -1.23614930E-27  9.63890082E-26  0.00000000E+00  2.82593224E-22  1.29246971E-26
  0.00000000E+00 -1.17186813E-24 -3.90337003E-24 -9.05800348E-25  2.79935592E-09
 -2.80341073E-22  5.54534937E-27 -3.06988407E-22  0.00000000E+00  0.00000000E+00
  0.00000000E+00  0.00000000E+00  1.10885517E+00  0.00000000E+00 -7.95993567E-04
 -1.84570713E-03  5.56496979E-04 -1.14568083E-18  0.00000000E+00 -1.85568844E-06
 -5.92877120E-06  3.17825514E-06 -6.44237129E-21  0.00000000E+00 -8.86523072E-10
 -3.97093632E-09  1.28080397E-09 -2.72946412E-24  0.00000000E+00 -1.79693030E-10
 -8.78450241E-10  3.06520573E-11 -1.20211968E-25  0.00000000E+00 -7.29652158E-08
 -2.93149818E-07 -6.07512521E-08  9.89599147E-23  0.00000000E+00 -1.53712092E-04
 -4.19938098E-04 -8.79305957E-05  1.50440676E-19 -2.71007111E-06 -7.29641785E-11
 -3.10727293E-08 -1.16501035E-03  0.00000000E+00  0.00000000E+00  0.00000000E+00
  0.00000000E+00  0.00000000E+00  0.00000000E+00  0.00000000E+00  0.00000000E+00
  0.00000000E+00  0.00000000E+00 -1.97100125E-14  0.00000000E+00  0.00000000E+00
  6.44145881E-07 -2.64425215E-02 -2.89706365E-02  3.29362737E-02 -6.12328052E-17
 -6.86446481E-01  5.94324297E-04 -3.93277728E-03 -3.67876810E-03  3.31795626E-02
 -2.28351184E-18  8.19107176E-06  1.71608111E-03  3.06856631E-03 -3.92255669E-04
  3.33439137E-18  2.96046719E-09  2.04528429E-05  4.86519066E-05  4.43308580E-06
  3.34413909E-20 -1.41772483E-10 -7.42533371E-06 -1.92101551E-05  7.59393285E-06
 -2.62882340E-21 -2.26255929E-07 -4.36423996E-04 -9.42593544E-04 -4.92697577E-05
  3.18195581E-19 -3.93538857E-04 -2.34218137E-02 -3.85232430E-02  2.00130179E-03
  1.38007548E-17  1.72536083E-03  2.35855160E-06 -1.32876737E-04 -7.75489747E-02
  0.00000000E+00 -8.93008542E-09 -2.97432699E-08  4.91095169E-09 -1.17186813E-24
  0.00000000E+00  0.00000000E+00  0.00000000E+00  2.58514806E-11  0.00000000E+00
 -2.20219288E-08 -4.75693765E-13  7.08740401E-10  4.53344549E-02  8.50674470E-02
  8.53523880E-02  2.10878466E-01  1.80402186E-16 -1.70487489E-01 -6.86446481E-01
 -1.37839151E-03  7.79094982E-03  7.55832485E-03 -4.87691826E-02  5.69030432E-18
 -2.61253761E-05 -2.95077315E-03 -4.86500128E-03  7.19059887E-04 -5.91106816E-18
 -1.32471870E-08 -4.83648634E-05 -1.09097083E-04 -1.04607185E-05 -7.94348262E-20
  6.92966398E-10  1.92146032E-05  4.75086497E-05 -1.96508503E-05  6.82158648E-21
  9.09960853E-07  9.38020962E-04  1.91156240E-03  1.10979335E-04 -6.92695638E-19
  1.07616502E-03  3.73816795E-02  5.69829678E-02 -2.33800179E-03 -2.35537001E-17
 -2.31512716E-03 -5.54525322E-06  2.65682453E-04  8.98802502E-02  0.00000000E+00
  2.97429439E-08  9.62723618E-08 -1.63564949E-08  3.90337003E-24  0.00000000E+00
  0.00000000E+00  0.00000000E+00 -9.80205188E-11  0.00000000E+00  6.56928112E-08
  1.77774040E-12 -2.24450681E-09 -5.08367621E-02 -3.67051120E-02 -7.28900026E-03
 -1.52340679E-01 -1.24003699E-16  0.00000000E+00  0.00000000E+00 -6.86446481E-01
  4.33230894E-04  3.01541400E-02  4.39330528E-02 -9.71006857E-04  2.72704459E-17
  1.33170911E-05  2.62949454E-03  4.74259969E-03 -7.96072063E-04  5.15344362E-18
  4.04370449E-09  3.33292093E-05  7.93020483E-05 -3.78412221E-06  5.45090826E-20
  4.96178197E-12  6.96574642E-06  1.80209454E-05 -2.32684302E-06  2.46608540E-21
  2.11440145E-07  3.76199904E-04  8.17498588E-04 -3.53866440E-05 -2.75966709E-19
  2.66360385E-04  1.99762856E-02  3.34772200E-02 -5.07749024E-03 -1.19930428E-17
  2.89182611E-03  3.68039738E-06  1.55184312E-04  9.14250769E-02  0.00000000E+00
  6.90250426E-09  2.29901843E-08 -2.68831051E-09  9.05800348E-25  0.00000000E+00
  2.58514806E-11  9.80205188E-11  0.00000000E+00  2.86005531E-26  2.08083756E-08
  1.07342082E-12  1.16241662E-09  5.53959121E-02  3.36248976E-01  2.72863541E-01
 -1.05171317E-02  5.76728787E-16  7.18554879E-02  8.38743577E-01  0.00000000E+00
 -6.86446481E-01 -8.55605263E-19  4.83605537E-18  5.69030432E-18 -3.02723638E-17
 -1.60883145E-03 -2.83885762E-20 -3.20639398E-18 -5.91106816E-18  7.81350910E-19
  5.74823454E-04 -9.10559090E-24 -3.32440888E-20 -7.94348262E-20 -7.19028301E-21
  6.46795876E-06  9.48293377E-26  2.62943211E-21  6.82158648E-21 -2.68913056E-21
 -2.34016626E-06 -3.07179616E-22 -3.16651994E-19 -6.92695638E-19 -3.74637980E-20
 -1.40415928E-04 -3.85530615E-19 -1.33917955E-17 -2.35537001E-17  8.37577182E-19
 -8.76451689E-03 -4.34733683E-18 -5.01603494E-21 -1.98797441E-19 -1.13738666E-16
  0.00000000E+00  1.17185528E-24  3.90337003E-24 -6.44436711E-25 -2.79935592E-09
  0.00000000E+00  0.00000000E+00  0.00000000E+00 -2.86005531E-26  0.00000000E+00
 -1.71076571E-23  3.89653608E-28 -1.30769491E-24 -1.07449401E-16 -7.75805174E-17
 -1.24003699E-16 -3.21989718E-16  5.13799774E-02  0.00000000E+00  0.00000000E+00
  0.00000000E+00  0.00000000E+00 -6.86446481E-01  2.74986349E-03  1.47719365E-01
  1.51227197E-01  1.79432414E-01 -2.16076425E-16  2.89951500E-03  9.21309994E-02
  1.32792837E-01  4.04889857E-02 -1.83760621E-17  9.46657662E-06  2.55587358E-03
  4.69765080E-03  1.43475754E-03 -8.96933343E-19 -2.88787661E-08  9.00115943E-05
  1.75372416E-04  1.34671120E-04 -1.29426411E-19 -6.53148996E-07 -1.63431695E-05
 -3.30601718E-05  1.04910378E-04  5.05658445E-20 -1.24364996E-04  1.25217778E-03
  1.06925834E-03  5.17664320E-03 -2.45640604E-18  2.10832753E-01  6.88698266E-04
 -1.00170910E-05 -5.56572050E-04 -3.42133405E-12  1.73290656E-07  4.47538944E-07
  3.29977041E-07 -2.80341073E-22  1.97100125E-14  2.20219288E-08  6.56928112E-08
  2.08083756E-08 -1.71076571E-23  5.49299626E-26  7.00646654E-10  8.28299032E-07
  7.55598187E-02  1.05390586E+00  2.24553390E-01  1.31886931E+00 -1.87120065E-15
 -3.18621290E-03  1.14767259E-01 -4.57723315E-02  2.09881552E-01 -2.71900794E-16
  3.13067751E+00  2.79217786E-05  8.62046518E-04  1.50451942E-03  3.19233942E-03
  5.12145006E-19  5.97226773E-07  2.32738245E-04  4.60240680E-04 -3.00215411E-05
  3.45979001E-19  2.16067287E-10  1.86594086E-06  4.68750130E-06  2.96614223E-07
  2.36908865E-21 -6.07606960E-12 -2.01029222E-07 -5.41827638E-07  3.14324736E-07
 -3.39472594E-23 -6.31645618E-09 -1.82422810E-05 -4.22182196E-05 -1.31408824E-06
  1.38762513E-20 -1.09245217E-05 -1.45077838E-03 -2.64382811E-03  2.14623251E-04
  9.00606897E-19  4.17597258E-04  2.47174638E-07 -6.61462976E-06 -7.91769178E-03
  0.00000000E+00 -2.43339655E-10 -8.12468190E-10  1.73241010E-10  5.54534937E-27
  0.00000000E+00  4.75693765E-13  1.77774040E-12  1.07342082E-12  3.89653608E-28
 -7.00646654E-10  0.00000000E+00  5.64176087E-11  6.12773720E-03  4.61607839E-02
  5.66654596E-02  5.26125654E-02  4.64114049E-17 -4.03279828E-02 -2.28071239E-01
 -2.16075217E-01  3.05985767E-01  6.34422499E-17  6.90536276E-02 -2.72072857E-01
  3.74701266E-04 -2.60473481E-02 -2.94177846E-02  4.35141300E-02 -4.81395519E-17
  8.06952047E-06  2.32510097E-04  3.69538127E-04  2.77133849E-04  6.78994048E-19
  3.55663950E-08 -1.54201192E-06 -2.12053922E-06  2.80194702E-05 -2.51686861E-21
 -1.76137931E-08 -7.21196678E-05 -1.54463535E-04  6.98937108E-05 -8.70814015E-20
 -1.87397734E-05 -3.55233682E-03 -6.50517333E-03  1.14230197E-03 -1.03285881E-18
 -2.65553869E-03 -8.41071677E-02 -1.19630534E-01  4.41288718E-02 -4.71664263E-17
  2.33798992E-04  8.58319652E-07 -1.96100803E-03 -4.04902198E-01 -2.36721577E-12
 -3.05684612E-07 -8.47220522E-07  2.26360725E-07 -3.06988407E-22  0.00000000E+00
 -7.08740401E-10 -2.24450681E-09  1.16241662E-09 -1.30769491E-24 -8.28299032E-07
 -5.64176087E-11 -7.82550018E-28  5.62822122E-03 -7.17276409E-02 -2.82342255E-02
  1.57550321E-01 -1.67719409E-16 -4.97567342E-02 -8.48611001E-01  1.80259344E-01
  1.12775891E+00 -1.50209892E-15  2.98735885E-03 -2.26814007E-01 -2.70826884E+00
Multipole Matrix (0,0,1)                   R   N=        1830
 -7.59359635E-16 -1.88596374E-16 -7.59359635E-16  0.00000000E+00  0.00000000E+00
 -7.59359635E-16  0.00000000E+00  0.00000000E+00  0.00000000E+00 -7.59359635E-16
  7.18554879E-02  8.38743577E-01  0.00000000E+00  0.00000000E+00 -7.59359635E-16
 -2.58188384E-21 -1.74331331E-16  1.89115804E-16 -2.13466621E-16  2.56497136E-03
 -4.80205391E-15 -3.67149097E-17 -1.02071784E-15  6.71138745E-16 -7.57555515E-16
  2.69819690E-01 -1.19264959E-15 -4.80205391E-15 -4.29063493E-17 -7.65831895E-16
  6.63748853E-17 -7.49449716E-16  1.87858434E-01  0.00000000E+00  0.00000000E+00
 -4.80205391E-15  4.84310313E-17  8.64441489E-16 -7.49449716E-16  2.48367202E-16
 -2.12047351E-01  0.00000000E+00  0.00000000E+00  0.00000000E+00 -4.80205391E-15
  2.56497136E-03  2.69819690E-01 -1.87858434E-01  2.12047351E-01 -5.97582715E-16
  7.18554879E-02  8.38743577E-01  0.00000000E+00  0.00000000E+00 -4.80205391E-15
  0.00000000E+00 -7.16888258E-18  1.56582164E-17 -5.23036630E-18  1.01330663E-04
 -4.13864263E-21 -1.55061139E-16  2.52592882E-16  5.15281249E-17  2.56851859E-03
 -4.04262387E-15 -1.67913538E-18 -1.47122806E-16  1.98098405E-16 -6.61714716E-17
  4.04238045E-02 -1.80939955E-16 -1.62430934E-15  1.70221622E-15  3.47246561E-16
  2.69999593E-01 -1.00403573E-15 -4.04262387E-15 -3.66313659E-18 -2.12468907E-16
  2.54653976E-16 -1.05643902E-16  5.55671733E-02 -2.93216782E-16 -1.67591594E-15
  1.35502161E-15  4.70450659E-16  2.77712217E-01  0.00000000E+00  0.00000000E+00
 -4.04262387E-15  1.22360974E-18  7.09716983E-17 -1.05643902E-16 -2.63249769E-17
 -1.85612884E-02 -5.98152680E-17 -3.41881391E-16  4.70450659E-16 -8.55175508E-16
  5.66523874E-02  0.00000000E+00  0.00000000E+00  0.00000000E+00 -4.04262387E-15
  1.01330663E-04  4.04238045E-02 -5.55671733E-02  1.85612884E-02 -6.16135621E-17
  2.56851859E-03  2.69999593E-01 -2.77712217E-01 -5.66523874E-02 -9.51145910E-16
  7.18554879E-02  8.38743577E-01  0.00000000E+00  0.00000000E+00 -4.04262387E-15
  0.00000000E+00  2.90718893E-19 -7.56421793E-19 -1.54276559E-19  2.34975779E-05
  0.00000000E+00  9.26132617E-19 -1.60070784E-18 -1.41781250E-18  1.01457197E-04
 -1.53128457E-21  1.94456367E-17 -8.76853305E-18 -2.62533964E-17  2.56704084E-03
  7.59359635E-16 -2.90718893E-19  1.92592994E-34  1.16130133E-18  2.36854061E-19
  1.68668986E-02 -8.38446036E-18 -1.23949972E-16  1.46101274E-16  1.29407883E-16
  4.04545156E-02 -1.44118050E-16 -6.02811759E-16  2.29563552E-16  6.87323968E-16
  2.69924669E-01  1.88596374E-16  7.59359635E-16 -7.56421793E-19  1.16130133E-18
  0.00000000E+00  3.85185989E-34  2.63135807E-02 -1.44529889E-17 -1.26872403E-16
  1.14034862E-16  1.46987040E-16  4.38849454E-02 -7.42475060E-17 -1.75809752E-16
 -2.63481981E-16  2.67898389E-16  8.97710268E-02  0.00000000E+00  0.00000000E+00
  7.59359635E-16 -1.54276559E-19  2.36854061E-19 -1.92592994E-34  4.81482486E-35
  5.36680554E-03 -1.28016043E-17 -1.12376084E-16  1.46987040E-16  7.82791933E-17
  3.88706938E-02 -2.22300491E-16 -5.26382587E-16  2.67898389E-16  4.49141245E-16
  2.68778636E-01  0.00000000E+00  0.00000000E+00  0.00000000E+00  7.59359635E-16
  2.34975779E-05  1.68668986E-02 -2.63135807E-02 -5.36680554E-03  1.15555797E-33
  1.01457197E-04  4.04545156E-02 -4.38849454E-02 -3.88706938E-02 -5.19132489E-17
  2.56704084E-03  2.69924669E-01 -8.97710268E-02 -2.68778636E-01 -3.52959009E-16
  7.18554879E-02  8.38743577E-01  0.00000000E+00  0.00000000E+00  7.59359635E-16
  0.00000000E+00  8.38446036E-18 -1.44529889E-17 -1.28016043E-17  1.01457197E-04
  0.00000000E+00  1.84040989E-18 -1.54729593E-18 -4.63527798E-18  2.35223426E-05
  0.00000000E+00  8.09509336E-18  3.72972016E-18 -1.82703946E-17  1.01344527E-04
  2.58188384E-21  1.74331331E-16  1.89115804E-16 -2.13466621E-16  2.56497136E-03
  4.80205391E-15 -9.26132617E-19  1.23949972E-16 -1.26872403E-16 -1.12376084E-16
  4.04545156E-02 -1.84040989E-18  2.31111593E-33  2.37506198E-18  7.11504002E-18
  1.68773487E-02 -6.69559345E-18  2.32692170E-17  2.76455508E-18 -1.35424402E-17
  4.04271700E-02  3.67149097E-17  1.02071784E-15  6.71138745E-16 -7.57555515E-16
  2.69819690E-01  1.19264959E-15  4.80205391E-15 -1.60070784E-18  1.46101274E-16
 -1.14034862E-16 -1.46987040E-16  4.38849454E-02 -1.54729593E-18  2.37506198E-18
  9.62964972E-35  0.00000000E+00  8.50804914E-03  3.08526837E-18 -1.09289510E-17
  7.52059381E-18  1.08964830E-17 -1.17187881E-02 -4.29063493E-17 -7.65831895E-16
 -6.63748853E-17  7.49449716E-16 -1.87858434E-01  0.00000000E+00  0.00000000E+00
  4.80205391E-15 -1.41781250E-18  1.29407883E-16 -1.46987040E-16 -7.82791933E-17
  3.88706938E-02 -4.63527798E-18  7.11504002E-18 -3.08148791E-33 -6.16297582E-33
  2.54878022E-02 -1.51134852E-17  5.35365223E-17  1.08964830E-17 -4.36324719E-17
  5.74056159E-02  4.84310313E-17  8.64441489E-16  7.49449716E-16 -2.48367202E-16
  2.12047351E-01  0.00000000E+00  0.00000000E+00  0.00000000E+00  4.80205391E-15
  1.01457197E-04  4.04545156E-02 -4.38849454E-02 -3.88706938E-02  5.19132489E-17
  2.35223426E-05  1.68773487E-02 -8.50804914E-03 -2.54878022E-02  1.54074396E-33
  1.01344527E-04  4.04271700E-02  1.17187881E-02 -5.74056159E-02  9.74500293E-18
  2.56497136E-03  2.69819690E-01  1.87858434E-01 -2.12047351E-01  5.97582715E-16
  7.18554879E-02  8.38743577E-01  0.00000000E+00  0.00000000E+00  4.80205391E-15
  1.53128457E-21  1.44118050E-16 -7.42475060E-17 -2.22300491E-16  2.56704084E-03
  0.00000000E+00  6.69559345E-18  3.08526837E-18 -1.51134852E-17  1.01344527E-04
  0.00000000E+00  1.54717947E-18  2.72411633E-18 -3.07567827E-18  2.34896254E-05
  0.00000000E+00  7.16888258E-18  1.56582164E-17 -5.23036630E-18  1.01330663E-04
  4.13864263E-21  1.55061139E-16  2.52592882E-16  5.15281249E-17  2.56851859E-03
  4.04262387E-15 -1.94456367E-17  6.02811759E-16 -1.75809752E-16 -5.26382587E-16
  2.69924669E-01 -8.09509336E-18 -2.32692170E-17 -1.09289510E-17  5.35365223E-17
  4.04271700E-02 -1.54717947E-18 -7.70371978E-34 -4.18246230E-18  4.72223167E-18
  1.68635419E-02  1.67913538E-18  1.47122806E-16  1.98098405E-16 -6.61714716E-17
  4.04238045E-02  1.80939955E-16  1.62430934E-15  1.70221622E-15  3.47246561E-16
  2.69999593E-01  1.00403573E-15  4.04262387E-15 -8.76853305E-18  2.29563552E-16
  2.63481981E-16 -2.67898389E-16  8.97710268E-02  3.72972016E-18  2.76455508E-18
 -7.52059381E-18 -1.08964830E-17 -1.17187881E-02  2.72411633E-18 -4.18246230E-18
  6.16297582E-33 -6.16297582E-33 -1.78026033E-02 -3.66313659E-18 -2.12468907E-16
 -2.54653976E-16  1.05643902E-16 -5.55671733E-02 -2.93216782E-16 -1.67591594E-15
 -1.35502161E-15 -4.70450659E-16 -2.77712217E-01  0.00000000E+00  0.00000000E+00
  4.04262387E-15 -2.62533964E-17  6.87323968E-16 -2.67898389E-16 -4.49141245E-16
  2.68778636E-01 -1.82703946E-17 -1.35424402E-17 -1.08964830E-17  4.36324719E-17
  5.74056159E-02 -3.07567827E-18  4.72223167E-18  0.00000000E+00 -1.54074396E-33
  2.01001255E-02  1.22360974E-18  7.09716983E-17  1.05643902E-16  2.63249769E-17
  1.85612884E-02 -5.98152680E-17 -3.41881391E-16 -4.70450659E-16  8.55175508E-16
 -5.66523874E-02  0.00000000E+00  0.00000000E+00  0.00000000E+00  4.04262387E-15
  2.56704084E-03  2.69924669E-01 -8.97710268E-02 -2.68778636E-01  3.52959009E-16
  1.01344527E-04  4.04271700E-02  1.17187881E-02 -5.74056159E-02 -9.74500293E-18
  2.34896254E-05  1.68635419E-02  1.78026033E-02 -2.01001255E-02 -1.54074396E-33
  1.01330663E-04  4.04238045E-02  5.55671733E-02 -1.85612884E-02  6.16135621E-17
  2.56851859E-03  2.69999593E-01  2.77712217E-01  5.66523874E-02  9.51145910E-16
  7.18554879E-02  8.38743577E-01  0.00000000E+00  0.00000000E+00  4.04262387E-15
 -5.48250643E-18 -4.26684531E-16  1.45278967E-16 -5.25903600E-16  6.88213560E-02
 -3.06968844E-16 -3.29250244E-15 -9.90477572E-16 -2.96355676E-15  3.49417246E-01
 -2.22433479E-17 -5.92107380E-16 -6.03610582E-16 -4.65154722E-16  6.88317426E-02
  3.89580926E-20 -2.11981332E-17 -2.16510805E-17 -2.65467446E-17  4.61570854E-03
  5.25560401E-20 -1.74000172E-18 -8.83669257E-19 -2.64631274E-18  1.30153776E-03
  3.30076581E-19 -9.18578867E-18  5.53703051E-19 -1.40187982E-17  4.61470797E-03
 -8.58735257E-15 -9.11305889E-20 -2.29398441E-17  3.31202696E-17 -1.74160898E-17
  4.61145632E-03 -2.58626971E-17 -5.68850067E-16  7.10081982E-16 -1.84408293E-16
  6.88261926E-02 -2.58405947E-16 -2.77162999E-15  1.74442458E-15 -1.96875184E-15
  3.49406516E-01  2.52335163E-18 -2.88837430E-16  4.87401379E-17 -3.63973785E-16
  6.88382076E-02  4.01722915E-19 -2.61560771E-18  1.13479494E-18 -2.98581555E-18
  4.61336453E-03  4.41731287E-20 -1.46307440E-18  1.55560834E-18 -1.75616623E-18
  1.30023861E-03 -3.95459651E-16 -7.22893583E-15 -3.89580926E-20  2.11981332E-17
 -2.16510805E-17 -2.65467446E-17  4.61570854E-03 -5.25560401E-20  1.74000172E-18
 -8.83669257E-19 -2.64631274E-18  1.30153776E-03 -3.30076581E-19  9.18578867E-18
  5.53703051E-19 -1.40187982E-17  4.61470797E-03  5.48250643E-18  4.26684531E-16
  1.45278967E-16 -5.25903600E-16  6.88213560E-02  3.06968844E-16  3.29250244E-15
 -9.90477572E-16 -2.96355676E-15  3.49417246E-01  2.22433479E-17  5.92107380E-16
 -6.03610582E-16 -4.65154722E-16  6.88317426E-02  0.00000000E+00  5.17310477E-19
  8.58735257E-15 -2.52335163E-18  2.88837430E-16  4.87401379E-17 -3.63973785E-16
  6.88382076E-02 -4.01722915E-19  2.61560771E-18  1.13479494E-18 -2.98581555E-18
  4.61336453E-03 -4.41731287E-20  1.46307440E-18  1.55560834E-18 -1.75616623E-18
  1.30023861E-03  9.11305889E-20  2.29398441E-17  3.31202696E-17 -1.74160898E-17
  4.61145632E-03  2.58626971E-17  5.68850067E-16  7.10081982E-16 -1.84408293E-16
  6.88261926E-02  2.58405947E-16  2.77162999E-15  1.74442458E-15 -1.96875184E-15
  3.49406516E-01 -5.17310477E-19 -8.27548023E-36  3.95459651E-16  7.22893583E-15
  0.00000000E+00  1.58077988E-22 -6.36005532E-22 -1.29751844E-22  6.32765727E-09
  0.00000000E+00  3.01972404E-21 -9.52302894E-21 -5.48226475E-21  1.36181931E-07
  0.00000000E+00  1.52993083E-18 -2.84538439E-18 -2.37885424E-18  6.31570064E-05
  7.47333272E-23  4.14108392E-17 -6.76738376E-17 -1.38128988E-17  1.64835203E-03
  0.00000000E+00  1.99876498E-18 -4.62834839E-18  1.39994124E-18  6.31121590E-05
  0.00000000E+00  4.02838669E-21 -1.45207943E-20  1.74788151E-21  1.35990927E-07
  2.49874299E-22  1.30881666E-18  1.87744537E-18  3.70586071E-22  1.59859989E-15
 -6.84929411E-23  1.23044200E-19 -2.61990153E-19 -5.34487573E-20  1.75600623E-04
 -1.05419881E-20 -2.44788038E-18  4.30616531E-18  2.47899470E-18  9.25318841E-04
 -4.32753296E-18 -5.68889136E-17  7.32868316E-17  6.12706987E-17  3.03664320E-02
  2.12834963E-17  3.51918163E-16 -3.76828185E-16 -7.69143551E-17  2.15710392E-01
  5.32263219E-18  1.48925099E-16 -2.21315371E-16  6.69414854E-17  3.03534562E-02
  9.19946402E-21  4.30739772E-18 -8.54728922E-18  1.02884515E-18  9.24609145E-04
 -4.38150870E-19 -7.20554202E-17  1.44355909E-16  6.34093073E-19  3.97032089E-16
  1.59859989E-15 -2.75764844E-22  2.68580627E-19 -5.39921648E-19 -1.18233413E-19
  3.78538078E-04 -3.32025010E-20 -4.13680770E-18  6.66888158E-18  4.30822528E-18
  1.59450928E-03 -8.04073773E-18 -5.91719289E-17  6.12381499E-17  7.05418401E-17
  3.49031267E-02  3.53363943E-17  4.00277236E-16 -3.47774651E-16 -1.10522988E-16
  2.34274100E-01  1.23359781E-17  2.11320494E-16 -2.83272510E-16  1.04002021E-16
  4.35292983E-02  3.31852014E-20  8.47328630E-18 -1.58502607E-17  2.08048311E-18
  1.82535833E-03 -6.98610105E-19 -4.56759623E-17  1.59136391E-16  1.26081717E-18
  0.00000000E+00  0.00000000E+00  1.59859989E-15 -5.62589397E-23  5.47932835E-20
 -1.18233413E-19  1.55030473E-20  7.72257644E-05 -1.91141812E-20 -2.38149807E-18
  4.30822528E-18  1.66541156E-18  9.17935050E-04 -6.72237573E-18 -4.94700800E-17
  7.05418401E-17  3.58377393E-17  2.91803986E-02  7.21250716E-18  8.17005381E-17
 -1.10522988E-16  1.71154211E-16  4.78176581E-02 -3.73127583E-18 -6.39183247E-17
  1.04002021E-16  2.91111707E-17 -1.31663511E-02 -3.99453354E-21 -1.01993735E-18
  2.08048311E-18  1.18324280E-18 -2.19720079E-04 -5.62684324E-19 -9.17563644E-17
 -1.35756723E-16 -3.56411379E-19  0.00000000E+00  0.00000000E+00  0.00000000E+00
  1.59859989E-15  6.32765727E-09  1.75600623E-04 -3.78538078E-04 -7.72257644E-05
  3.96239119E-20  1.36181931E-07  9.25318841E-04 -1.59450928E-03 -9.17935050E-04
 -8.14769035E-19  6.31570064E-05  3.03664320E-02 -3.49031267E-02 -2.91803986E-02
 -2.31380375E-17  1.64835203E-03  2.15710392E-01 -2.34274100E-01 -4.78176581E-02
  1.93713044E-16  6.31121590E-05  3.03534562E-02 -4.35292983E-02  1.31663511E-02
  6.05687677E-17  1.35990927E-07  9.24609145E-04 -1.82535833E-03  2.19720079E-04
  1.43367249E-18  1.08729171E-04  2.20841071E-02  2.20813743E-02  1.08644830E-04
  7.18554879E-02  8.38743577E-01  0.00000000E+00  0.00000000E+00  1.59859989E-15
  0.00000000E+00 -5.36951507E-25  2.62526523E-24 -4.29190991E-26  1.62907301E-11
  0.00000000E+00 -2.09479024E-22  8.41932751E-22  1.90478613E-22  5.57087484E-09
  0.00000000E+00 -4.50058527E-19  1.22995771E-18  2.91265298E-19  1.15146085E-05
  0.00000000E+00 -2.47992047E-18  5.74939097E-18 -1.51654448E-18  6.96459408E-05
  0.00000000E+00 -6.14690568E-21  1.96239200E-20 -9.85134408E-21  2.01970833E-07
  0.00000000E+00 -2.87024487E-24  1.28511417E-23 -3.82766996E-24  9.80737454E-11
 -8.77079632E-23 -3.37157920E-18 -9.28331757E-21 -2.41977997E-25 -7.58051686E-22
 -8.49662950E-17  9.49787076E-17 -9.75567173E-17  3.17928639E-03 -2.09570409E-15
 -2.19536302E-25 -1.74736456E-20  4.51928604E-20 -7.38834626E-22  7.27987600E-06
 -4.38205644E-22 -9.44669637E-19  2.03877087E-18  4.61250910E-19  1.63982323E-04
 -8.12868387E-19 -5.40520558E-17  8.84488629E-17  2.09455043E-17  1.11239601E-02
  7.91841116E-19 -3.29194434E-17  4.31653381E-17 -1.13859287E-17  3.22091962E-02
  1.55999951E-20  2.56058194E-18 -4.61824425E-18  2.31839068E-18  1.14818593E-03
  6.00770692E-24  3.09410548E-20 -7.37146848E-20  2.19556746E-20  1.89238950E-05
 -2.80679038E-19 -1.73670682E-16  2.81086012E-18  4.01325127E-21  6.27336574E-17
 -1.00110120E-16  2.17683408E-17 -2.23591995E-17  2.98547576E-01 -5.20494076E-16
 -2.09570409E-15 -1.07266654E-24 -4.52300935E-20  1.11799596E-19 -1.91778450E-21
  1.88358978E-05 -1.76228272E-21 -2.03194807E-18  4.13770777E-18  1.00487704E-18
  3.53259626E-04 -2.22269761E-18 -8.67219059E-17  1.31503333E-16  3.59310083E-17
  1.79076109E-02  1.83771004E-18 -5.28423182E-17  6.32672102E-17 -2.02404926E-17
  4.63511177E-02  4.97594779E-20  4.36327289E-18 -7.25911749E-18  4.07469868E-18
  2.01176990E-03  2.68842509E-23  7.30522563E-20 -1.65042036E-19  5.20715717E-20
  4.48813834E-05 -5.61700690E-19 -2.01718730E-16  3.74705998E-18  9.42703709E-21
  6.92459445E-17 -1.21872869E-16  8.57793103E-18 -7.09175996E-17  2.12602110E-01
  0.00000000E+00  0.00000000E+00 -2.09570409E-15  1.75364686E-26  7.39443330E-22
 -1.91778450E-21 -5.47563677E-21 -3.07938321E-07 -3.98698314E-22 -4.59707322E-19
  1.00487704E-18 -7.65968152E-20  7.99213520E-05 -5.26355238E-19 -2.05365450E-17
  3.59310083E-17 -1.17176573E-17  4.24068698E-03 -4.84741609E-19  1.39384722E-17
 -2.02404926E-17 -8.12784528E-18 -1.22262570E-02 -2.49796035E-20 -2.19039329E-18
  4.07469868E-18 -1.18782716E-18 -1.00992246E-03 -8.00738506E-24 -2.17583725E-20
  5.20715717E-20 -5.72461897E-21 -1.33677713E-05 -2.45032946E-19 -1.41343184E-16
 -3.39693357E-18 -3.85481598E-21 -7.11254891E-17  1.25180868E-16 -7.09175996E-17
  1.23769004E-17 -2.18372775E-01  0.00000000E+00  0.00000000E+00  0.00000000E+00
 -2.09570409E-15  1.62907301E-11  7.27987600E-06 -1.88358978E-05  3.07938321E-07
 -5.50698963E-21  5.57087484E-09  1.63982323E-04 -3.53259626E-04 -7.99213520E-05
 -3.03939895E-19  1.15146085E-05  1.11239601E-02 -1.79076109E-02 -4.24068698E-03
 -2.02264506E-17  6.96459408E-05  3.22091962E-02 -4.63511177E-02  1.22262570E-02
 -1.34667773E-17  2.01970833E-07  1.14818593E-03 -2.01176990E-03  1.00992246E-03
  8.57699874E-19  9.80737454E-11  1.89238950E-05 -4.48813834E-05  1.33677713E-05
  9.78472611E-21  3.92845890E-05  2.84464891E-02  7.93025129E-04  1.41288422E-06
  3.17928639E-03  2.98547576E-01 -2.12602110E-01  2.18372775E-01 -6.04656176E-17
  7.18554879E-02  8.38743577E-01  0.00000000E+00  0.00000000E+00 -2.09570409E-15
 -3.88667633E-23  1.66434632E-19 -3.24547655E-19 -1.39878851E-19  5.90862507E-05
 -1.25988909E-21 -7.34421754E-20  1.29168530E-19  1.07948628E-19  1.32539400E-04
 -2.57044374E-19  4.38707548E-19  1.64785890E-20  2.02409454E-20  3.86325406E-03
  4.11916488E-18  2.52221768E-16 -2.58043609E-16 -2.02366322E-16  6.08350507E-02
  5.54826877E-18  1.69361672E-16 -2.44281612E-16 -3.03849767E-17  2.39715440E-02
  1.92361258E-20  4.83226131E-18 -8.89104536E-18 -1.34482583E-18  7.24208683E-04
 -2.30461686E-20 -2.41230704E-18  3.90803571E-16  1.31673924E-18  1.12763769E-16
  1.77156547E-15 -3.76753543E-16 -1.62553502E-15  3.50014722E-01 -1.05582971E-17
  1.54188594E-16  6.08512782E-17 -1.81571619E-16  7.33033803E-02  5.50345343E-15
 -9.26974472E-27 -5.19880140E-22  1.40038938E-21  3.02326060E-23  3.26022098E-07
 -1.22294243E-23 -4.00108946E-20  9.25285061E-20  2.05127554E-20  8.04531946E-06
 -2.25763217E-20 -3.44232403E-18  6.25118703E-18  1.42408136E-18  8.16913077E-04
  3.80110715E-20 -1.01606138E-18  1.55170524E-18 -1.86880427E-19  3.37353700E-03
  1.13799074E-21  3.72674857E-19 -7.39656156E-19  2.44651450E-19  1.22209396E-04
  4.38430960E-25  3.06945227E-21 -7.71757636E-21  1.58061016E-21  1.25664517E-06
 -1.40654400E-20 -1.81806301E-17  7.04982071E-19  4.34915007E-22  8.60742007E-18
  1.30098307E-17 -1.80547955E-17  6.59325781E-18  7.33056817E-02 -1.25705456E-16
 -8.66438671E-16  8.14919256E-16  1.66047944E-16  3.50013253E-01  9.67427758E-17
 -1.49860446E-15 -2.76796389E-23 -1.48337361E-19  3.17489213E-19 -7.44984598E-20
  3.36490292E-05 -3.62107321E-20 -7.29263666E-18  1.33405337E-17 -3.67689393E-19
  9.63007553E-04 -5.46121217E-18 -1.79757353E-16  2.55523437E-16 -3.78117609E-17
  2.64262250E-02  4.72695431E-19 -6.40810977E-17  7.26928895E-17 -5.69279917E-17
  2.04761766E-02  1.53962312E-20  1.50240311E-19 -2.97996127E-19  2.63997804E-19
  6.04511439E-04  7.25201839E-23 -1.08111541E-20  1.92143191E-20 -1.06308906E-20
  2.68462191E-05 -3.98461107E-18 -8.58843281E-16  3.43078017E-19  1.28497444E-21
  7.68446248E-18 -2.04839005E-16  8.14906867E-17 -2.43156700E-16  7.33033790E-02
 -1.43129668E-16 -2.01316307E-15 -4.28880201E-16 -1.85043991E-15  3.50014718E-01
 -3.51562084E-18 -5.70711411E-16 -6.00055767E-15 -7.47333272E-23 -4.14108392E-17
 -6.76738376E-17 -1.38128988E-17  1.64835203E-03  0.00000000E+00 -1.99876498E-18
 -4.62834839E-18  1.39994124E-18  6.31121590E-05  0.00000000E+00 -4.02838669E-21
 -1.45207943E-20  1.74788151E-21  1.35990927E-07  0.00000000E+00 -1.58077988E-22
 -6.36005532E-22 -1.29751844E-22  6.32765727E-09  0.00000000E+00 -3.01972404E-21
 -9.52302894E-21 -5.48226475E-21  1.36181931E-07  0.00000000E+00 -1.52993083E-18
 -2.84538439E-18 -2.37885424E-18  6.31570064E-05 -1.87744537E-18 -3.70586071E-22
 -2.49874299E-22 -1.30881666E-18  0.00000000E+00 -1.11470570E-27 -6.05846796E-27
 -1.23614930E-27  4.93853654E-14  0.00000000E+00  0.00000000E+00  0.00000000E+00
  0.00000000E+00  0.00000000E+00 -4.79023313E-27  0.00000000E+00 -3.58043679E-27
 -1.59859989E-15 -2.12834963E-17 -3.51918163E-16 -3.76828185E-16 -7.69143551E-17
  2.15710392E-01 -5.32263219E-18 -1.48925099E-16 -2.21315371E-16  6.69414854E-17
  3.03534562E-02 -9.19946402E-21 -4.30739772E-18 -8.54728922E-18  1.02884515E-18
  9.24609145E-04  6.84929411E-23 -1.23044200E-19 -2.61990153E-19 -5.34487573E-20
  1.75600623E-04  1.05419881E-20  2.44788038E-18  4.30616531E-18  2.47899470E-18
  9.25318841E-04  4.32753296E-18  5.68889136E-17  7.32868316E-17  6.12706987E-17
  3.03664320E-02 -1.44355909E-16 -6.34093073E-19  4.38150870E-19  7.20554202E-17
  1.11470570E-27 -2.29588740E-41  4.72410345E-25  9.63890082E-26  3.34593589E-07
  0.00000000E+00 -1.83759927E-23 -6.12044343E-23 -2.04907727E-24  5.90673343E-09
  3.52608844E-22 -5.06270678E-25 -5.94373172E-22 -3.97032089E-16 -1.59859989E-15
  3.53363943E-17  4.00277236E-16  3.47774651E-16  1.10522988E-16 -2.34274100E-01
  1.23359781E-17  2.11320494E-16  2.83272510E-16 -1.04002021E-16 -4.35292983E-02
  3.31852014E-20  8.47328630E-18  1.58502607E-17 -2.08048311E-18 -1.82535833E-03
 -2.75764844E-22  2.68580627E-19  5.39921648E-19  1.18233413E-19 -3.78538078E-04
 -3.32025010E-20 -4.13680770E-18 -6.66888158E-18 -4.30822528E-18 -1.59450928E-03
 -8.04073773E-18 -5.91719289E-17 -6.12381499E-17 -7.05418401E-17 -3.49031267E-02
  1.59136391E-16  1.26081717E-18 -6.98610105E-19 -4.56759623E-17 -6.05846796E-27
  4.72410345E-25  1.46936794E-39  0.00000000E+00 -9.60701970E-07  0.00000000E+00
  6.12040507E-23  1.98105632E-22  6.82527784E-24 -1.96733396E-08 -9.10971516E-22
  1.69034850E-24  1.64715341E-21  0.00000000E+00  0.00000000E+00 -1.59859989E-15
  7.21250716E-18  8.17005381E-17  1.10522988E-16 -1.71154211E-16 -4.78176581E-02
 -3.73127583E-18 -6.39183247E-17 -1.04002021E-16 -2.91111707E-17  1.31663511E-02
 -3.99453354E-21 -1.01993735E-18 -2.08048311E-18 -1.18324280E-18  2.19720079E-04
 -5.62589397E-23  5.47932835E-20  1.18233413E-19 -1.55030473E-20 -7.72257644E-05
 -1.91141812E-20 -2.38149807E-18 -4.30822528E-18 -1.66541156E-18 -9.17935050E-04
 -6.72237573E-18 -4.94700800E-17 -7.05418401E-17 -3.58377393E-17 -2.91803986E-02
 -1.35756723E-16 -3.56411379E-19 -5.62684324E-19 -9.17563644E-17 -1.23614930E-27
  9.63890082E-26  1.83670992E-40 -4.59177481E-41 -1.96018379E-07  0.00000000E+00
  2.04906442E-24  6.82527784E-24 -5.53190389E-24 -6.58648239E-10 -3.40639304E-22
  9.65453045E-26 -2.16857520E-22  0.00000000E+00  0.00000000E+00  0.00000000E+00
 -1.59859989E-15  1.64835203E-03  2.15710392E-01  2.34274100E-01  4.78176581E-02
 -1.93713044E-16  6.31121590E-05  3.03534562E-02  4.35292983E-02 -1.31663511E-02
 -6.05687677E-17  1.35990927E-07  9.24609145E-04  1.82535833E-03 -2.19720079E-04
 -1.43367249E-18  6.32765727E-09  1.75600623E-04  3.78538078E-04  7.72257644E-05
 -3.96239119E-20  1.36181931E-07  9.25318841E-04  1.59450928E-03  9.17935050E-04
  8.14769035E-19  6.31570064E-05  3.03664320E-02  3.49031267E-02  2.91803986E-02
  2.31380375E-17  2.20813743E-02  1.08644830E-04  1.08729171E-04  2.20841071E-02
  4.93853654E-14  3.34593589E-07  9.60701970E-07  1.96018379E-07 -9.18354962E-41
  0.00000000E+00  5.90673343E-09  1.96733396E-08  6.58648239E-10 -5.76040893E-24
  1.62628939E-07  2.19645635E-10  1.14819116E-07  7.18554879E-02  8.38743577E-01
  0.00000000E+00  0.00000000E+00 -1.59859989E-15  0.00000000E+00  2.47992047E-18
  5.74939097E-18 -1.51654448E-18  6.96459408E-05  0.00000000E+00  6.14690568E-21
  1.96239200E-20 -9.85134408E-21  2.01970833E-07  0.00000000E+00  2.87024487E-24
  1.28511417E-23 -3.82766996E-24  9.80737454E-11  0.00000000E+00  5.36951507E-25
  2.62526523E-24 -4.29190991E-26  1.62907301E-11  0.00000000E+00  2.09479024E-22
  8.41932751E-22  1.90478613E-22  5.57087484E-09  0.00000000E+00  4.50058527E-19
  1.22995771E-18  2.91265298E-19  1.15146085E-05  9.28331757E-21  2.41977997E-25
  8.77079632E-23  3.37157920E-18  0.00000000E+00  0.00000000E+00  0.00000000E+00
  0.00000000E+00  0.00000000E+00  0.00000000E+00  0.00000000E+00  0.00000000E+00
  0.00000000E+00  0.00000000E+00  5.60677443E-29  0.00000000E+00  0.00000000E+00
  7.58051686E-22  8.49662950E-17  9.49787076E-17 -9.75567173E-17  3.17928639E-03
  2.09570409E-15 -7.91841116E-19  3.29194434E-17  4.31653381E-17 -1.13859287E-17
  3.22091962E-02 -1.55999951E-20 -2.56058194E-18 -4.61824425E-18  2.31839068E-18
  1.14818593E-03 -6.00770692E-24 -3.09410548E-20 -7.37146848E-20  2.19556746E-20
  1.89238950E-05  2.19536302E-25  1.74736456E-20  4.51928604E-20 -7.38834626E-22
  7.27987600E-06  4.38205644E-22  9.44669637E-19  2.03877087E-18  4.61250910E-19
  1.63982323E-04  8.12868387E-19  5.40520558E-17  8.84488629E-17  2.09455043E-17
  1.11239601E-02 -2.81086012E-18 -4.01325127E-21  2.80679038E-19  1.73670682E-16
  0.00000000E+00  1.83759927E-23  6.12040507E-23  2.04906442E-24  5.90673343E-09
  0.00000000E+00  0.00000000E+00  0.00000000E+00  0.00000000E+00  2.58514806E-11
  4.51026707E-23  9.49193473E-28 -1.27308342E-24 -6.27336574E-17  1.00110120E-16
  2.17683408E-17 -2.23591995E-17  2.98547576E-01  5.20494076E-16  2.09570409E-15
  1.83771004E-18 -5.28423182E-17 -6.32672102E-17  2.02404926E-17 -4.63511177E-02
  4.97594779E-20  4.36327289E-18  7.25911749E-18 -4.07469868E-18 -2.01176990E-03
  2.68842509E-23  7.30522563E-20  1.65042036E-19 -5.20715717E-20 -4.48813834E-05
 -1.07266654E-24 -4.52300935E-20 -1.11799596E-19  1.91778450E-21 -1.88358978E-05
 -1.76228272E-21 -2.03194807E-18 -4.13770777E-18 -1.00487704E-18 -3.53259626E-04
 -2.22269761E-18 -8.67219059E-17 -1.31503333E-16 -3.59310083E-17 -1.79076109E-02
  3.74705998E-18  9.42703709E-21 -5.61700690E-19 -2.01718730E-16  0.00000000E+00
 -6.12044343E-23 -1.98105632E-22 -6.82527784E-24 -1.96733396E-08  0.00000000E+00
  0.00000000E+00  0.00000000E+00  0.00000000E+00 -9.80205188E-11 -1.34550493E-22
 -3.54728129E-27  4.03151689E-24  6.92459445E-17 -1.21872869E-16 -8.57793103E-18
  7.09175996E-17 -2.12602110E-01  0.00000000E+00  0.00000000E+00  2.09570409E-15
 -4.84741609E-19  1.39384722E-17  2.02404926E-17  8.12784528E-18  1.22262570E-02
 -2.49796035E-20 -2.19039329E-18 -4.07469868E-18  1.18782716E-18  1.00992246E-03
 -8.00738506E-24 -2.17583725E-20 -5.20715717E-20  5.72461897E-21  1.33677713E-05
  1.75364686E-26  7.39443330E-22  1.91778450E-21  5.47563677E-21  3.07938321E-07
 -3.98698314E-22 -4.59707322E-19 -1.00487704E-18  7.65968152E-20 -7.99213520E-05
 -5.26355238E-19 -2.05365450E-17 -3.59310083E-17  1.17176573E-17 -4.24068698E-03
 -3.39693357E-18 -3.85481598E-21 -2.45032946E-19 -1.41343184E-16  0.00000000E+00
 -2.04907727E-24 -6.82527784E-24  5.53190389E-24 -6.58648239E-10  0.00000000E+00
  0.00000000E+00  0.00000000E+00  0.00000000E+00  9.36809216E-12 -2.51323206E-23
  2.07344018E-28 -9.84856169E-25 -7.11254891E-17  1.25180868E-16  7.09175996E-17
 -1.23769004E-17  2.18372775E-01  0.00000000E+00  0.00000000E+00  0.00000000E+00
  2.09570409E-15  6.96459408E-05  3.22091962E-02  4.63511177E-02 -1.22262570E-02
  1.34667773E-17  2.01970833E-07  1.14818593E-03  2.01176990E-03 -1.00992246E-03
 -8.57699874E-19  9.80737454E-11  1.89238950E-05  4.48813834E-05 -1.33677713E-05
 -9.78472611E-21  1.62907301E-11  7.27987600E-06  1.88358978E-05 -3.07938321E-07
  5.50698963E-21  5.57087484E-09  1.63982323E-04  3.53259626E-04  7.99213520E-05
  3.03939895E-19  1.15146085E-05  1.11239601E-02  1.79076109E-02  4.24068698E-03
  2.02264506E-17  7.93025129E-04  1.41288422E-06  3.92845890E-05  2.84464891E-02
  0.00000000E+00  5.90673343E-09  1.96733396E-08  6.58648239E-10  5.76040893E-24
  0.00000000E+00  2.58514806E-11  9.80205188E-11 -9.36809216E-12  0.00000000E+00
  8.53779403E-09  1.17733247E-12  6.14107769E-10  3.17928639E-03  2.98547576E-01
  2.12602110E-01 -2.18372775E-01  6.04656176E-17  7.18554879E-02  8.38743577E-01
  0.00000000E+00  0.00000000E+00  2.09570409E-15 -4.11916488E-18 -2.52221768E-16
 -2.58043609E-16 -2.02366322E-16  6.08350507E-02 -5.54826877E-18 -1.69361672E-16
 -2.44281612E-16 -3.03849767E-17  2.39715440E-02 -1.92361258E-20 -4.83226131E-18
 -8.89104536E-18 -1.34482583E-18  7.24208683E-04  3.88667633E-23 -1.66434632E-19
 -3.24547655E-19 -1.39878851E-19  5.90862507E-05  1.25988909E-21  7.34421754E-20
  1.29168530E-19  1.07948628E-19  1.32539400E-04  2.57044374E-19 -4.38707548E-19
  1.64785890E-20  2.02409454E-20  3.86325406E-03 -3.90803571E-16 -1.31673924E-18
  2.30461686E-20  2.41230704E-18  4.79023313E-27 -3.52608844E-22 -9.10971516E-22
 -3.40639304E-22  1.62628939E-07 -5.60677443E-29 -4.51026707E-23 -1.34550493E-22
 -2.51323206E-23  8.53779403E-09 -9.75752147E-41 -1.44176560E-24 -1.63193163E-21
 -1.12763769E-16 -1.77156547E-15 -3.76753543E-16 -1.62553502E-15  3.50014722E-01
  1.05582971E-17 -1.54188594E-16  6.08512782E-17 -1.81571619E-16  7.33033803E-02
 -5.50345343E-15 -3.80110715E-20  1.01606138E-18  1.55170524E-18 -1.86880427E-19
  3.37353700E-03 -1.13799074E-21 -3.72674857E-19 -7.39656156E-19  2.44651450E-19
  1.22209396E-04 -4.38430960E-25 -3.06945227E-21 -7.71757636E-21  1.58061016E-21
  1.25664517E-06  9.26974472E-27  5.19880140E-22  1.40038938E-21  3.02326060E-23
  3.26022098E-07  1.22294243E-23  4.00108946E-20  9.25285061E-20  2.05127554E-20
  8.04531946E-06  2.25763217E-20  3.44232403E-18  6.25118703E-18  1.42408136E-18
  8.16913077E-04 -7.04982071E-19 -4.34915007E-22  1.40654400E-20  1.81806301E-17
  0.00000000E+00  5.06270678E-25  1.69034850E-24  9.65453045E-26  2.19645635E-10
  0.00000000E+00 -9.49193473E-28 -3.54728129E-27  2.07344018E-28  1.17733247E-12
  1.44176560E-24  0.00000000E+00 -1.04256569E-25 -8.60742007E-18 -1.30098307E-17
 -1.80547955E-17  6.59325781E-18  7.33056817E-02  1.25705456E-16  8.66438671E-16
  8.14919256E-16  1.66047944E-16  3.50013253E-01 -9.67427758E-17  1.49860446E-15
 -4.72695431E-19  6.40810977E-17  7.26928895E-17 -5.69279917E-17  2.04761766E-02
 -1.53962312E-20 -1.50240311E-19 -2.97996127E-19  2.63997804E-19  6.04511439E-04
 -7.25201839E-23  1.08111541E-20  1.92143191E-20 -1.06308906E-20  2.68462191E-05
  2.76796389E-23  1.48337361E-19  3.17489213E-19 -7.44984598E-20  3.36490292E-05
  3.62107321E-20  7.29263666E-18  1.33405337E-17 -3.67689393E-19  9.63007553E-04
  5.46121217E-18  1.79757353E-16  2.55523437E-16 -3.78117609E-17  2.64262250E-02
 -3.43078017E-19 -1.28497444E-21  3.98461107E-18  8.58843281E-16  3.58043679E-27
  5.94373172E-22  1.64715341E-21 -2.16857520E-22  1.14819116E-07  0.00000000E+00
  1.27308342E-24  4.03151689E-24 -9.84856169E-25  6.14107769E-10  1.63193163E-21
  1.04256569E-25  1.79366203E-42 -7.68446248E-18  2.04839005E-16  8.14906867E-17
 -2.43156700E-16  7.33033790E-02  1.43129668E-16  2.01316307E-15 -4.28880201E-16
 -1.85043991E-15  3.50014718E-01  3.51562084E-18  5.70711411E-16  6.00055767E-15
Multipole Matrix (2,0,0)                   R   N=        1830
  6.70245180E+00  1.68327484E+00  7.51273710E+00  3.71191477E-01  4.33278622E+00
  8.19655734E+00  0.00000000E+00  0.00000000E+00  0.00000000E+00  7.17977692E+00
  0.00000000E+00  0.00000000E+00  0.00000000E+00  0.00000000E+00  7.17977692E+00
  2.77710771E-06  3.63970559E-02 -3.71557177E-02  4.75886870E-02 -9.74887738E-17
  7.27614078E-01  2.39785126E-01  1.42691677E+00 -4.59306809E-02  1.17975669E+00
 -2.41681460E-15  1.99349858E-01  1.53789938E+00  2.70775297E-01  1.75019683E+00
  3.32300677E-01  1.64620791E+00 -3.37237274E-15  1.19940477E-01  1.40002257E+00
  2.22171962E+00 -2.91500494E-01 -1.02178622E+00  1.96865169E-01 -2.99920747E-01
  2.25577321E-15  0.00000000E+00  0.00000000E+00  0.00000000E+00  1.20493920E+00
  5.97159274E-16  2.09320096E-15 -4.03292152E-16  2.25577321E-15  8.01224349E-01
  0.00000000E+00  0.00000000E+00  0.00000000E+00  0.00000000E+00  1.20493920E+00
  0.00000000E+00  4.61772224E-03 -1.04022153E-02  3.37252139E-03 -7.65434589E-18
  2.62145594E-07  1.03178605E-01 -1.68258611E-01 -3.27108044E-02  4.71548000E-17
  3.08601892E+00  1.06645405E-02  8.64789026E-02 -8.58380958E-02  4.58115626E-02
 -1.03974892E-16  2.28121166E-02  4.56002078E-01 -5.38675988E-01 -8.28495338E-02
  1.19433113E-16  7.85088922E-01  3.89630422E+00  2.37837281E-02  1.37521966E-01
 -7.62453911E-02  7.83158784E-02 -1.77747374E-16  3.74099799E-02  1.27198399E-01
  2.13096957E-01 -3.76586000E-02  5.42873765E-17 -2.51184169E-01 -2.93198355E+00
  4.58012446E+00 -7.78586284E-03 -4.05242337E-02  4.73162939E-02  1.63414986E-02
  5.42672013E-17  6.97513744E-03  9.95110344E-02 -1.41133904E-01  2.24419885E-01
  3.25557776E-17  0.00000000E+00  0.00000000E+00  0.00000000E+00  3.56334404E+00
  1.76709590E-17  9.19746580E-17 -1.07390062E-16  5.42672013E-17  4.02517451E-02
 -1.00551245E-17 -1.43451774E-16  2.03453910E-16  3.25557776E-17  2.47003496E-01
  0.00000000E+00  0.00000000E+00  0.00000000E+00  0.00000000E+00  3.56334404E+00
  0.00000000E+00  2.36372579E-03 -6.26258087E-03 -1.25526279E-03  1.80941503E-18
  0.00000000E+00  1.10474783E-02 -1.95352293E-02 -1.68727774E-02  3.09996496E-17
  4.43973970E-06  2.48820842E-01 -1.42303098E-01 -3.87393489E-01  7.44040662E-16
  6.70245180E+00  2.36372579E-03  3.38965356E-02 -5.28300838E-02 -1.20850339E-02
  1.74201308E-17  1.04475480E-03  1.17400733E-01 -1.77820920E-01 -1.07138238E-01
  1.96840613E-16  1.25639016E-01  2.06128282E+00 -1.78761725E+00 -1.96260885E+00
  3.76945103E-15  1.68327484E+00  7.51273710E+00  6.26258087E-03  5.28300838E-02
 -5.67791270E-02 -2.09438738E-02  3.01898219E-17  1.93337663E-03  5.70253476E-02
 -3.36577185E-02 -6.12221547E-02  1.12480909E-16  5.75482967E-02 -5.09850132E-01
  1.19609684E+00  3.31478005E-01 -6.36647548E-16 -3.71191477E-01 -4.33278622E+00
  8.19655734E+00  1.25526279E-03  1.20850339E-02 -2.09438738E-02  1.05565945E-02
  6.84186725E-18  1.59631805E-03  1.25436147E-01 -1.97138019E-01 -7.67725717E-02
  2.33793803E-16  2.00204497E-01  2.08381578E+00 -1.99654567E+00 -1.42705632E+00
  4.97544801E-15  0.00000000E+00  0.00000000E+00  0.00000000E+00  7.17977692E+00
 -1.80941503E-18 -1.74201308E-17  3.01898219E-17  6.84186725E-18  1.53030685E-02
 -2.93284850E-18 -2.30458596E-16  3.62193452E-16  2.33793803E-16  5.04788927E-02
 -3.84519334E-16 -4.00224505E-15  3.83463121E-15  4.97544801E-15  1.16346898E+00
  0.00000000E+00  0.00000000E+00  0.00000000E+00  0.00000000E+00  7.17977692E+00
  0.00000000E+00  1.04475480E-03 -1.93337663E-03 -1.59631805E-03  2.93284850E-18
  0.00000000E+00  2.86955389E-04 -2.76014482E-04 -7.22214981E-04  1.38712402E-18
  0.00000000E+00  1.60916757E-03  5.60493324E-04 -3.62426252E-03  7.16541725E-18
  2.77710771E-06  3.63970559E-02  3.71557177E-02 -4.75886870E-02  9.74887738E-17
  7.27614078E-01  1.10474783E-02  1.17400733E-01 -5.70253476E-02 -1.25436147E-01
  2.30458596E-16  2.86955389E-04  2.81012620E-02 -1.16080407E-02 -4.09973516E-02
  7.87416665E-17  5.55305656E-03  1.64535481E-01 -6.00085676E-02 -2.35592286E-01
  4.65782217E-16  2.39785126E-01  1.42691677E+00  4.59306809E-02 -1.17975669E+00
  2.41681460E-15  1.99349858E-01  1.53789938E+00  1.95352293E-02  1.77820920E-01
 -3.36577185E-02 -1.97138019E-01  3.62193452E-16  2.76014482E-04  1.16080407E-02
  2.47160402E-02 -1.76063093E-02  3.38156023E-17 -2.90111992E-03 -1.46615720E-01
  9.89875338E-02  2.14544084E-01 -4.24168467E-16 -2.70775297E-01 -1.75019683E+00
  3.32300677E-01  1.64620791E+00 -3.37237274E-15 -1.19940477E-01 -1.40002257E+00
  2.22171962E+00  1.68727774E-02  1.07138238E-01 -6.12221547E-02 -7.67725717E-02
  2.33793803E-16  7.22214981E-04  4.09973516E-02 -1.76063093E-02 -5.32512298E-02
  1.21863397E-16  1.25259665E-02  2.24927993E-01 -8.19487729E-02 -2.86733748E-01
  6.97443510E-16  2.91500494E-01  1.02178622E+00  1.96865169E-01 -2.99920747E-01
  2.25577321E-15  0.00000000E+00  0.00000000E+00  0.00000000E+00  1.20493920E+00
 -3.09996496E-17 -1.96840613E-16  1.12480909E-16  2.33793803E-16  5.04788927E-02
 -1.38712402E-18 -7.87416665E-17  3.38156023E-17  1.21863397E-16  1.01977262E-02
 -2.47647007E-17 -4.44698173E-16  1.62018383E-16  6.97443510E-16  6.60326416E-02
 -5.97159274E-16 -2.09320096E-15 -4.03292152E-16  2.25577321E-15  8.01224349E-01
  0.00000000E+00  0.00000000E+00  0.00000000E+00  0.00000000E+00  1.20493920E+00
  4.43973970E-06  1.25639016E-01 -5.75482967E-02 -2.00204497E-01  3.84519334E-16
  0.00000000E+00  5.55305656E-03  2.90111992E-03 -1.25259665E-02  2.47647007E-17
  0.00000000E+00  1.10614142E-03  2.02159606E-03 -2.20000966E-03  4.50682137E-18
  0.00000000E+00  4.61772224E-03  1.04022153E-02 -3.37252139E-03  7.65434589E-18
  2.62145594E-07  1.03178605E-01  1.68258611E-01  3.27108044E-02 -4.71548000E-17
  3.08601892E+00  2.48820842E-01  2.06128282E+00  5.09850132E-01 -2.08381578E+00
  4.00224505E-15  1.60916757E-03  1.64535481E-01  1.46615720E-01 -2.24927993E-01
  4.44698173E-16  1.10614142E-03  3.03729144E-02  2.88115947E-02 -3.74360039E-02
  7.66893824E-17  1.06645405E-02  8.64789026E-02  8.58380958E-02 -4.58115626E-02
  1.03974892E-16  2.28121166E-02  4.56002078E-01  5.38675988E-01  8.28495338E-02
 -1.19433113E-16  7.85088922E-01  3.89630422E+00  1.42303098E-01  1.78761725E+00
  1.19609684E+00 -1.99654567E+00  3.83463121E-15 -5.60493324E-04  6.00085676E-02
  9.89875338E-02 -8.19487729E-02  1.62018383E-16 -2.02159606E-03 -2.88115947E-02
  2.47348227E-03  3.85526666E-02 -7.89769176E-17 -2.37837281E-02 -1.37521966E-01
 -7.62453911E-02  7.83158784E-02 -1.77747374E-16 -3.74099799E-02 -1.27198399E-01
  2.13096957E-01 -3.76586000E-02  5.42873765E-17  2.51184169E-01  2.93198355E+00
  4.58012446E+00  3.87393489E-01  1.96260885E+00  3.31478005E-01 -1.42705632E+00
  4.97544801E-15  3.62426252E-03  2.35592286E-01  2.14544084E-01 -2.86733748E-01
  6.97443510E-16  2.20000966E-03  3.74360039E-02  3.85526666E-02 -3.79833254E-02
  1.02816127E-16  7.78586284E-03  4.05242337E-02  4.73162939E-02  1.63414986E-02
  5.42672013E-17 -6.97513744E-03 -9.95110344E-02 -1.41133904E-01  2.24419885E-01
  3.25557776E-17  0.00000000E+00  0.00000000E+00  0.00000000E+00  3.56334404E+00
 -7.44040662E-16 -3.76945103E-15 -6.36647548E-16  4.97544801E-15  1.16346898E+00
 -7.16541725E-18 -4.65782217E-16 -4.24168467E-16  6.97443510E-16  6.60326416E-02
 -4.50682137E-18 -7.66893824E-17 -7.89769176E-17  1.02816127E-16  1.22064766E-02
 -1.76709590E-17 -9.19746580E-17 -1.07390062E-16  5.42672013E-17  4.02517451E-02
  1.00551245E-17  1.43451774E-16  2.03453910E-16  3.25557776E-17  2.47003496E-01
  0.00000000E+00  0.00000000E+00  0.00000000E+00  0.00000000E+00  3.56334404E+00
  3.47995535E-02  5.10012953E-01  1.24517400E-01  6.24259281E-01 -1.23892437E-15
  5.28659130E-02  1.09420594E+00  1.06707072E+00  8.90315812E-01 -1.70994897E-15
  1.46787295E-02  1.29707787E-01  6.77011451E-02  1.03357274E-01 -1.88065856E-16
  5.56315570E-04  1.29524404E-02  5.64224883E-03  1.75278374E-02 -3.27792848E-17
  8.17743929E-06  2.37086376E-03  1.64585469E-03  3.95744672E-03 -7.60083184E-18
  2.87843181E-04  2.50084045E-02  1.35737908E-02  4.07469362E-02 -7.98559426E-17
  2.87947634E+00  5.29896781E-04  9.58784361E-03 -1.31489751E-02  8.26360221E-03
 -1.78088770E-17  3.12406279E-03  2.41883103E-01 -4.03504051E-01  7.93503750E-02
 -1.87226058E-16  2.11372441E-01  3.40416727E+00 -3.68063089E+00  2.33565556E+00
 -4.78478643E-15  3.63832305E-02  8.70363944E-01 -5.31603549E-01  1.09631031E+00
 -2.15940669E-15  8.71970375E-05  2.95045340E-02 -3.32028263E-02  4.46432999E-02
 -8.90865344E-17  3.13673036E-05  2.69123735E-03 -3.95736116E-03  3.70299332E-03
 -7.58579229E-18  1.26972338E-01  1.04213395E+01  5.56315570E-04  1.29524404E-02
 -5.64224883E-03 -1.75278374E-02  3.27792848E-17  8.17743929E-06  2.37086376E-03
 -1.64585469E-03 -3.95744672E-03  7.60083184E-18  2.87843181E-04  2.50084045E-02
 -1.35737908E-02 -4.07469362E-02  7.98559426E-17  3.47995535E-02  5.10012953E-01
 -1.24517400E-01 -6.24259281E-01  1.23892437E-15  5.28659130E-02  1.09420594E+00
 -1.06707072E+00 -8.90315812E-01  1.70994897E-15  1.46787295E-02  1.29707787E-01
 -6.77011451E-02 -1.03357274E-01  1.88065856E-16  1.64834345E-04  5.15832497E-03
  2.87947634E+00  3.63832305E-02  8.70363944E-01  5.31603549E-01 -1.09631031E+00
  2.15940669E-15  8.71970375E-05  2.95045340E-02  3.32028263E-02 -4.46432999E-02
  8.90865344E-17  3.13673036E-05  2.69123735E-03  3.95736116E-03 -3.70299332E-03
  7.58579229E-18  5.29896781E-04  9.58784361E-03  1.31489751E-02 -8.26360221E-03
  1.78088770E-17  3.12406279E-03  2.41883103E-01  4.03504051E-01 -7.93503750E-02
  1.87226058E-16  2.11372441E-01  3.40416727E+00  3.68063089E+00 -2.33565556E+00
  4.78478643E-15  5.15832497E-03  1.71275753E-04  1.26972338E-01  1.04213395E+01
  0.00000000E+00  2.71960134E-06 -1.10107149E-05 -2.23343668E-06  3.21972528E-21
  0.00000000E+00  6.20479166E-05 -1.96875536E-04 -1.12541131E-04  1.99590415E-19
  0.00000000E+00  3.18362844E-02 -5.98104349E-02 -4.94514218E-02  9.05069534E-17
  1.02315204E-06  7.48296512E-01 -1.23387426E+00 -2.48326235E-01  3.58049547E-16
  0.00000000E+00  3.13082224E-02 -7.32408069E-02  2.19554031E-02 -5.05497345E-17
  0.00000000E+00  6.09020240E-05 -2.21231975E-04  2.64651249E-05 -7.48145883E-20
  5.52003002E-06  2.92598874E-02  2.86317168E-02  5.38541893E-06  2.95658240E+01
  5.22712281E-07  9.46656148E-04 -2.53807564E-03 -4.18371955E-04  6.03125565E-19
  9.45486378E-07  9.93286969E-03 -2.10887196E-02 -9.76097175E-03  1.73109723E-17
  4.34145239E-03  6.54898398E-01 -9.39711187E-01 -6.11815872E-01  1.11975730E-15
  1.99968509E-01  5.11624249E+00 -6.94857514E+00 -1.08497075E+00  1.56436666E-15
  1.38602603E-03  5.15661325E-01 -8.89464117E-01  2.15325233E-01 -4.95761034E-16
  4.87592915E-06  7.08848088E-03 -1.72042894E-02  1.67753934E-03 -4.74225667E-18
  1.16826480E-03  6.26796300E-01  4.52046220E-01  7.05391646E-04  7.36167661E+00
  3.03761093E+01  2.13386967E-06  1.60046274E-03 -4.10916151E-03 -7.31945801E-04
  1.05517404E-18  3.12236009E-06  1.33388398E-02 -2.63530527E-02 -1.36628407E-02
  2.42308924E-17  7.80392742E-03  5.69756643E-01 -6.50498652E-01 -5.97568772E-01
  1.09368198E-15  3.26475915E-01  4.12848361E+00 -4.56676197E+00 -1.19031547E+00
  1.71625811E-15  3.06367633E-03  5.98857421E-01 -9.30853853E-01  2.79925593E-01
 -6.44495767E-16  1.80095212E-05  1.11884759E-02 -2.59961828E-02  2.78532648E-03
 -7.87387381E-18  1.39493970E-03  2.11967582E-01  3.43135602E-01  1.08348475E-03
 -7.81010105E-01 -9.11645344E+00  3.10599295E+01  4.29829060E-07  4.31408821E-04
 -1.17239312E-03  1.18234843E-04  2.82236545E-19  1.72159732E-06  1.02002438E-02
 -2.21078322E-02 -7.01818460E-03  1.84154688E-17  6.73040842E-03  6.67207768E-01
 -1.01674121E+00 -4.16092393E-01  1.25163588E-15  6.85121589E-02  1.21536044E+00
 -1.95707084E+00  2.48278592E+00  4.68941959E-16 -9.68207534E-04 -2.42540402E-01
  4.45010154E-01  1.01658940E-01  2.56671450E-16 -2.12374857E-06 -1.77405100E-03
  4.40543095E-03  2.00464370E-03  1.23759614E-18  1.56176230E-03  8.27396019E-01
 -4.39032102E-01 -4.17516929E-04  0.00000000E+00  0.00000000E+00  0.00000000E+00
  3.00431491E+01 -6.19642142E-22 -6.21919527E-19  1.69012347E-18  2.82236545E-19
  3.14014731E-04 -3.05323324E-21 -1.80900163E-17  3.92079887E-17  1.84154688E-17
  3.36556900E-03 -1.23181243E-17 -1.22113663E-15  1.86085953E-15  1.25163588E-15
  2.67779637E-01 -9.87843569E-17 -1.75236924E-15  2.82180547E-15  4.68941959E-16
  2.80802189E+00  2.22918402E-18  5.58420761E-16 -1.02458356E-15  2.56671450E-16
  2.13139747E-01  6.00365105E-21  5.01508668E-18 -1.24537671E-17  1.23759614E-18
  2.44243447E-03 -2.85092339E-18 -1.57491075E-15  9.12569772E-16  9.71417203E-19
  0.00000000E+00  0.00000000E+00  0.00000000E+00  0.00000000E+00  3.00431491E+01
  0.00000000E+00  1.18496991E-08 -5.81887123E-08  9.47767607E-10 -7.93332036E-24
  0.00000000E+00  4.33120551E-06 -1.75036062E-05 -3.94304414E-06  5.88345593E-21
  0.00000000E+00  9.89447819E-03 -2.72250108E-02 -6.40960079E-03  9.69644219E-18
  0.00000000E+00  6.14921335E-02 -1.43518809E-01  3.76020561E-02 -8.84869323E-17
  0.00000000E+00  1.65447285E-04 -5.30539307E-04  2.64949852E-04 -5.73502105E-19
  0.00000000E+00  7.30979549E-08 -3.28517657E-07  9.74579109E-08 -2.24910014E-22
  1.76574913E-06  7.35396168E-02  2.65524459E-04  6.43935982E-09  1.21594898E-04
  2.25271792E+00 -2.62967194E+00  2.65511568E+00 -5.46359681E-15  5.16186327E+01
  1.18098356E-09  7.87851267E-05 -2.37243359E-04  3.33340397E-06 -2.79023691E-20
  3.01611425E-08  3.08606739E-03 -7.65147143E-03 -1.49830661E-03  2.23563842E-18
  8.50391785E-04  3.73767975E-01 -6.83776440E-01 -1.39299329E-01  2.10731984E-16
  1.00204154E-02  1.23654318E+00 -2.03627526E+00  4.57783430E-01 -1.07727756E-15
  5.00066903E-06  3.27163462E-02 -6.57677945E-02  2.84807967E-02 -6.16486355E-17
  2.90453934E-09  2.71396207E-04 -7.45492885E-04  1.91568741E-04 -4.42095751E-19
  7.62264330E-04  1.17746960E+00  2.70222160E-02  1.83547811E-05  1.37103661E+00
  1.64165580E+01 -1.51245261E+01  1.17551957E+01 -2.41893980E-14  1.28387649E+01
  5.24289180E+01  5.85410033E-09  1.71526561E-04 -4.99185998E-04  7.30109013E-06
 -6.11140184E-20  1.26341541E-07  5.69789782E-03 -1.34702363E-02 -2.81799864E-03
  4.20476420E-18  2.27243639E-03  5.28145438E-01 -8.98124037E-01 -2.12971980E-01
  3.22183949E-16  2.27974560E-02  1.55944636E+00 -2.32296727E+00  6.43073083E-01
 -1.51330992E-15  1.53966163E-05  4.92388361E-02 -9.19773882E-02  4.44820616E-02
 -9.62844697E-17  1.32842847E-08  5.45042543E-04 -1.43537093E-03  3.87719112E-04
 -8.94764828E-19  1.28371079E-03  1.08103213E+00  3.01826525E-02  3.58464015E-05
  1.56912159E+00  8.18851889E+00 -9.28867337E-01  8.73895163E+00 -1.79826848E-14
 -1.03219669E+00 -1.20484652E+01  5.31127382E+01 -9.46261725E-11 -3.35386325E-06
  1.01338430E-05  2.48068020E-05  1.19396989E-21  2.76180659E-08  1.52733270E-03
 -3.83265671E-03  2.47172048E-04  1.12507594E-18  5.49303261E-04  1.49493824E-01
 -2.88713119E-01  8.15075559E-02  9.04647241E-17 -6.11760012E-03 -4.97940330E-01
  8.81860475E-01  3.06902760E-01  4.76859363E-16 -7.97035209E-06 -2.94251495E-02
  6.06752465E-02 -1.54454344E-02  5.73360283E-17 -3.88419545E-09 -1.93128708E-04
  5.33016251E-04 -5.10228834E-05  3.16768563E-19  6.79509720E-04  9.80353682E-01
 -3.42957913E-02 -1.78335702E-05 -1.64818272E+00 -1.23689802E+01  1.42493867E+01
 -1.98836970E+00  2.44117908E-14  0.00000000E+00  0.00000000E+00  0.00000000E+00
  5.20959578E+01  7.92071532E-25  2.80736242E-20 -8.48256704E-20  1.19396989E-21
  2.49494417E-05 -4.12091947E-23 -2.27894852E-18  5.71874574E-18  1.12507594E-18
  1.00118876E-03 -8.30985811E-19 -2.26154212E-16  4.36765122E-16  9.04647241E-17
  1.41307094E-01  1.43962252E-17  1.17177667E-15 -2.07523567E-15  4.76859363E-16
  5.09541637E-01  1.72523731E-20  6.36927521E-17 -1.31335728E-16  5.73360283E-17
  1.10429988E-02  8.96381264E-24  4.45695788E-19 -1.23007657E-18  3.16768563E-19
  8.62391347E-05 -1.16553164E-18 -1.77050842E-15  7.10383491E-17  3.94501839E-20
  3.39156818E-15  2.54524206E-14 -2.93218500E-14  2.44117908E-14  9.87490107E+00
  0.00000000E+00  0.00000000E+00  0.00000000E+00  0.00000000E+00  5.20959578E+01
  3.89535432E-07  2.12639961E-04 -5.41437821E-04 -1.81217582E-04  3.10304715E-19
  1.31296197E-07  1.06879586E-03 -2.20003929E-03 -1.39262782E-03  2.54874754E-18
  2.57892623E-04  7.51444061E-02 -1.04907607E-01 -9.63026130E-02  1.80112895E-16
  3.28783983E-02  1.56042277E+00 -2.07072886E+00 -1.25379772E+00  2.28433518E-15
  1.30855721E-03  3.73650069E-01 -6.72547242E-01 -6.67948226E-02  7.43108912E-17
  1.06836262E-05  3.91890544E-03 -9.29974506E-03 -1.09330386E-03  1.38008903E-18
  9.52134663E-05  6.10556837E-02  8.59414904E-01  7.46128600E-04  1.83001065E+00
  1.60966042E+01 -7.38030300E+00 -1.48559143E+01  2.86920213E-14  2.95082148E-01
  4.51358590E+00  8.58868672E-01 -5.48622805E+00  1.09220217E-14  3.54971880E+01
  5.44515568E-11  3.65115432E-06 -1.14526985E-05 -2.12048833E-07 -6.15393175E-22
  8.77229006E-10  1.59908449E-04 -4.23175316E-04 -8.14249790E-05  1.20720617E-19
  2.40430491E-05  3.02345501E-02 -6.17423494E-02 -1.22621415E-02  1.83356396E-17
  4.53110699E-04  1.47511110E-01 -2.80288396E-01  2.94702146E-02 -8.32959432E-17
  3.59240406E-07  3.72619674E-03 -8.29883206E-03  2.39090590E-03 -5.43387075E-18
  2.15761296E-10  1.88712917E-05 -5.46542866E-05  9.66526126E-06 -2.38511694E-20
  4.57865359E-05  1.66311616E-01  6.02433863E-03  1.63320191E-06  1.79902769E-01
  5.47110574E+00 -7.56801449E+00  2.39367367E+00 -5.36863350E-15  3.27204369E+00
  3.35479587E+01 -3.67303641E+01 -6.34231005E+00  9.13907337E-15  2.83411229E+00
  8.55857357E+01  1.47743955E-07  1.64085758E-04 -4.45083970E-04  8.26423244E-05
 -1.98556288E-19  3.23736948E-06  9.91658624E-03 -2.23624042E-02  4.94836387E-04
 -2.85059695E-18  5.05915371E-03  6.38676133E-01 -1.09993432E+00  1.33844942E-01
 -3.56612639E-16  6.86725541E-03  5.95311420E-01 -8.57650328E-01  5.36623312E-01
 -1.12131514E-15  4.26317812E-06  1.09081147E-02 -1.91353555E-02  1.34366279E-02
 -2.78680967E-17  4.28571116E-08  1.92401198E-04 -4.73581020E-04  2.06674799E-04
 -4.43360616E-19  4.67869421E-03  3.34834937E+00  4.87385411E-03  9.86759509E-06
  1.74206802E-01  3.82867051E+00 -2.42111204E+00  4.62836974E+00 -9.21419131E-15
  3.13135590E+00  2.38025365E+01  2.27206269E-01  2.21009696E+01 -4.26847839E-14
  5.80905049E-01  9.85085318E+00  4.57252620E+01  1.02315204E-06  7.48296512E-01
  1.23387426E+00  2.48326235E-01 -3.58049547E-16  0.00000000E+00  3.13082224E-02
  7.32408069E-02 -2.19554031E-02  5.05497345E-17  0.00000000E+00  6.09020240E-05
  2.21231975E-04 -2.64651249E-05  7.48145883E-20  0.00000000E+00  2.71960134E-06
  1.10107149E-05  2.23343668E-06 -3.21972528E-21  0.00000000E+00  6.20479166E-05
  1.96875536E-04  1.12541131E-04 -1.99590415E-19  0.00000000E+00  3.18362844E-02
  5.98104349E-02  4.94514218E-02 -9.05069534E-17  2.86317168E-02  5.38541893E-06
  5.52003002E-06  2.92598874E-02  0.00000000E+00  1.85138430E-11  1.01152376E-10
  2.05418544E-11 -2.96145132E-26  0.00000000E+00  0.00000000E+00  0.00000000E+00
  0.00000000E+00  0.00000000E+00  9.08812682E-11  0.00000000E+00  4.98336489E-11
  2.95658240E+01  1.99968509E-01  5.11624249E+00  6.94857514E+00  1.08497075E+00
 -1.56436666E-15  1.38602603E-03  5.15661325E-01  8.89464117E-01 -2.15325233E-01
  4.95761034E-16  4.87592915E-06  7.08848088E-03  1.72042894E-02 -1.67753934E-03
  4.74225667E-18  5.22712281E-07  9.46656148E-04  2.53807564E-03  4.18371955E-04
 -6.03125565E-19  9.45486378E-07  9.93286969E-03  2.10887196E-02  9.76097175E-03
 -1.73109723E-17  4.34145239E-03  6.54898398E-01  9.39711187E-01  6.11815872E-01
 -1.11975730E-15  4.52046220E-01  7.05391646E-04  1.16826480E-03  6.26796300E-01
  1.85138430E-11  6.37007603E-07  1.83665231E-06  3.75045009E-07 -5.40690004E-22
  0.00000000E+00  1.87971425E-08  5.23203574E-08  2.09741895E-09  2.46831039E-24
  3.80683452E-07  6.73902121E-10  2.25006548E-07  7.36167661E+00  3.03761093E+01
 -3.26475915E-01 -4.12848361E+00 -4.56676197E+00 -1.19031547E+00  1.71625811E-15
 -3.06367633E-03 -5.98857421E-01 -9.30853853E-01  2.79925593E-01 -6.44495767E-16
 -1.80095212E-05 -1.11884759E-02 -2.59961828E-02  2.78532648E-03 -7.87387381E-18
 -2.13386967E-06 -1.60046274E-03 -4.10916151E-03 -7.31945801E-04  1.05517404E-18
 -3.12236009E-06 -1.33388398E-02 -2.63530527E-02 -1.36628407E-02  2.42308924E-17
 -7.80392742E-03 -5.69756643E-01 -6.50498652E-01 -5.97568772E-01  1.09368198E-15
 -3.43135602E-01 -1.08348475E-03 -1.39493970E-03 -2.11967582E-01 -1.01152376E-10
 -1.83665231E-06 -4.71690136E-06 -1.08565888E-06  1.56515855E-21  0.00000000E+00
 -7.29516190E-08 -1.95894583E-07 -8.14241561E-09 -9.58225778E-24 -8.15975258E-07
 -2.64102306E-09 -5.83959048E-07  7.81010105E-01  9.11645344E+00  3.10599295E+01
 -6.85121589E-02 -1.21536044E+00 -1.95707084E+00  2.48278592E+00  4.68941959E-16
  9.68207534E-04  2.42540402E-01  4.45010154E-01  1.01658940E-01  2.56671450E-16
  2.12374857E-06  1.77405100E-03  4.40543095E-03  2.00464370E-03  1.23759614E-18
 -4.29829060E-07 -4.31408821E-04 -1.17239312E-03  1.18234843E-04  2.82236545E-19
 -1.72159732E-06 -1.02002438E-02 -2.21078322E-02 -7.01818460E-03  1.84154688E-17
 -6.73040842E-03 -6.67207768E-01 -1.01674121E+00 -4.16092393E-01  1.25163588E-15
  4.39032102E-01  4.17516929E-04 -1.56176230E-03 -8.27396019E-01 -2.05418544E-11
 -3.75045009E-07 -1.08565888E-06 -2.04074821E-08  3.19676807E-22  0.00000000E+00
 -2.09684919E-09 -5.83996650E-09  5.66283713E-09 -2.75470899E-25 -3.71697258E-07
 -1.28512450E-10  8.28363539E-08  0.00000000E+00  0.00000000E+00  0.00000000E+00
  3.00431491E+01  9.87843569E-17  1.75236924E-15  2.82180547E-15  4.68941959E-16
  2.80802189E+00 -2.22918402E-18 -5.58420761E-16 -1.02458356E-15  2.56671450E-16
  2.13139747E-01 -6.00365105E-21 -5.01508668E-18 -1.24537671E-17  1.23759614E-18
  2.44243447E-03  6.19642142E-22  6.21919527E-19  1.69012347E-18  2.82236545E-19
  3.14014731E-04  3.05323324E-21  1.80900163E-17  3.92079887E-17  1.84154688E-17
  3.36556900E-03  1.23181243E-17  1.22113663E-15  1.86085953E-15  1.25163588E-15
  2.67779637E-01 -9.12569772E-16 -9.71417203E-19  2.85092339E-18  1.57491075E-15
  2.96145132E-26  5.40690004E-22  1.56515855E-21  3.19676807E-22  2.01333608E-07
  0.00000000E+00 -2.46763988E-24 -6.87266128E-24 -2.75470899E-25  5.89691542E-09
  6.22666209E-22  1.53572285E-26 -2.27984880E-22  0.00000000E+00  0.00000000E+00
  0.00000000E+00  0.00000000E+00  3.00431491E+01  0.00000000E+00  6.14921335E-02
  1.43518809E-01 -3.76020561E-02  8.84869323E-17  0.00000000E+00  1.65447285E-04
  5.30539307E-04 -2.64949852E-04  5.73502105E-19  0.00000000E+00  7.30979549E-08
  3.28517657E-07 -9.74579109E-08  2.24910014E-22  0.00000000E+00  1.18496991E-08
  5.81887123E-08 -9.47767607E-10  7.93332036E-24  0.00000000E+00  4.33120551E-06
  1.75036062E-05  3.94304414E-06 -5.88345593E-21  0.00000000E+00  9.89447819E-03
  2.72250108E-02  6.40960079E-03 -9.69644219E-18  2.65524459E-04  6.43935982E-09
  1.76574913E-06  7.35396168E-02  0.00000000E+00  0.00000000E+00  0.00000000E+00
  0.00000000E+00  0.00000000E+00  0.00000000E+00  0.00000000E+00  0.00000000E+00
  0.00000000E+00  0.00000000E+00  1.11545140E-12  0.00000000E+00  0.00000000E+00
  1.21594898E-04  2.25271792E+00  2.62967194E+00 -2.65511568E+00  5.46359681E-15
  5.16186327E+01  1.00204154E-02  1.23654318E+00  2.03627526E+00 -4.57783430E-01
  1.07727756E-15  5.00066903E-06  3.27163462E-02  6.57677945E-02 -2.84807967E-02
  6.16486355E-17  2.90453934E-09  2.71396207E-04  7.45492885E-04 -1.91568741E-04
  4.42095751E-19  1.18098356E-09  7.87851267E-05  2.37243359E-04 -3.33340397E-06
  2.79023691E-20  3.01611425E-08  3.08606739E-03  7.65147143E-03  1.49830661E-03
 -2.23563842E-18  8.50391785E-04  3.73767975E-01  6.83776440E-01  1.39299329E-01
 -2.10731984E-16  2.70222160E-02  1.83547811E-05  7.62264330E-04  1.17746960E+00
  0.00000000E+00  1.87971425E-08  7.29516190E-08  2.09684919E-09  2.46763988E-24
  0.00000000E+00  4.89695792E-11  1.85676930E-10 -1.77456579E-11  5.41770536E-26
  4.59886756E-08  2.24879301E-12  2.43958948E-09  1.37103661E+00  1.64165580E+01
  1.51245261E+01 -1.17551957E+01  2.41893980E-14  1.28387649E+01  5.24289180E+01
 -2.27974560E-02 -1.55944636E+00 -2.32296727E+00  6.43073083E-01 -1.51330992E-15
 -1.53966163E-05 -4.92388361E-02 -9.19773882E-02  4.44820616E-02 -9.62844697E-17
 -1.32842847E-08 -5.45042543E-04 -1.43537093E-03  3.87719112E-04 -8.94764828E-19
 -5.85410033E-09 -1.71526561E-04 -4.99185998E-04  7.30109013E-06 -6.11140184E-20
 -1.26341541E-07 -5.69789782E-03 -1.34702363E-02 -2.81799864E-03  4.20476420E-18
 -2.27243639E-03 -5.28145438E-01 -8.98124037E-01 -2.12971980E-01  3.22183949E-16
 -3.01826525E-02 -3.58464015E-05 -1.28371079E-03 -1.08103213E+00  0.00000000E+00
 -5.23203574E-08 -1.95894583E-07 -5.83996650E-09 -6.87266128E-24  0.00000000E+00
 -1.85676930E-10 -6.57981962E-10  6.72858402E-11 -2.05422002E-25 -1.11287325E-07
 -8.16087777E-12 -6.28013227E-09 -1.56912159E+00 -8.18851889E+00 -9.28867337E-01
  8.73895163E+00 -1.79826848E-14  1.03219669E+00  1.20484652E+01  5.31127382E+01
  6.11760012E-03  4.97940330E-01  8.81860475E-01  3.06902760E-01  4.76859363E-16
  7.97035209E-06  2.94251495E-02  6.06752465E-02 -1.54454344E-02  5.73360283E-17
  3.88419545E-09  1.93128708E-04  5.33016251E-04 -5.10228834E-05  3.16768563E-19
  9.46261725E-11  3.35386325E-06  1.01338430E-05  2.48068020E-05  1.19396989E-21
 -2.76180659E-08 -1.52733270E-03 -3.83265671E-03  2.47172048E-04  1.12507594E-18
 -5.49303261E-04 -1.49493824E-01 -2.88713119E-01  8.15075559E-02  9.04647241E-17
  3.42957913E-02  1.78335702E-05 -6.79509720E-04 -9.80353682E-01  0.00000000E+00
 -2.09741895E-09 -8.14241561E-09  5.66283713E-09 -2.75470899E-25  0.00000000E+00
  1.77456579E-11  6.72858402E-11  8.91776408E-12  1.96327490E-26 -2.56860809E-08
  4.91231546E-13  1.88953675E-09  1.64818272E+00  1.23689802E+01  1.42493867E+01
 -1.98836970E+00  2.44117908E-14  0.00000000E+00  0.00000000E+00  0.00000000E+00
  5.20959578E+01 -1.43962252E-17 -1.17177667E-15 -2.07523567E-15  4.76859363E-16
  5.09541637E-01 -1.72523731E-20 -6.36927521E-17 -1.31335728E-16  5.73360283E-17
  1.10429988E-02 -8.96381264E-24 -4.45695788E-19 -1.23007657E-18  3.16768563E-19
  8.62391347E-05 -7.92071532E-25 -2.80736242E-20 -8.48256704E-20  1.19396989E-21
  2.49494417E-05  4.12091947E-23  2.27894852E-18  5.71874574E-18  1.12507594E-18
  1.00118876E-03  8.30985811E-19  2.26154212E-16  4.36765122E-16  9.04647241E-17
  1.41307094E-01 -7.10383491E-17 -3.94501839E-20  1.16553164E-18  1.77050842E-15
  0.00000000E+00 -2.46831039E-24 -9.58225778E-24 -2.75470899E-25  5.89691542E-09
  0.00000000E+00 -5.41770536E-26 -2.05422002E-25  1.96327490E-26  1.53484580E-11
  3.58115597E-23 -1.84204708E-27 -4.50647040E-24 -3.39156818E-15 -2.54524206E-14
 -2.93218500E-14  2.44117908E-14  9.87490107E+00  0.00000000E+00  0.00000000E+00
  0.00000000E+00  0.00000000E+00  5.20959578E+01  3.28783983E-02  1.56042277E+00
  2.07072886E+00  1.25379772E+00 -2.28433518E-15  1.30855721E-03  3.73650069E-01
  6.72547242E-01  6.67948226E-02 -7.43108912E-17  1.06836262E-05  3.91890544E-03
  9.29974506E-03  1.09330386E-03 -1.38008903E-18  3.89535432E-07  2.12639961E-04
  5.41437821E-04  1.81217582E-04 -3.10304715E-19  1.31296197E-07  1.06879586E-03
  2.20003929E-03  1.39262782E-03 -2.54874754E-18  2.57892623E-04  7.51444061E-02
  1.04907607E-01  9.63026130E-02 -1.80112895E-16  8.59414904E-01  7.46128600E-04
  9.52134663E-05  6.10556837E-02  9.08812682E-11  3.80683452E-07  8.15975258E-07
  3.71697258E-07 -6.22666209E-22  1.11545140E-12  4.59886756E-08  1.11287325E-07
  2.56860809E-08 -3.58115597E-23  8.29995348E-08  1.73964710E-09  4.69420812E-07
  1.83001065E+00  1.60966042E+01  7.38030300E+00  1.48559143E+01 -2.86920213E-14
  2.95082148E-01  4.51358590E+00 -8.58868672E-01  5.48622805E+00 -1.09220217E-14
  3.54971880E+01  4.53110699E-04  1.47511110E-01  2.80288396E-01 -2.94702146E-02
  8.32959432E-17  3.59240406E-07  3.72619674E-03  8.29883206E-03 -2.39090590E-03
  5.43387075E-18  2.15761296E-10  1.88712917E-05  5.46542866E-05 -9.66526126E-06
  2.38511694E-20  5.44515568E-11  3.65115432E-06  1.14526985E-05  2.12048833E-07
  6.15393175E-22  8.77229006E-10  1.59908449E-04  4.23175316E-04  8.14249790E-05
 -1.20720617E-19  2.40430491E-05  3.02345501E-02  6.17423494E-02  1.22621415E-02
 -1.83356396E-17  6.02433863E-03  1.63320191E-06  4.57865359E-05  1.66311616E-01
  0.00000000E+00  6.73902121E-10  2.64102306E-09  1.28512450E-10 -1.53572285E-26
  0.00000000E+00  2.24879301E-12  8.16087777E-12 -4.91231546E-13  1.84204708E-27
  1.73964710E-09  0.00000000E+00  1.41072279E-10  1.79902769E-01  5.47110574E+00
  7.56801449E+00 -2.39367367E+00  5.36863350E-15  3.27204369E+00  3.35479587E+01
  3.67303641E+01  6.34231005E+00 -9.13907337E-15  2.83411229E+00  8.55857357E+01
  6.86725541E-03  5.95311420E-01  8.57650328E-01 -5.36623312E-01  1.12131514E-15
  4.26317812E-06  1.09081147E-02  1.91353555E-02 -1.34366279E-02  2.78680967E-17
  4.28571116E-08  1.92401198E-04  4.73581020E-04 -2.06674799E-04  4.43360616E-19
  1.47743955E-07  1.64085758E-04  4.45083970E-04 -8.26423244E-05  1.98556288E-19
  3.23736948E-06  9.91658624E-03  2.23624042E-02 -4.94836387E-04  2.85059695E-18
  5.05915371E-03  6.38676133E-01  1.09993432E+00 -1.33844942E-01  3.56612639E-16
  4.87385411E-03  9.86759509E-06  4.67869421E-03  3.34834937E+00  4.98336489E-11
  2.25006548E-07  5.83959048E-07 -8.28363539E-08  2.27984880E-22  0.00000000E+00
  2.43958948E-09  6.28013227E-09 -1.88953675E-09  4.50647040E-24  4.69420812E-07
  1.41072279E-10  6.02443044E-09  1.74206802E-01  3.82867051E+00  2.42111204E+00
 -4.62836974E+00  9.21419131E-15  3.13135590E+00  2.38025365E+01 -2.27206269E-01
 -2.21009696E+01  4.26847839E-14  5.80905049E-01  9.85085318E+00  4.57252620E+01
Multipole Matrix (1,1,0)                   R   N=        1830
  1.36066755E+00  3.37938644E-01  1.36066755E+00  3.78533143E-02  4.41848287E-01
  1.36066755E+00  1.85595739E-01  2.16639311E+00  5.08390209E-01  1.36066755E+00
  0.00000000E+00  0.00000000E+00  0.00000000E+00  0.00000000E+00  1.36066755E+00
  2.40087839E-06  8.40159741E-02 -8.76292496E-02  1.08192885E-01 -2.16514830E-16
  2.08667141E+00  5.93022445E-02  9.26337276E-01 -2.68387393E-01  1.21438481E+00
 -1.46423842E-15  5.18250698E-01  2.08667141E+00  6.91365615E-02  1.10214180E+00
 -1.12501659E-01  1.50906849E+00 -2.07790684E-15  1.79654531E-01  2.09704350E+00
  2.08667141E+00 -6.97893231E-02 -3.11471623E-01  2.25191574E-01 -2.73479090E-01
  8.45916210E-16  5.99702384E-02  7.00011283E-01  5.08390209E-01  2.08667141E+00
  1.55799756E-16  1.50356079E-15 -7.62988687E-16  2.33045650E-15  5.28785334E-01
  0.00000000E+00  0.00000000E+00  0.00000000E+00  0.00000000E+00  2.08667141E+00
  0.00000000E+00 -5.44050185E-03  1.20843233E-02 -4.12539635E-03  9.01600086E-18
 -9.55696037E-07 -1.22669975E-01  2.00298242E-01  3.58494377E-02 -5.73800019E-17
 -3.44921213E+00  2.60180654E-03  2.72863775E-02  4.33104246E-03  4.01083861E-02
 -3.28053201E-17  6.59742786E-02 -3.66080968E-01  8.94372040E-01 -9.39754005E-03
 -8.19885581E-17 -8.56654571E-01 -3.44921213E+00  5.74144221E-03  7.56845794E-02
 -4.04063382E-02  9.72262439E-02 -8.68065955E-17  1.07321257E-01  1.21790075E-01
  3.18890991E-01  5.41467189E-02  3.05640587E-17  1.41800422E-01  1.65518594E+00
 -3.44921213E+00 -1.65975980E-03  6.80104562E-04  4.41721190E-03 -4.28832675E-03
  2.65179818E-18  2.22141985E-02 -2.76288457E-01  5.61208600E-01 -1.66630236E-01
 -8.30424540E-17 -1.25592084E-01 -1.46599177E+00  5.08390209E-01 -3.44921213E+00
  4.30616090E-18  1.68449300E-17  1.85199402E-17  3.78304545E-17  9.01212415E-03
 -2.97040642E-17  1.38367560E-16 -3.34789279E-16 -8.45918748E-18 -2.09021860E-01
  0.00000000E+00  0.00000000E+00  0.00000000E+00  0.00000000E+00 -3.44921213E+00
  0.00000000E+00  4.73018492E-04 -1.24288432E-03 -3.05245311E-04  3.62163527E-19
  0.00000000E+00  1.73767827E-03 -3.03915866E-03 -2.90250386E-03  4.88629358E-18
 -1.46069810E-06  3.84790255E-02 -1.90983372E-02 -6.11393392E-02  1.05023575E-16
  1.36066755E+00  4.73018492E-04  1.32352884E-03 -3.19958850E-03  2.42539949E-03
  1.13323369E-18  2.95311143E-03 -4.51280764E-02  8.75454544E-02  8.31676063E-03
 -6.75151600E-17 -1.25353618E-01 -5.61208725E-01  4.63055716E-01  7.05818076E-02
 -1.22274891E-15  3.37938644E-01  1.36066755E+00  1.24288432E-03  3.19958850E-03
 -7.08193687E-03  1.33838159E-02  2.76653175E-18  5.33507501E-03 -1.02218099E-02
  4.14670580E-02 -2.34386089E-03 -9.48868909E-18 -6.03406943E-02 -1.87368979E-02
 -2.06517484E-01  5.85809548E-02 -1.87498350E-16 -3.78533143E-02 -4.41848287E-01
  1.36066755E+00  3.05245311E-04 -2.42539949E-03  1.33838159E-02  3.05244191E-03
 -1.04395961E-18  4.58137144E-03 -8.12670832E-02  1.51088816E-01  3.24414701E-02
 -1.36115035E-16 -1.98940460E-01 -1.07835080E+00  8.36175176E-01  4.40120768E-01
 -2.54710859E-15 -1.85595739E-01 -2.16639311E+00  5.08390209E-01  1.36066755E+00
 -3.62163527E-19 -1.13323369E-18  2.76653175E-18 -1.04395961E-18  1.16410291E-03
 -8.29669682E-18  7.16000886E-17 -1.50421630E-16 -1.12587637E-17 -1.49088175E-02
  3.73142172E-16  9.13131318E-16 -9.34276435E-16 -3.11469206E-16 -3.20401052E-01
  0.00000000E+00  0.00000000E+00  0.00000000E+00  0.00000000E+00  1.36066755E+00
  0.00000000E+00  2.95311143E-03 -5.33507501E-03 -4.58137144E-03  8.29669682E-18
  0.00000000E+00  7.26176789E-04 -6.63403948E-04 -1.84809378E-03  3.51599902E-18
  0.00000000E+00  3.70252196E-03  1.47690152E-03 -8.44326171E-03  1.65156039E-17
  2.40087839E-06  8.40159741E-02  8.76292496E-02 -1.08192885E-01  2.16514830E-16
  2.08667141E+00  1.73767827E-03 -4.51280764E-02  1.02218099E-02  8.12670832E-02
 -7.16000886E-17  7.26176789E-04  2.03137513E-03  1.19973396E-03 -4.68824255E-03
  1.09993037E-17 -5.55496844E-03  1.77790362E-02  3.61490017E-04 -6.35715886E-02
  1.88224655E-17  5.93022445E-02  9.26337276E-01  2.68387393E-01 -1.21438481E+00
  1.46423842E-15  5.18250698E-01  2.08667141E+00  3.03915866E-03 -8.75454544E-02
  4.14670580E-02  1.51088816E-01 -1.50421630E-16  6.63403948E-04 -1.19973396E-03
  3.66568565E-03  1.04738842E-02 -5.30403440E-19  2.73521039E-03 -2.67689773E-02
 -1.02296600E-03  7.32651865E-02 -6.89783875E-17 -6.91365615E-02 -1.10214180E+00
 -1.12501659E-01  1.50906849E+00 -2.07790684E-15 -1.79654531E-01 -2.09704350E+00
  2.08667141E+00  2.90250386E-03 -8.31676063E-03 -2.34386089E-03  3.24414701E-02
 -1.12587637E-17  1.84809378E-03  4.68824255E-03  1.04738842E-02 -9.84744725E-03
  2.57769794E-17 -1.27134235E-02 -1.57967656E-02  1.27603577E-02 -2.80999407E-02
 -8.50351877E-17  6.97893231E-02  3.11471623E-01  2.25191574E-01 -2.73479090E-01
  8.45916210E-16 -5.99702384E-02 -7.00011283E-01  5.08390209E-01  2.08667141E+00
 -4.88629358E-18  6.75151600E-17 -9.48868909E-18 -1.36115035E-16 -1.49088175E-02
 -3.51599902E-18 -1.09993037E-17 -5.30403440E-19  2.57769794E-17  1.78675087E-03
  2.47951931E-17 -6.83130406E-17 -9.18828390E-18  2.08058237E-16  5.87059624E-03
 -1.55799756E-16 -1.50356079E-15 -7.62988687E-16  2.33045650E-15  5.28785334E-01
  0.00000000E+00  0.00000000E+00  0.00000000E+00  0.00000000E+00  2.08667141E+00
 -1.46069810E-06 -1.25353618E-01  6.03406943E-02  1.98940460E-01 -3.73142172E-16
  0.00000000E+00 -5.55496844E-03 -2.73521039E-03  1.27134235E-02 -2.47951931E-17
  0.00000000E+00 -1.19866402E-03 -2.15365497E-03  2.42155913E-03 -4.88584636E-18
  0.00000000E+00 -5.44050185E-03 -1.20843233E-02  4.12539635E-03 -9.01600086E-18
 -9.55696037E-07 -1.22669975E-01 -2.00298242E-01 -3.58494377E-02  5.73800019E-17
 -3.44921213E+00  3.84790255E-02 -5.61208725E-01  1.87368979E-02  1.07835080E+00
 -9.13131318E-16  3.70252196E-03  1.77790362E-02  2.67689773E-02  1.57967656E-02
  6.83130406E-17 -1.19866402E-03 -3.35418730E-03 -4.15730209E-03  5.29079896E-03
 -1.52892494E-17  2.60180654E-03  2.72863775E-02 -4.33104246E-03 -4.01083861E-02
  3.28053201E-17  6.59742786E-02 -3.66080968E-01 -8.94372040E-01  9.39754005E-03
  8.19885581E-17 -8.56654571E-01 -3.44921213E+00  1.90983372E-02 -4.63055716E-01
 -2.06517484E-01  8.36175176E-01 -9.34276435E-16 -1.47690152E-03 -3.61490017E-04
 -1.02296600E-03  1.27603577E-02 -9.18828390E-18  2.15365497E-03  4.15730209E-03
  3.42081066E-03  1.68248650E-03  2.15588796E-17 -5.74144221E-03 -7.56845794E-02
 -4.04063382E-02  9.72262439E-02 -8.68065955E-17 -1.07321257E-01 -1.21790075E-01
  3.18890991E-01  5.41467189E-02  3.05640587E-17 -1.41800422E-01 -1.65518594E+00
 -3.44921213E+00  6.11393392E-02 -7.05818076E-02  5.85809548E-02  4.40120768E-01
 -3.11469206E-16  8.44326171E-03  6.35715886E-02  7.32651865E-02 -2.80999407E-02
  2.08058237E-16 -2.42155913E-03 -5.29079896E-03  1.68248650E-03  6.79251521E-03
 -2.60017086E-17  1.65975980E-03 -6.80104562E-04  4.41721190E-03 -4.28832675E-03
  2.65179818E-18 -2.22141985E-02  2.76288457E-01  5.61208600E-01 -1.66630236E-01
 -8.30424540E-17  1.25592084E-01  1.46599177E+00  5.08390209E-01 -3.44921213E+00
 -1.05023575E-16  1.22274891E-15 -1.87498350E-16 -2.54710859E-15 -3.20401052E-01
 -1.65156039E-17 -1.88224655E-17 -6.89783875E-17 -8.50351877E-17  5.87059624E-03
  4.88584636E-18  1.52892494E-17  2.15588796E-17 -2.60017086E-17 -2.95012330E-03
 -4.30616090E-18 -1.68449300E-17  1.85199402E-17  3.78304545E-17  9.01212415E-03
  2.97040642E-17 -1.38367560E-16 -3.34789279E-16 -8.45918748E-18 -2.09021860E-01
  0.00000000E+00  0.00000000E+00  0.00000000E+00  0.00000000E+00 -3.44921213E+00
  8.96281275E-03  4.61961432E-01 -1.37193250E-02  7.13016631E-01 -1.12039023E-15
  1.40263737E-01  2.04469506E+00  1.76446469E+00  2.21644481E+00 -3.51796070E-15
 -1.78059978E-02 -4.38825245E-02  1.62933921E-01 -6.40490393E-02  5.61129082E-17
  7.82616024E-05 -7.51148246E-03 -1.54047850E-04 -1.29526532E-02  1.61318519E-17
  2.05620504E-05  2.86253992E-04  7.03182147E-04  8.16901608E-04 -1.25747957E-18
 -2.78581530E-04  8.52876168E-03  2.38473752E-03  2.06126256E-02 -2.55186566E-17
  6.67671062E+00  1.38283186E-04  3.67177808E-04  7.79694695E-03  1.39919552E-03
 -2.50455213E-19  9.31481607E-03 -3.07270679E-01  5.81231715E-01 -1.48057955E-01
  2.33775650E-16 -2.31825391E-01 -3.37858027E+00  3.02578302E+00 -3.19406774E+00
  4.89306979E-15  5.27568380E-03 -3.83713244E-01  1.37804446E-01 -6.78360172E-01
  9.57202169E-16  1.92204591E-04 -2.05407986E-03  9.01304161E-04 -1.12943073E-02
  6.33877371E-18 -3.39347546E-05 -4.72033050E-04  1.13693534E-03 -1.19090377E-03
  1.74593381E-18 -1.55747665E-01 -1.10309448E+01  7.82616024E-05 -7.51148246E-03
  1.54047850E-04  1.29526532E-02 -1.61318519E-17  2.05620504E-05  2.86253992E-04
 -7.03182147E-04 -8.16901608E-04  1.25747957E-18 -2.78581530E-04  8.52876168E-03
 -2.38473752E-03 -2.06126256E-02  2.55186566E-17  8.96281275E-03  4.61961432E-01
  1.37193250E-02 -7.13016631E-01  1.12039023E-15  1.40263737E-01  2.04469506E+00
 -1.76446469E+00 -2.21644481E+00  3.51796070E-15 -1.78059978E-02 -4.38825245E-02
 -1.62933921E-01  6.40490393E-02 -5.61129082E-17  5.88316794E-06  7.72673795E-04
  6.67671062E+00  5.27568380E-03 -3.83713244E-01 -1.37804446E-01  6.78360172E-01
 -9.57202169E-16  1.92204591E-04 -2.05407986E-03 -9.01304161E-04  1.12943073E-02
 -6.33877371E-18 -3.39347546E-05 -4.72033050E-04 -1.13693534E-03  1.19090377E-03
 -1.74593381E-18  1.38283186E-04  3.67177808E-04 -7.79694695E-03 -1.39919552E-03
  2.50455213E-19  9.31481607E-03 -3.07270679E-01 -5.81231715E-01  1.48057955E-01
 -2.33775650E-16 -2.31825391E-01 -3.37858027E+00 -3.02578302E+00  3.19406774E+00
 -4.89306979E-15  7.72673795E-04 -9.70221895E-06 -1.55747665E-01 -1.10309448E+01
  0.00000000E+00  5.52458166E-07 -2.23040948E-06 -4.85245810E-07  6.54075509E-22
  0.00000000E+00  1.12489005E-05 -3.56009478E-05 -2.11161759E-05  3.62214117E-20
  0.00000000E+00  5.82323855E-03 -1.08885550E-02 -9.38408729E-03  1.65702130E-17
  2.07818276E-07  1.52128643E-01 -2.49102982E-01 -5.91073579E-02  7.27923207E-17
  0.00000000E+00  7.00507869E-03 -1.63042216E-02  4.58192088E-03 -1.13022213E-17
  0.00000000E+00  1.37167227E-05 -4.96379212E-05  5.27157936E-06 -1.68371469E-20
  9.57672893E-07  5.14839319E-03  6.60964275E-03  1.25574300E-06  6.02617227E+00
  1.04160504E-07  1.26590299E-04 -3.25991999E-04 -3.00028571E-04  8.12474102E-20
  2.90188182E-06 -2.34864536E-03  4.62844189E-03  2.06876237E-04 -4.03208632E-18
 -4.01535736E-03 -6.63399026E-02  1.00769685E-01 -3.42447320E-02 -1.27583941E-16
  4.02367109E-02  9.87400033E-01 -1.19809635E+00 -1.02702281E+00  3.03575637E-16
  2.91749771E-03  2.59882936E-01 -4.24031173E-01  2.23195137E-02 -2.55813089E-16
 -6.33133973E-06  4.31184583E-03 -9.76093336E-03 -6.31547135E-04 -2.83366759E-18
 -4.91971604E-04 -1.24687550E-01  2.85445819E-01  5.93051196E-04  1.49667455E+00
  6.02617227E+00  4.22679761E-07  2.36822404E-04 -6.03685884E-04 -5.27900747E-04
  1.58871087E-19  9.49354080E-06 -3.23674884E-03  5.88266226E-03  1.36383217E-04
 -5.54942213E-18 -7.34191589E-03 -5.08078505E-02  6.89125274E-02 -4.12430040E-02
 -1.10756661E-16  6.66365227E-02  9.75626977E-01 -9.66110311E-01 -1.04358609E+00
  3.92275137E-16  6.59785925E-03  3.26774633E-01 -4.87798815E-01  4.50561312E-02
 -3.55307492E-16 -2.31424074E-05  7.19794812E-03 -1.56642432E-02 -9.33841990E-04
 -4.85014111E-18 -6.40545992E-04 -6.02438653E-02  2.58868208E-01  9.62420983E-04
 -7.96773295E-02 -9.30045156E-01  6.02617227E+00  9.91567512E-08 -1.98069023E-04
  5.06621299E-04  2.31894816E-05 -1.24887541E-19  5.35101760E-06 -4.40332974E-03
  8.74829896E-03  1.55772811E-03 -7.68101941E-18 -6.35658055E-03 -1.64038968E-01
  2.34674410E-01  4.42112055E-02 -3.06677389E-16  9.19880927E-03 -6.75826156E-01
  7.56491510E-01  5.04359002E-01 -1.98450660E-16 -2.11058515E-03 -2.16328705E-01
  3.65467673E-01  4.43197785E-02  2.25416946E-16  2.93723768E-06 -2.81178758E-03
  6.47302725E-03  1.13454433E-03  1.90201073E-18 -8.97703656E-04 -2.52752176E-01
 -3.52402743E-01 -5.34322556E-04 -3.90505053E-01 -4.55822672E+00  5.08390209E-01
  6.02617227E+00 -1.23501976E-22 -8.50825104E-20  2.23670814E-19  1.92587177E-19
  4.29270859E-05 -9.37306013E-21  3.92566347E-18 -7.81449089E-18 -1.92471299E-19
 -7.37985793E-04  1.14084375E-17  9.13069339E-17 -1.56929599E-16  7.69113874E-17
 -2.39763304E-02 -1.98866095E-17 -3.41939484E-16  5.05046804E-16  3.54323020E-16
  5.48540577E-01  4.70129671E-18  2.64372846E-16 -4.64712909E-16  3.53730493E-17
  1.04004107E-01 -7.78577154E-21  2.93129554E-18 -6.76462736E-18 -3.87935929E-19
  1.42315860E-03  1.14210823E-18  2.90845391E-16  5.54257287E-16  7.85419766E-19
  0.00000000E+00  0.00000000E+00  0.00000000E+00  0.00000000E+00  6.02617227E+00
  0.00000000E+00 -1.19988875E-09  5.87927770E-09 -2.03881397E-10  8.03042706E-25
  0.00000000E+00 -4.94407304E-07  1.99149573E-06  4.12064772E-07 -6.70795192E-22
  0.00000000E+00 -1.06410731E-03  2.91671551E-03  6.09393755E-04 -1.04177347E-18
  0.00000000E+00 -5.55007442E-03  1.29155025E-02 -3.87799033E-03  7.99021737E-18
  0.00000000E+00 -1.27794177E-05  4.09473713E-05 -2.18833426E-05  4.43829910E-20
  0.00000000E+00 -5.97250661E-09  2.68166586E-08 -8.62628682E-09  1.83966151E-23
 -2.12757830E-07 -8.19669471E-03 -1.89361695E-05 -4.95951644E-10  4.06116874E-06
 -1.87648029E-01  2.06636376E-01 -2.32864674E-01  4.33168886E-16 -4.93036655E+00
  2.94389079E-10 -1.70816200E-05  4.85366415E-05 -1.73945712E-05  6.03784714E-21
  9.86362716E-08 -1.38025558E-03  3.21780429E-03  1.54163317E-04 -9.97585187E-19
 -7.88093151E-04 -1.03604722E-01  1.81097220E-01 -8.49537888E-03 -5.94161390E-17
  1.65913899E-03 -2.23417469E-02  2.64442547E-02 -1.57159446E-01  1.59458173E-17
  9.34354280E-06  6.76088425E-03 -1.28814922E-02  1.40534555E-03 -1.28192411E-17
 -3.83029173E-09  5.52547796E-05 -1.42674271E-04 -1.23123188E-05 -8.96442579E-20
 -4.57476634E-04 -4.05599058E-01  8.06660860E-03  6.44323931E-06  2.50399374E-01
  5.13574689E-01 -6.14238279E-01 -1.31963690E+00 -1.07075302E-15 -1.22451762E+00
 -4.93036655E+00  1.44956906E-09 -3.98796533E-05  1.09367685E-04 -4.04613498E-05
  1.41403480E-20  4.12544988E-07 -2.71293749E-03  5.99733741E-03  3.20819398E-04
 -1.98245792E-18 -2.13084347E-03 -1.52822884E-01  2.48528522E-01 -7.96177004E-03
 -9.39203603E-17  3.81353091E-03 -4.26249902E-02  4.90690953E-02 -2.12831852E-01
  3.66133384E-17  2.92695145E-05  1.05395625E-02 -1.85131544E-02  2.23501942E-03
 -2.04356557E-17 -1.73548819E-08  1.18160045E-04 -2.90736321E-04 -2.68500825E-05
 -1.91739946E-19 -8.27465809E-04 -4.14917439E-01  9.60138072E-03  1.35571788E-05
  2.79076899E-01  1.91239934E-01 -9.77675423E-02 -8.17760683E-01 -6.79296930E-16
  4.93249468E-02  5.75752577E-01 -4.93036655E+00  9.45904680E-12 -1.60866864E-05
  4.58016208E-05 -5.36240032E-06  5.70247919E-21  9.24452582E-08 -1.19910130E-03
  2.81794244E-03 -1.05221916E-04 -8.75298451E-19 -5.33373641E-04 -9.11559470E-02
  1.63238034E-01 -2.06251465E-02 -5.41060478E-17 -1.21189140E-03 -1.51750230E-01
  2.37851192E-01 -1.19336491E-02  1.36523794E-16 -1.51691305E-05 -1.04801915E-02
  2.01952373E-02 -3.15116671E-03  2.01677958E-17  5.23754238E-09 -9.04839853E-05
  2.34266401E-04 -1.04321631E-05  1.47354617E-19 -5.37340920E-04 -4.85683110E-01
 -1.35731170E-02 -1.00776315E-05 -3.07524916E-01 -2.14220139E+00  1.95689071E+00
 -1.16392237E-01  3.62686115E-15 -5.16098347E-01 -6.02423261E+00  5.08390209E-01
 -4.93036655E+00  1.97172339E-25 -6.06183341E-21  1.72676162E-20 -6.15334680E-21
 -5.38559155E-06 -1.34754948E-22  1.00355694E-18 -2.36247254E-18 -1.18307685E-19
 -4.41922572E-04  7.71210879E-19  5.98868061E-17 -1.10984172E-16  3.18453880E-18
 -3.82951061E-02  2.38704882E-18 -2.91815179E-17  4.12066547E-17 -1.44439083E-16
 -1.07354157E-02  3.23147366E-20  1.25373909E-17 -2.44006487E-17  2.64216674E-18
  2.21098276E-03 -1.18062083E-23  8.95343893E-20 -2.31442398E-19 -2.03012533E-20
  1.73352975E-05  6.86719141E-19  5.89909309E-16  2.01937127E-17  1.37033487E-20
  5.96281032E-16  4.43243101E-16 -8.69110185E-16 -2.04272148E-15  2.96328686E-01
  0.00000000E+00  0.00000000E+00  0.00000000E+00  0.00000000E+00 -4.93036655E+00
  6.58597346E-08  9.82319462E-05 -2.53097397E-04 -1.43402015E-04  1.41976495E-19
  3.83347350E-07 -2.27287354E-05  4.77211724E-05 -2.40267862E-04 -4.86104532E-20
 -2.35636498E-04  5.33967340E-03 -5.87503652E-03 -2.00260187E-02  1.26678384E-17
  7.43549126E-03  6.30819406E-01 -7.46978374E-01 -7.48160746E-01  9.33147706E-16
  2.94007865E-03  2.89031833E-01 -4.78993223E-01 -1.19159030E-01  5.71678032E-17
 -1.38824519E-05  3.94372483E-03 -8.83771140E-03 -2.10372556E-03  1.34806218E-18
 -2.15554916E-05 -1.94804574E-03  7.68003175E-01  9.54255704E-04  4.13035641E-01
  6.00262403E+00 -1.95290533E+00 -7.48440728E+00  1.06530529E-14 -2.27490179E-02
  7.41021936E-01  2.34073315E-01 -1.36417421E+00  1.74054452E-15  1.84809872E+01
  1.28821393E-11 -5.03698138E-07  1.49020739E-06 -7.86009143E-07  8.48474833E-23
  2.85333888E-09 -6.35959606E-05  1.58656808E-04  4.47416533E-06 -4.80610971E-20
 -2.20643502E-05 -7.12525048E-03  1.37900008E-02 -1.05250171E-03 -4.34469037E-18
  7.87293158E-05  4.50862914E-03 -8.21138873E-03 -1.68890383E-02 -2.56257501E-18
  6.83980652E-07  1.02515191E-03 -2.16133380E-03  1.26023937E-04 -1.50277118E-18
 -2.86049261E-10  5.54953246E-06 -1.51435987E-05 -8.88822544E-07 -7.01386961E-21
 -2.55113207E-05 -4.77704547E-02  2.21624483E-03  7.52334420E-07  3.41138339E-02
  3.19261303E-01 -4.23867265E-01 -3.67084051E-01 -3.12962218E-16 -2.94711071E-01
 -1.86674246E+00  1.94125891E+00 -2.44344110E+00 -5.16664429E-16  5.03346970E-01
 -2.50744641E+00  3.91895276E-08 -1.02644373E-04  2.66842908E-04 -9.75563961E-05
  1.22802370E-19  1.04687129E-05 -8.53850289E-03  1.77865042E-02 -2.62593883E-03
  2.42860082E-18 -5.10818774E-03 -3.38255805E-01  5.38629635E-01 -1.68579792E-01
  1.88796692E-16  1.01963898E-03 -1.21877682E-01  1.57244942E-01 -1.97364861E-01
  2.32264916E-16  8.45293820E-06  6.96716956E-04 -1.19383510E-03 -1.10423047E-03
 -1.82501253E-18 -5.09303084E-08 -4.00314786E-06  9.11068914E-06 -5.46953703E-05
  1.00338675E-20 -5.08138308E-03 -1.97533936E+00  9.27649339E-04  1.51341735E-06
  3.08335994E-02 -4.46949876E-01  2.06647092E-01 -9.68136900E-01  1.06139623E-15
 -3.55742175E-01 -5.87044507E+00 -7.20603513E-01 -7.82891353E+00  1.03932376E-14
  1.73511999E-02 -1.76478073E+00 -1.81829019E+01  2.07818276E-07  1.52128643E-01
  2.49102982E-01  5.91073579E-02 -7.27923207E-17  0.00000000E+00  7.00507869E-03
  1.63042216E-02 -4.58192088E-03  1.13022213E-17  0.00000000E+00  1.37167227E-05
  4.96379212E-05 -5.27157936E-06  1.68371469E-20  0.00000000E+00  5.52458166E-07
  2.23040948E-06  4.85245810E-07 -6.54075509E-22  0.00000000E+00  1.12489005E-05
  3.56009478E-05  2.11161759E-05 -3.62214117E-20  0.00000000E+00  5.82323855E-03
  1.08885550E-02  9.38408729E-03 -1.65702130E-17  6.60964275E-03  1.25574300E-06
  9.57672893E-07  5.14839319E-03  0.00000000E+00  3.75841446E-12  2.04870932E-11
  4.40776889E-12 -6.01208019E-27  0.00000000E+00  0.00000000E+00  0.00000000E+00
  0.00000000E+00  0.00000000E+00  1.70902444E-11  0.00000000E+00  1.17189971E-11
  6.02617227E+00  4.02367109E-02  9.87400033E-01  1.19809635E+00  1.02702281E+00
 -3.03575637E-16  2.91749771E-03  2.59882936E-01  4.24031173E-01 -2.23195137E-02
  2.55813089E-16 -6.33133973E-06  4.31184583E-03  9.76093336E-03  6.31547135E-04
  2.83366759E-18  1.04160504E-07  1.26590299E-04  3.25991999E-04  3.00028571E-04
 -8.12474102E-20  2.90188182E-06 -2.34864536E-03 -4.62844189E-03 -2.06876237E-04
  4.03208632E-18 -4.01535736E-03 -6.63399026E-02 -1.00769685E-01  3.42447320E-02
  1.27583941E-16  2.85445819E-01  5.93051196E-04 -4.91971604E-04 -1.24687550E-01
  3.75841446E-12  7.55444728E-10  4.02917586E-09  1.15932189E-10 -1.22941736E-24
  0.00000000E+00 -7.80388796E-09 -2.06930643E-08 -6.03430244E-09 -1.02419564E-24
 -9.33041519E-08 -2.16579776E-10  5.88338606E-08  1.49667455E+00  6.02617227E+00
 -6.66365227E-02 -9.75626977E-01 -9.66110311E-01 -1.04358609E+00  3.92275137E-16
 -6.59785925E-03 -3.26774633E-01 -4.87798815E-01  4.50561312E-02 -3.55307492E-16
  2.31424074E-05 -7.19794812E-03 -1.56642432E-02 -9.33841990E-04 -4.85014111E-18
 -4.22679761E-07 -2.36822404E-04 -6.03685884E-04 -5.27900747E-04  1.58871087E-19
 -9.49354080E-06  3.23674884E-03  5.88266226E-03  1.36383217E-04 -5.54942213E-18
  7.34191589E-03  5.08078505E-02  6.89125274E-02 -4.12430040E-02 -1.10756661E-16
 -2.58868208E-01 -9.62420983E-04  6.40545992E-04  6.02438653E-02 -2.04870932E-11
 -4.02917586E-09 -2.03795253E-08  1.96948512E-07  6.32184841E-24  0.00000000E+00
  3.12889774E-08  8.41212719E-08  2.41976782E-08  4.10648313E-24  1.23264728E-07
  8.87333268E-10  4.10322509E-08  7.96773295E-02  9.30045156E-01  6.02617227E+00
 -9.19880927E-03  6.75826156E-01  7.56491510E-01  5.04359002E-01 -1.98450660E-16
  2.11058515E-03  2.16328705E-01  3.65467673E-01  4.43197785E-02  2.25416946E-16
 -2.93723768E-06  2.81178758E-03  6.47302725E-03  1.13454433E-03  1.90201073E-18
 -9.91567512E-08  1.98069023E-04  5.06621299E-04  2.31894816E-05 -1.24887541E-19
 -5.35101760E-06  4.40332974E-03  8.74829896E-03  1.55772811E-03 -7.68101941E-18
  6.35658055E-03  1.64038968E-01  2.34674410E-01  4.42112055E-02 -3.06677389E-16
  3.52402743E-01  5.34322556E-04  8.97703656E-04  2.52752176E-01 -4.40776889E-12
 -1.15932189E-10  1.96948512E-07  7.50409366E-10  5.21562630E-25  0.00000000E+00
 -4.29012053E-09 -1.13710267E-08 -2.34857742E-09 -5.62884938E-25  1.78818981E-07
 -1.54189826E-10  4.43984473E-08  3.90505053E-01  4.55822672E+00  5.08390209E-01
  6.02617227E+00  1.98866095E-17  3.41939484E-16  5.05046804E-16  3.54323020E-16
  5.48540577E-01 -4.70129671E-18 -2.64372846E-16 -4.64712909E-16  3.53730493E-17
  1.04004107E-01  7.78577154E-21 -2.93129554E-18 -6.76462736E-18 -3.87935929E-19
  1.42315860E-03  1.23501976E-22  8.50825104E-20  2.23670814E-19  1.92587177E-19
  4.29270859E-05  9.37306013E-21 -3.92566347E-18 -7.81449089E-18 -1.92471299E-19
 -7.37985793E-04 -1.14084375E-17 -9.13069339E-17 -1.56929599E-16  7.69113874E-17
 -2.39763304E-02 -5.54257287E-16 -7.85419766E-19 -1.14210823E-18 -2.90845391E-16
  6.01208019E-27  1.22941736E-24  6.32184841E-24  5.21562630E-25  5.56093417E-10
  0.00000000E+00  1.02386251E-24  2.71491156E-24  7.91913314E-25 -2.44616246E-09
 -1.50418833E-22 -4.93553144E-27 -5.99543359E-23  0.00000000E+00  0.00000000E+00
  0.00000000E+00  0.00000000E+00  6.02617227E+00  0.00000000E+00 -5.55007442E-03
 -1.29155025E-02  3.87799033E-03 -7.99021737E-18  0.00000000E+00 -1.27794177E-05
 -4.09473713E-05  2.18833426E-05 -4.43829910E-20  0.00000000E+00 -5.97250661E-09
 -2.68166586E-08  8.62628682E-09 -1.83966151E-23  0.00000000E+00 -1.19988875E-09
 -5.87927770E-09  2.03881397E-10 -8.03042706E-25  0.00000000E+00 -4.94407304E-07
 -1.99149573E-06 -4.12064772E-07  6.70795192E-22  0.00000000E+00 -1.06410731E-03
 -2.91671551E-03 -6.09393755E-04  1.04177347E-18 -1.89361695E-05 -4.95951644E-10
 -2.12757830E-07 -8.19669471E-03  0.00000000E+00  0.00000000E+00  0.00000000E+00
  0.00000000E+00  0.00000000E+00  0.00000000E+00  0.00000000E+00  0.00000000E+00
  0.00000000E+00  0.00000000E+00 -1.31040886E-13  0.00000000E+00  0.00000000E+00
  4.06116874E-06 -1.87648029E-01 -2.06636376E-01  2.32864674E-01 -4.33168886E-16
 -4.93036655E+00  1.65913899E-03 -2.23417469E-02 -2.64442547E-02  1.57159446E-01
 -1.59458173E-17  9.34354280E-06  6.76088425E-03  1.28814922E-02 -1.40534555E-03
  1.28192411E-17 -3.83029173E-09  5.52547796E-05  1.42674271E-04  1.23123188E-05
  8.96442579E-20  2.94389079E-10 -1.70816200E-05 -4.85366415E-05  1.73945712E-05
 -6.03784714E-21  9.86362716E-08 -1.38025558E-03 -3.21780429E-03 -1.54163317E-04
  9.97585187E-19 -7.88093151E-04 -1.03604722E-01 -1.81097220E-01  8.49537888E-03
  5.94161390E-17  8.06660860E-03  6.44323931E-06 -4.57476634E-04 -4.05599058E-01
  0.00000000E+00 -7.80388796E-09 -3.12889774E-08  4.29012053E-09 -1.02386251E-24
  0.00000000E+00  0.00000000E+00  0.00000000E+00  0.00000000E+00  0.00000000E+00
 -3.37865753E-08 -4.91329035E-14  8.38781798E-10  2.50399374E-01  5.13574689E-01
  6.14238279E-01  1.31963690E+00  1.07075302E-15 -1.22451762E+00 -4.93036655E+00
 -3.81353091E-03  4.26249902E-02  4.90690953E-02 -2.12831852E-01  3.66133384E-17
 -2.92695145E-05 -1.05395625E-02 -1.85131544E-02  2.23501942E-03 -2.04356557E-17
  1.73548819E-08 -1.18160045E-04 -2.90736321E-04 -2.68500825E-05 -1.91739946E-19
 -1.44956906E-09  3.98796533E-05  1.09367685E-04 -4.04613498E-05  1.41403480E-20
 -4.12544988E-07  2.71293749E-03  5.99733741E-03  3.20819398E-04 -1.98245792E-18
  2.13084347E-03  1.52822884E-01  2.48528522E-01 -7.96177004E-03 -9.39203603E-17
 -9.60138072E-03 -1.35571788E-05  8.27465809E-04  4.14917439E-01  0.00000000E+00
  2.06930643E-08  8.41212719E-08 -1.13710267E-08  2.71491156E-24  0.00000000E+00
  0.00000000E+00  0.00000000E+00  1.53484580E-11  0.00000000E+00  8.59829707E-08
 -1.37392697E-13 -2.17804025E-09 -2.79076899E-01 -1.91239934E-01 -9.77675423E-02
 -8.17760683E-01 -6.79296930E-16 -4.93249468E-02 -5.75752577E-01 -4.93036655E+00
  1.21189140E-03  1.51750230E-01  2.37851192E-01 -1.19336491E-02  1.36523794E-16
  1.51691305E-05  1.04801915E-02  2.01952373E-02 -3.15116671E-03  2.01677958E-17
 -5.23754238E-09  9.04839853E-05  2.34266401E-04 -1.04321631E-05  1.47354617E-19
 -9.45904680E-12  1.60866864E-05  4.58016208E-05 -5.36240032E-06  5.70247919E-21
 -9.24452582E-08  1.19910130E-03  2.81794244E-03 -1.05221916E-04 -8.75298451E-19
  5.33373641E-04  9.11559470E-02  1.63238034E-01 -2.06251465E-02 -5.41060478E-17
  1.35731170E-02  1.00776315E-05  5.37340920E-04  4.85683110E-01  0.00000000E+00
  6.03430244E-09  2.41976782E-08 -2.34857742E-09  7.91913314E-25  0.00000000E+00
  0.00000000E+00  1.53484580E-11  0.00000000E+00  0.00000000E+00  3.19511142E-08
  1.10870239E-13  1.37626005E-09  3.07524916E-01  2.14220139E+00  1.95689071E+00
 -1.16392237E-01  3.62686115E-15  5.16098347E-01  6.02423261E+00  5.08390209E-01
 -4.93036655E+00 -2.38704882E-18  2.91815179E-17  4.12066547E-17 -1.44439083E-16
 -1.07354157E-02 -3.23147366E-20 -1.25373909E-17 -2.44006487E-17  2.64216674E-18
  2.21098276E-03  1.18062083E-23 -8.95343893E-20 -2.31442398E-19 -2.03012533E-20
  1.73352975E-05 -1.97172339E-25  6.06183341E-21  1.72676162E-20 -6.15334680E-21
 -5.38559155E-06  1.34754948E-22 -1.00355694E-18 -2.36247254E-18 -1.18307685E-19
 -4.41922572E-04 -7.71210879E-19 -5.98868061E-17 -1.10984172E-16  3.18453880E-18
 -3.82951061E-02 -2.01937127E-17 -1.37033487E-20 -6.86719141E-19 -5.89909309E-16
  0.00000000E+00  1.02419564E-24  4.10648313E-24 -5.62884938E-25 -2.44616246E-09
  0.00000000E+00  0.00000000E+00  0.00000000E+00  0.00000000E+00  0.00000000E+00
 -2.62628452E-23  4.02460880E-29 -1.54762234E-24 -5.96281032E-16 -4.43243101E-16
 -8.69110185E-16 -2.04272148E-15  2.96328686E-01  0.00000000E+00  0.00000000E+00
  0.00000000E+00  0.00000000E+00 -4.93036655E+00  7.43549126E-03  6.30819406E-01
  7.46978374E-01  7.48160746E-01 -9.33147706E-16  2.94007865E-03  2.89031833E-01
  4.78993223E-01  1.19159030E-01 -5.71678032E-17 -1.38824519E-05  3.94372483E-03
  8.83771140E-03  2.10372556E-03 -1.34806218E-18  6.58597346E-08  9.82319462E-05
  2.53097397E-04  1.43402015E-04 -1.41976495E-19  3.83347350E-07 -2.27287354E-05
 -4.77211724E-05  2.40267862E-04  4.86104532E-20 -2.35636498E-04  5.33967340E-03
  5.87503652E-03  2.00260187E-02 -1.26678384E-17  7.68003175E-01  9.54255704E-04
 -2.15554916E-05 -1.94804574E-03  1.70902444E-11 -9.33041519E-08 -1.23264728E-07
 -1.78818981E-07  1.50418833E-22 -1.31040886E-13 -3.37865753E-08 -8.59829707E-08
 -3.19511142E-08  2.62628452E-23  1.05846442E-10 -1.16058384E-09 -3.35634152E-07
  4.13035641E-01  6.00262403E+00  1.95290533E+00  7.48440728E+00 -1.06530529E-14
 -2.27490179E-02  7.41021936E-01 -2.34073315E-01  1.36417421E+00 -1.74054452E-15
  1.84809872E+01  7.87293158E-05  4.50862914E-03  8.21138873E-03  1.68890383E-02
  2.56257501E-18  6.83980652E-07  1.02515191E-03  2.16133380E-03 -1.26023937E-04
  1.50277118E-18 -2.86049261E-10  5.54953246E-06  1.51435987E-05  8.88822544E-07
  7.01386961E-21  1.28821393E-11 -5.03698138E-07 -1.49020739E-06  7.86009143E-07
 -8.48474833E-23  2.85333888E-09 -6.35959606E-05 -1.58656808E-04 -4.47416533E-06
  4.80610971E-20 -2.20643502E-05 -7.12525048E-03 -1.37900008E-02  1.05250171E-03
  4.34469037E-18  2.21624483E-03  7.52334420E-07 -2.55113207E-05 -4.77704547E-02
  0.00000000E+00 -2.16579776E-10 -8.87333268E-10  1.54189826E-10  4.93553144E-27
  0.00000000E+00 -4.91329035E-14  1.37392697E-13 -1.10870239E-13 -4.02460880E-29
 -1.16058384E-09  0.00000000E+00  7.05851328E-11  3.41138339E-02  3.19261303E-01
  4.23867265E-01  3.67084051E-01  3.12962218E-16 -2.94711071E-01 -1.86674246E+00
 -1.94125891E+00  2.44344110E+00  5.16664429E-16  5.03346970E-01 -2.50744641E+00
  1.01963898E-03 -1.21877682E-01 -1.57244942E-01  1.97364861E-01 -2.32264916E-16
  8.45293820E-06  6.96716956E-04  1.19383510E-03  1.10423047E-03  1.82501253E-18
 -5.09303084E-08 -4.00314786E-06 -9.11068914E-06  5.46953703E-05 -1.00338675E-20
  3.91895276E-08 -1.02644373E-04 -2.66842908E-04  9.75563961E-05 -1.22802370E-19
  1.04687129E-05 -8.53850289E-03 -1.77865042E-02  2.62593883E-03 -2.42860082E-18
 -5.10818774E-03 -3.38255805E-01 -5.38629635E-01  1.68579792E-01 -1.88796692E-16
  9.27649339E-04  1.51341735E-06 -5.08138308E-03 -1.97533936E+00  1.17189971E-11
  5.88338606E-08 -4.10322509E-08 -4.43984473E-08  5.99543359E-23  0.00000000E+00
  8.38781798E-10  2.17804025E-09 -1.37626005E-09  1.54762234E-24 -3.35634152E-07
  7.05851328E-11 -1.68192703E-12  3.08335994E-02 -4.46949876E-01 -2.06647092E-01
  9.68136900E-01 -1.06139623E-15 -3.55742175E-01 -5.87044507E+00  7.20603513E-01
  7.82891353E+00 -1.03932376E-14  1.73511999E-02 -1.76478073E+00 -1.81829019E+01
Multipole Matrix (0,2,0)                   R   N=        1830
  3.08581032E-01  9.52778092E-02  1.11886633E+00  0.00000000E+00  0.00000000E+00
  7.85906151E-01  7.57066286E-02  8.83696574E-01  0.00000000E+00  1.80268657E+00
  0.00000000E+00  0.00000000E+00  0.00000000E+00  0.00000000E+00  7.85906151E-01
  2.19307637E-06  2.22320997E-01 -2.38630245E-01  2.81366558E-01 -5.51795972E-16
  6.28216534E+00  1.89755946E-02  1.20156876E+00 -7.49126095E-01  1.57526190E+00
 -1.73223961E-15  1.57889149E+00  7.09245064E+00  2.25875660E-02  8.89047019E-01
 -4.87944077E-02  1.32891531E+00 -1.66807281E-15  0.00000000E+00  0.00000000E+00
  6.75949046E+00 -2.19774908E-02 -9.97012012E-02  1.91613643E-01  1.75027550E-01
  4.43077265E-16  3.59309062E-01  4.19408700E+00  0.00000000E+00  7.77627088E+00
  5.22302943E-17  2.05578536E-15 -1.66807281E-15  3.07291356E-15  6.72582050E-01
  0.00000000E+00  0.00000000E+00  0.00000000E+00  0.00000000E+00  6.75949046E+00
  0.00000000E+00  6.89022342E-03 -1.50485891E-02  5.41050857E-03 -1.14087738E-17
  4.74861850E-06  1.55880591E-01 -2.55081468E-01 -4.16800736E-02  7.50130495E-17
  3.92541670E+00  8.42731644E-04  1.59063784E-01 -2.08425460E-01  1.64825967E-01
 -1.58013413E-16  2.36190642E-01  2.17452074E+00 -2.24654748E+00  7.72852420E-01
  6.60653160E-16  9.93563760E-01  4.73570200E+00  1.83483921E-03  2.24255969E-01
 -2.58217618E-01  2.37872155E-01 -2.44453956E-16  3.81150119E-01  2.16492951E+00
 -1.69260867E+00  6.67854180E-01  8.58939173E-16  0.00000000E+00  0.00000000E+00
  4.40274182E+00 -4.89979915E-04  3.20220335E-02 -3.99869363E-02  7.94218305E-02
 -3.03152613E-17  9.03788774E-02  1.62625499E+00 -1.81690990E+00  1.41521200E+00
  5.34307544E-16  2.83600843E-01  3.31037187E+00  0.00000000E+00  5.41952223E+00
  1.39104506E-18  1.70014983E-16 -2.44453956E-16  1.80337810E-16  6.42260741E-02
 -1.12086672E-16 -6.36651366E-16  8.58939173E-16 -1.96399132E-16  1.22820933E+00
  0.00000000E+00  0.00000000E+00  0.00000000E+00  0.00000000E+00  4.40274182E+00
  0.00000000E+00  1.40979227E-04 -3.65937270E-04 -9.66614649E-05  1.07583605E-19
  0.00000000E+00  4.74596979E-04 -8.17580327E-04 -7.97210646E-04  1.33047700E-18
  5.54750544E-07  1.01087993E-02 -4.86245768E-03 -1.62281090E-02  2.79613890E-17
  3.08581032E-01  1.40979227E-04  2.76771822E-02 -4.11401596E-02 -7.08073566E-03
  1.20949875E-17  1.04752221E-02  1.28356110E-01 -1.51988019E-01 -4.25074615E-02
  2.47335407E-16  1.33304344E-01  5.68652455E-01 -2.02052484E-01 -1.04112751E-01
  1.16189558E-15  9.52778092E-02  1.11886633E+00  3.65937270E-04  4.11401596E-02
 -5.45816044E-02 -1.08094950E-02  1.89375114E-17  1.80610581E-02  1.31334046E-01
 -1.18263165E-01 -5.15756361E-02  2.80486422E-16  6.73898217E-02  1.61565327E-01
  2.38271909E-01 -5.61263444E-02  4.20007697E-16  0.00000000E+00  0.00000000E+00
  7.85906151E-01  9.66614649E-05  7.08073566E-03 -1.08094950E-02  2.72939470E-02
  3.17793386E-18  1.64709011E-02  1.83881072E-01 -2.24782689E-01 -1.01112258E-02
  3.65796714E-16  2.10864980E-01  7.63845573E-01 -3.15854274E-01  1.52099480E-01
  1.81630871E-15 -7.57066286E-02 -8.83696574E-01  0.00000000E+00  1.80268657E+00
 -1.07583605E-19 -1.20949875E-17  1.89375114E-17  3.17793386E-18  9.83286847E-03
 -2.93913901E-17 -2.13724476E-16  2.80486422E-16  8.39308325E-17  5.40962077E-02
 -3.87522759E-16 -9.29075636E-16  4.20007697E-16  3.22752536E-16  3.11310829E-01
  0.00000000E+00  0.00000000E+00  0.00000000E+00  0.00000000E+00  7.85906151E-01
  0.00000000E+00  1.04752221E-02 -1.80610581E-02 -1.64709011E-02  2.93913901E-17
  0.00000000E+00  2.21997953E-03 -1.86772541E-03 -5.69984694E-03  1.07464303E-17
  0.00000000E+00  9.89753902E-03  4.56202429E-03 -2.28043149E-02  4.41825838E-17
  2.19307637E-06  2.22320997E-01  2.38630245E-01 -2.81366558E-01  5.51795972E-16
  6.28216534E+00  4.74596979E-04  1.28356110E-01 -1.31334046E-01 -1.83881072E-01
  2.13724476E-16  2.21997953E-03  3.35086191E-02 -1.87739952E-02 -5.00189684E-02
  1.08020927E-16  5.95641963E-03  8.09978313E-02  2.47773931E-02 -1.24538460E-01
  2.39965677E-16  1.89755946E-02  1.20156876E+00  7.49126095E-01 -1.57526190E+00
  1.73223961E-15  1.57889149E+00  7.09245064E+00  8.17580327E-04  1.51988019E-01
 -1.18263165E-01 -2.24782689E-01  2.80486422E-16  1.86772541E-03  1.87739952E-02
  3.37310802E-03 -3.11194422E-02  6.66330901E-17 -2.74610568E-03 -2.69528742E-02
  2.92758269E-02  4.53592444E-02 -8.87739456E-17 -2.25875660E-02 -8.89047019E-01
 -4.87944077E-02  1.32891531E+00 -1.66807281E-15  0.00000000E+00  0.00000000E+00
  6.75949046E+00  7.97210646E-04  4.25074615E-02 -5.15756361E-02 -1.01112258E-02
  8.39308325E-17  5.69984694E-03  5.00189684E-02 -3.11194422E-02 -4.83636493E-02
  1.79053578E-16  1.38020838E-02  9.26004802E-02  3.30121211E-02 -8.01898359E-02
  3.19717896E-16  2.19774908E-02  9.97012012E-02  1.91613643E-01  1.75027550E-01
  4.43077265E-16 -3.59309062E-01 -4.19408700E+00  0.00000000E+00  7.77627088E+00
 -1.33047700E-18 -2.47335407E-16  2.80486422E-16  3.65796714E-16  5.40962077E-02
 -1.07464303E-17 -1.08020927E-16  6.66330901E-17  1.79053578E-16  1.49539132E-02
 -2.65956594E-17 -2.61034915E-16 -8.87739456E-17  4.39298103E-16  3.84420834E-02
 -5.22302943E-17 -2.05578536E-15 -1.66807281E-15  3.07291356E-15  6.72582050E-01
  0.00000000E+00  0.00000000E+00  0.00000000E+00  0.00000000E+00  6.75949046E+00
  5.54750544E-07  1.33304344E-01 -6.73898217E-02 -2.10864980E-01  3.87522759E-16
  0.00000000E+00  5.95641963E-03  2.74610568E-03 -1.38020838E-02  2.65956594E-17
  0.00000000E+00  1.39784743E-03  2.46261530E-03 -2.86291342E-03  5.69583741E-18
  0.00000000E+00  6.89022342E-03  1.50485891E-02 -5.41050857E-03  1.14087738E-17
  4.74861850E-06  1.55880591E-01  2.55081468E-01  4.16800736E-02 -7.50130495E-17
  3.92541670E+00  1.01087993E-02  5.68652455E-01 -1.61565327E-01 -7.63845573E-01
  9.29075636E-16  9.89753902E-03  8.09978313E-02  2.69528742E-02 -9.26004802E-02
  2.61034915E-16  1.39784743E-03  3.11891870E-02  3.47656162E-02 -3.43461898E-02
  8.04101631E-17  8.42731644E-04  1.59063784E-01  2.08425460E-01 -1.64825967E-01
  1.58013413E-16  2.36190642E-01  2.17452074E+00  2.24654748E+00 -7.72852420E-01
 -6.60653160E-16  9.93563760E-01  4.73570200E+00  4.86245768E-03  2.02052484E-01
  2.38271909E-01 -3.15854274E-01  4.20007697E-16 -4.56202429E-03 -2.47773931E-02
  2.92758269E-02  3.30121211E-02 -8.87739456E-17 -2.46261530E-03 -3.47656162E-02
 -2.94336623E-02  4.19243712E-02 -9.79709376E-17 -1.83483921E-03 -2.24255969E-01
 -2.58217618E-01  2.37872155E-01 -2.44453956E-16 -3.81150119E-01 -2.16492951E+00
 -1.69260867E+00  6.67854180E-01  8.58939173E-16  0.00000000E+00  0.00000000E+00
  4.40274182E+00  1.62281090E-02  1.04112751E-01 -5.61263444E-02  1.52099480E-01
  3.22752536E-16  2.28043149E-02  1.24538460E-01  4.53592444E-02 -8.01898359E-02
  4.39298103E-16  2.86291342E-03  3.43461898E-02  4.19243712E-02 -8.56168849E-03
  9.69678058E-17  4.89979915E-04 -3.20220335E-02 -3.99869363E-02  7.94218305E-02
 -3.03152613E-17 -9.03788774E-02 -1.62625499E+00 -1.81690990E+00  1.41521200E+00
  5.34307544E-16 -2.83600843E-01 -3.31037187E+00  0.00000000E+00  5.41952223E+00
 -2.79613890E-17 -1.16189558E-15  4.20007697E-16  1.81630871E-15  3.11310829E-01
 -4.41825838E-17 -2.39965677E-16 -8.87739456E-17  3.19717896E-16  3.84420834E-02
 -5.69583741E-18 -8.04101631E-17 -9.79709376E-17  9.69678058E-17  1.29244165E-02
 -1.39104506E-18 -1.70014983E-16 -2.44453956E-16  1.80337810E-16  6.42260741E-02
  1.12086672E-16  6.36651366E-16  8.58939173E-16 -1.96399132E-16  1.22820933E+00
  0.00000000E+00  0.00000000E+00  0.00000000E+00  0.00000000E+00  4.40274182E+00
  2.92072724E-03  6.85752707E-01 -2.34609986E-01  1.13373993E+00 -1.68550360E-15
  4.26208573E-01  6.53450841E+00  1.92640669E+00  8.06845951E+00 -1.10702046E-14
  2.30518511E-02  1.06629306E+00  1.07698331E+00  1.23584893E+00 -1.51014438E-15
  2.14190671E-05  2.63716975E-02  2.73804273E-02  4.73340550E-02 -6.27831432E-17
  6.29145950E-05  3.13164229E-03  1.90275881E-03  6.66727749E-03 -1.09441292E-17
  2.89723358E-04  1.43053678E-02 -9.92366744E-04  3.09230635E-02 -4.92400347E-17
  2.06402965E+01  4.69831243E-05  2.96954937E-02 -4.25906654E-02  3.84319472E-02
 -4.82656712E-17  3.45942972E-02  9.54073676E-01 -1.17431865E+00  7.04406813E-01
 -7.19573600E-16  2.67780009E-01  4.22554625E+00 -2.58404284E+00  4.73519484E+00
 -5.97437183E-15  1.35106377E-03  3.25904585E-01 -5.61725916E-02  5.64934005E-01
 -8.26244834E-16  4.89960341E-04  9.79679849E-03 -6.44616066E-03  1.63488859E-02
 -3.38456209E-17  3.96265100E-05  2.80571270E-03 -3.46334409E-03  4.67384203E-03
 -8.00956667E-18  8.58305203E-01  1.31018413E+01  2.14190671E-05  2.63716975E-02
 -2.73804273E-02 -4.73340550E-02  6.27831432E-17  6.29145950E-05  3.13164229E-03
 -1.90275881E-03 -6.66727749E-03  1.09441292E-17  2.89723358E-04  1.43053678E-02
  9.92366744E-04 -3.09230635E-02  4.92400347E-17  2.92072724E-03  6.85752707E-01
  2.34609986E-01 -1.13373993E+00  1.68550360E-15  4.26208573E-01  6.53450841E+00
 -1.92640669E+00 -8.06845951E+00  1.10702046E-14  2.30518511E-02  1.06629306E+00
 -1.07698331E+00 -1.23584893E+00  1.51014438E-15  1.80484250E-04  1.52813873E-03
  2.06402965E+01  1.35106377E-03  3.25904585E-01  5.61725916E-02 -5.64934005E-01
  8.26244834E-16  4.89960341E-04  9.79679849E-03  6.44616066E-03 -1.63488859E-02
  3.38456209E-17  3.96265100E-05  2.80571270E-03  3.46334409E-03 -4.67384203E-03
  8.00956667E-18  4.69831243E-05  2.96954937E-02  4.25906654E-02 -3.84319472E-02
  4.82656712E-17  3.45942972E-02  9.54073676E-01  1.17431865E+00 -7.04406813E-01
  7.19573600E-16  2.67780009E-01  4.22554625E+00  2.58404284E+00 -4.73519484E+00
  5.97437183E-15  1.52813873E-03  1.73633377E-04  8.58305203E-01  1.31018413E+01
  0.00000000E+00  1.24709092E-07 -5.01652009E-07 -1.15209515E-07  1.47536804E-22
  0.00000000E+00  2.31077725E-06 -7.28698608E-06 -4.44205804E-06  7.43979974E-21
  0.00000000E+00  1.19133613E-03 -2.21514860E-03 -1.97057890E-03  3.38947874E-18
  4.68848547E-08  3.37342225E-02 -5.48311350E-02 -1.47099534E-02  1.61365908E-17
  0.00000000E+00  1.69549621E-03 -3.92320327E-03  1.03702073E-03 -2.73213427E-18
  0.00000000E+00  3.36511151E-06 -1.21232430E-05  1.14454967E-06 -4.12527369E-21
  1.90350723E-07  1.02011455E-03  1.64253521E-03  3.17551982E-07  1.26062489E+00
  3.32293791E-08  3.52275651E-04 -7.53613639E-04 -2.53217148E-04  2.21639196E-19
  1.29504226E-05  2.47565456E-03 -4.36511056E-03 -1.15457918E-03  4.45665026E-18
  3.95827504E-03  6.10699577E-02 -7.48815290E-02 -2.78261231E-02  1.14578928E-16
  1.09015318E-02  4.77758629E-01 -4.69759766E-01 -4.29012922E-01  1.38248480E-16
  6.90578908E-03  1.99936436E-01 -2.94073056E-01 -2.44450837E-02 -2.04793639E-16
  9.00329043E-06  5.30930573E-03 -1.04685215E-02 -1.60674937E-03 -3.56220826E-18
  4.67461905E-04  7.44474382E-02  2.49056728E-01  9.28993957E-04  3.31729697E-01
  2.07091019E+00  1.33517876E-07  7.56274592E-04 -1.52016179E-03 -5.45915457E-04
  4.80155291E-19  4.08066833E-05  4.23224349E-03 -6.87461029E-03 -2.06652891E-03
  7.86888258E-18  7.35751669E-03  6.82139550E-02 -6.66020528E-02 -3.57174542E-02
  1.40429250E-16  1.81471651E-02  4.96360641E-01 -3.67541639E-01 -4.85651391E-01
  1.76198295E-16  1.60052166E-02  2.78405691E-01 -3.66907898E-01 -2.81285394E-02
 -3.10985107E-16  3.24735993E-05  1.03878339E-02 -1.92277838E-02 -3.14251349E-03
 -7.13897833E-18  7.49094468E-04  5.00626710E-02  2.73823499E-01  1.84189096E-03
  0.00000000E+00  0.00000000E+00  1.73795001E+00  3.27401460E-08  4.93407420E-05
 -1.05253712E-04  2.54942613E-04  3.09553158E-20  2.41178019E-05  3.65300185E-03
 -6.50361731E-03 -4.61293838E-04  6.64000312E-18  6.37900816E-03  7.47587277E-02
 -9.60688685E-02  1.33552144E-02  1.46998440E-16  1.83012887E-03 -2.71212272E-01
  2.80730875E-01  4.52806134E-01 -8.26180096E-17 -5.14703265E-03 -1.89911806E-01
  2.86072484E-01  7.66832020E-02  1.99222009E-16 -4.43246149E-06 -4.08332147E-03
  8.10996758E-03  2.54274760E-03  2.75964409E-18  8.75845149E-04  1.32206096E-01
 -3.41001617E-01 -9.84193867E-04 -1.59354659E-01 -1.86009031E+00  0.00000000E+00
  2.75473043E+00 -3.92678597E-23 -2.22421787E-19  4.80155291E-19  1.60554768E-19
  1.12453661E-04 -4.16624305E-20 -4.32099687E-18  7.86888258E-18  2.10986560E-18
  8.32645258E-04 -1.12580016E-17 -1.04376632E-16  1.40429250E-16  5.46525647E-17
  2.51736096E-02 -5.34064042E-18 -1.46077015E-16  1.76198295E-16  1.42925324E-16
  2.31169245E-01  1.11460962E-17  1.93882825E-16 -3.10985107E-16 -1.95888261E-17
  7.96506040E-02  1.10500536E-20  3.53475204E-18 -7.13897833E-18 -1.06932841E-18
  1.75205303E-03 -1.10137992E-18 -1.91427809E-16  4.85548213E-16  1.21142090E-18
  0.00000000E+00  0.00000000E+00  0.00000000E+00  0.00000000E+00  1.73795001E+00
  0.00000000E+00  1.52725044E-10 -7.45818352E-10  3.42621000E-11 -1.02061890E-25
  0.00000000E+00  6.73500670E-08 -2.70171580E-07 -5.23369601E-08  9.12030468E-23
  0.00000000E+00  1.36779833E-04 -3.73005617E-04 -7.08853273E-05  1.33627355E-19
  0.00000000E+00  6.34133926E-04 -1.46829825E-03  4.73611126E-04 -9.11412831E-19
  0.00000000E+00  1.38083099E-06 -4.40755388E-06  2.41800366E-06 -4.78937331E-21
  0.00000000E+00  6.76708812E-10 -3.02864054E-09  1.00708778E-09 -2.08176738E-24
  3.00610640E-08  1.07407864E-03  1.97140391E-06  5.46489952E-11  3.54133027E-07
  2.03127640E-02 -2.17453189E-02  2.57241474E-02 -4.59612573E-17  5.02273861E-01
  1.06718156E-10  1.82421299E-05 -4.71288292E-05  9.60050289E-06 -6.44936850E-21
  5.55836453E-07  1.00151312E-03 -2.16140765E-03  3.63017658E-05  7.29636193E-19
  7.74684887E-04  4.98963420E-02 -8.10196160E-02  1.13014121E-02  2.90248630E-17
  4.12171539E-04  5.12113633E-02 -6.95218955E-02  1.98487844E-02 -4.31541395E-17
  1.96033790E-05  3.69114484E-03 -6.59412010E-03  1.14183527E-03 -7.16535832E-18
  5.62764940E-09  4.88834603E-05 -1.16070871E-04  1.00590656E-05 -7.97825126E-20
  3.80875212E-04  2.02539619E-01  4.14223667E-03  5.33541213E-06  5.06319827E-02
  4.06431160E-01 -2.68242524E-01  6.02422253E-02 -5.66961731E-16  1.43383823E-01
  1.31255916E+00  5.20781136E-10  4.71342258E-05 -1.16245038E-04  2.48392871E-05
 -1.66927065E-20  2.23574266E-06  2.14683636E-03 -4.36588442E-03  7.27594608E-05
  1.58231673E-18  2.11847582E-03  7.79832195E-02 -1.16326135E-01  1.74485792E-02
  4.82017203E-17  9.53575215E-04  7.01783998E-02 -8.28840865E-02  2.85179915E-02
 -6.32508706E-17  6.25465188E-05  6.38046999E-03 -1.05286781E-02  2.07298381E-03
 -1.27889160E-17  2.51877571E-08  1.15701456E-04 -2.60427174E-04  2.39278235E-05
 -1.89626309E-19  7.59639204E-04  2.32670785E-01  5.60806447E-03  1.25501138E-05
  5.54566579E-02  2.47693492E-01  2.06586526E-03  6.37202435E-02 -4.30341800E-16
  0.00000000E+00  0.00000000E+00  9.79598981E-01  8.94618745E-12  8.06394500E-06
 -2.08658043E-05  1.43396030E-05 -2.85539156E-21  5.32532212E-07  1.00551559E-03
 -2.17868179E-03  2.78598331E-04  7.35467501E-19  5.45483165E-04  4.71558417E-02
 -7.78148123E-02  2.42105069E-02  2.78767585E-17 -3.15602395E-04 -9.73764355E-03
  1.37182036E-02  5.12144642E-02  8.51526368E-18 -3.23368265E-05 -5.19967999E-03
  9.37077393E-03 -1.92990967E-04  1.01825493E-17 -7.85954210E-09 -5.86578055E-05
  1.39449334E-04  1.36921586E-05  9.58519410E-20  5.11977761E-04  2.65529951E-01
 -7.38916989E-03 -8.31576690E-06 -6.30364306E-02 -2.91353613E-01  2.43330202E-01
  4.37615442E-01  5.14306645E-16  9.86498936E-02  1.15150515E+00  0.00000000E+00
  1.99637940E+00  7.12665584E-26  6.45010701E-21 -1.66927065E-20  3.39914482E-21
  5.73709219E-06 -7.54729797E-22 -7.24717295E-19  1.58231673E-18 -2.45617414E-20
  3.21426228E-04 -7.58933126E-19 -2.79370895E-17  4.82017203E-17 -6.25086425E-18
  1.82235046E-02  5.91910183E-19  4.35616497E-17 -6.32508706E-17  1.77018963E-17
  1.90139114E-02  6.79648250E-20  6.93320003E-18 -1.27889160E-17  2.25256313E-18
  1.24067718E-03  1.73130652E-23  7.95285917E-20 -1.89626309E-19  1.64470368E-20
  1.54489552E-05 -5.68401594E-19 -2.94432476E-16  1.05308018E-17  1.13523778E-20
  1.17214088E-16  5.23528964E-16 -4.30341800E-16  1.34680136E-16  2.05670385E-01
  0.00000000E+00  0.00000000E+00  0.00000000E+00  0.00000000E+00  9.79598981E-01
  1.97022537E-08  2.04361264E-04 -3.98858616E-04 -2.93345909E-04  2.94361226E-19
  1.52930608E-06  2.53262934E-04 -4.10483253E-04 -3.11169870E-04  6.27838006E-19
  2.30396776E-04  7.90161331E-03 -8.86797478E-03 -1.16143017E-02  2.03723889E-17
  2.17005884E-03  3.61147916E-01 -3.64370424E-01 -4.73528448E-01  5.20619705E-16
  7.43433828E-03  2.93543539E-01 -4.17378434E-01 -1.83666863E-01  5.77574225E-17
  1.95939547E-05  7.60204628E-03 -1.38818525E-02 -5.65430081E-03  2.65049423E-18
  2.92914132E-05  5.29626345E-03  8.67151357E-01  2.59361239E-03  1.00196604E-01
  2.76746470E+00 -5.65891648E-01 -3.79055931E+00  4.71556818E-15  2.37965661E-03
  2.74095294E-01  1.11868989E-01 -4.51668227E-01  6.64533922E-16  1.04506659E+01
  4.50858763E-12  6.99584437E-07 -1.88331299E-06  2.31277959E-07 -1.17995669E-22
  1.55528258E-08  4.32111611E-05 -9.99839418E-05  2.69818553E-06  3.28626435E-20
  2.15015202E-05  3.26378149E-03 -5.89473395E-03  7.28514785E-04  2.00801180E-18
  1.99003029E-05  5.88788131E-03 -9.43611348E-03 -2.30270686E-04 -3.21209439E-18
  1.45935869E-06  5.31170829E-04 -1.04973487E-03  2.26877280E-05 -7.89122380E-19
  4.20819278E-10  4.24607062E-06 -1.06576249E-05 -3.49027936E-07 -5.38642159E-21
  1.98215743E-05  2.12447781E-02  1.17789457E-03  6.27256446E-07  7.09591361E-03
  1.30568854E-01 -1.43990164E-01 -3.09370557E-02 -1.17934026E-16  3.27131658E-02
  5.21956403E-01 -3.94038137E-01  2.82858513E-01  1.15694277E-16  1.72823413E-01
  7.23547876E-01  1.39925446E-08  1.68304435E-04 -3.59456109E-04  1.82382174E-04
 -2.02649394E-19  4.78046062E-05  1.08963859E-02 -1.98436632E-02  5.52820528E-03
 -3.15067737E-18  5.44829728E-03  2.34617774E-01 -3.27529701E-01  1.68017615E-01
 -1.29134302E-16  2.52006210E-04  6.07732696E-02 -6.94748694E-02  8.50264195E-02
 -1.13689360E-16  1.90334036E-05  1.21407972E-03 -1.79686255E-03  1.19069121E-03
 -3.30157807E-18  6.61910877E-08  5.06248600E-05 -9.94842987E-05  5.63563262E-05
 -1.18077943E-19  7.82993712E-03  1.39885200E+00  6.33825111E-04  3.46195632E-06
  6.10295011E-03  1.95318225E-01 -8.06079752E-02  2.96461808E-01 -4.78834524E-16
  4.72618015E-02  1.96382503E+00  3.94895227E-01  2.75708228E+00 -3.29065713E-15
  2.91832504E-02  5.30512393E-01  7.98424434E+00  4.68848547E-08  3.37342225E-02
  5.48311350E-02  1.47099534E-02 -1.61365908E-17  0.00000000E+00  1.69549621E-03
  3.92320327E-03 -1.03702073E-03  2.73213427E-18  0.00000000E+00  3.36511151E-06
  1.21232430E-05 -1.14454967E-06  4.12527369E-21  0.00000000E+00  1.24709092E-07
  5.01652009E-07  1.15209515E-07 -1.47536804E-22  0.00000000E+00  2.31077725E-06
  7.28698608E-06  4.44205804E-06 -7.43979974E-21  0.00000000E+00  1.19133613E-03
  2.21514860E-03  1.97057890E-03 -3.38947874E-18  1.64253521E-03  3.17551982E-07
  1.90350723E-07  1.02011455E-03  0.00000000E+00  8.60403185E-13  4.67615806E-12
  1.05104149E-12 -1.37550523E-27  0.00000000E+00  0.00000000E+00  0.00000000E+00
  0.00000000E+00  0.00000000E+00  3.65690715E-12  0.00000000E+00  3.01265910E-12
  1.26062489E+00  1.09015318E-02  4.77758629E-01  4.69759766E-01  4.29012922E-01
 -1.38248480E-16  6.90578908E-03  1.99936436E-01  2.94073056E-01  2.44450837E-02
  2.04793639E-16  9.00329043E-06  5.30930573E-03  1.04685215E-02  1.60674937E-03
  3.56220826E-18  3.32293791E-08  3.52275651E-04  7.53613639E-04  2.53217148E-04
 -2.21639196E-19  1.29504226E-05  2.47565456E-03  4.36511056E-03  1.15457918E-03
 -4.45665026E-18  3.95827504E-03  6.10699577E-02  7.48815290E-02  2.78261231E-02
 -1.14578928E-16  2.49056728E-01  9.28993957E-04  4.67461905E-04  7.44474382E-02
  8.60403185E-13  6.33459245E-07  1.81849461E-06  3.70738801E-07 -5.34915376E-22
  0.00000000E+00  1.92038948E-08  6.39595186E-08  1.27455542E-08  2.51996911E-24
  4.32494917E-07  5.97992981E-10  7.67013502E-07  3.31729697E-01  2.07091019E+00
 -1.81471651E-02 -4.96360641E-01 -3.67541639E-01 -4.85651391E-01  1.76198295E-16
 -1.60052166E-02 -2.78405691E-01 -3.66907898E-01 -2.81285394E-02 -3.10985107E-16
 -3.24735993E-05 -1.03878339E-02 -1.92277838E-02 -3.14251349E-03 -7.13897833E-18
 -1.33517876E-07 -7.56274592E-04 -1.52016179E-03 -5.45915457E-04  4.80155291E-19
 -4.08066833E-05 -4.23224349E-03 -6.87461029E-03 -2.06652891E-03  7.86888258E-18
 -7.35751669E-03 -6.82139550E-02 -6.66020528E-02 -3.57174542E-02  1.40429250E-16
 -2.73823499E-01 -1.84189096E-03 -7.49094468E-04 -5.00626710E-02 -4.67615806E-12
 -1.81849461E-06 -5.02407196E-06 -1.06452894E-06  1.53629962E-21  0.00000000E+00
 -6.39601039E-08 -2.07013962E-07 -4.24512253E-08 -8.39340573E-24 -1.11821478E-06
 -1.99659309E-09 -2.12522395E-06  0.00000000E+00  0.00000000E+00  1.73795001E+00
 -1.83012887E-03  2.71212272E-01  2.80730875E-01  4.52806134E-01 -8.26180096E-17
  5.14703265E-03  1.89911806E-01  2.86072484E-01  7.66832020E-02  1.99222009E-16
  4.43246149E-06  4.08332147E-03  8.10996758E-03  2.54274760E-03  2.75964409E-18
 -3.27401460E-08 -4.93407420E-05 -1.05253712E-04  2.54942613E-04  3.09553158E-20
 -2.41178019E-05 -3.65300185E-03 -6.50361731E-03 -4.61293838E-04  6.64000312E-18
 -6.37900816E-03 -7.47587277E-02 -9.60688685E-02  1.33552144E-02  1.46998440E-16
  3.41001617E-01  9.84193867E-04 -8.75845149E-04 -1.32206096E-01 -1.05104149E-12
 -3.70738801E-07 -1.06452894E-06  3.78961955E-07  3.13134224E-22  0.00000000E+00
  8.46316283E-09  2.81879329E-08  1.27945806E-08  1.11058873E-24 -6.51864143E-07
  2.14386541E-10  6.92784421E-07  1.59354659E-01  1.86009031E+00  0.00000000E+00
  2.75473043E+00  5.34064042E-18  1.46077015E-16  1.76198295E-16  1.42925324E-16
  2.31169245E-01 -1.11460962E-17 -1.93882825E-16 -3.10985107E-16 -1.95888261E-17
  7.96506040E-02 -1.10500536E-20 -3.53475204E-18 -7.13897833E-18 -1.06932841E-18
  1.75205303E-03  3.92678597E-23  2.22421787E-19  4.80155291E-19  1.60554768E-19
  1.12453661E-04  4.16624305E-20  4.32099687E-18  7.86888258E-18  2.10986560E-18
  8.32645258E-04  1.12580016E-17  1.04376632E-16  1.40429250E-16  5.46525647E-17
  2.51736096E-02 -4.85548213E-16 -1.21142090E-18  1.10137992E-18  1.91427809E-16
  1.37550523E-27  5.34915376E-22  1.53629962E-21  3.13134224E-22  1.98721613E-07
  0.00000000E+00 -2.51999217E-24 -8.39340573E-24 -1.67255443E-24  6.01967699E-09
  7.00456433E-22  1.36273720E-26 -7.70070008E-22  0.00000000E+00  0.00000000E+00
  0.00000000E+00  0.00000000E+00  1.73795001E+00  0.00000000E+00  6.34133926E-04
  1.46829825E-03 -4.73611126E-04  9.11412831E-19  0.00000000E+00  1.38083099E-06
  4.40755388E-06 -2.41800366E-06  4.78937331E-21  0.00000000E+00  6.76708812E-10
  3.02864054E-09 -1.00708778E-09  2.08176738E-24  0.00000000E+00  1.52725044E-10
  7.45818352E-10 -3.42621000E-11  1.02061890E-25  0.00000000E+00  6.73500670E-08
  2.70171580E-07  5.23369601E-08 -9.12030468E-23  0.00000000E+00  1.36779833E-04
  3.73005617E-04  7.08853273E-05 -1.33627355E-19  1.97140391E-06  5.46489952E-11
  3.00610640E-08  1.07407864E-03  0.00000000E+00  0.00000000E+00  0.00000000E+00
  0.00000000E+00  0.00000000E+00  0.00000000E+00  0.00000000E+00  0.00000000E+00
  0.00000000E+00  0.00000000E+00  1.84949515E-14  0.00000000E+00  0.00000000E+00
  3.54133027E-07  2.03127640E-02  2.17453189E-02 -2.57241474E-02  4.59612573E-17
  5.02273861E-01  4.12171539E-04  5.12113633E-02  6.95218955E-02 -1.98487844E-02
  4.31541395E-17  1.96033790E-05  3.69114484E-03  6.59412010E-03 -1.14183527E-03
  7.16535832E-18  5.62764940E-09  4.88834603E-05  1.16070871E-04 -1.00590656E-05
  7.97825126E-20  1.06718156E-10  1.82421299E-05  4.71288292E-05 -9.60050289E-06
  6.44936850E-21  5.55836453E-07  1.00151312E-03  2.16140765E-03 -3.63017658E-05
 -7.29636193E-19  7.74684887E-04  4.98963420E-02  8.10196160E-02 -1.13014121E-02
 -2.90248630E-17  4.14223667E-03  5.33541213E-06  3.80875212E-04  2.02539619E-01
  0.00000000E+00  1.92038948E-08  6.39601039E-08 -8.46316283E-09  2.51999217E-24
  0.00000000E+00  4.89695792E-11  1.85676930E-10 -1.77456579E-11  5.41770536E-26
  5.45126179E-08  2.35988281E-12  1.71515944E-09  5.06319827E-02  4.06431160E-01
  2.68242524E-01 -6.02422253E-02  5.66961731E-16  1.43383823E-01  1.31255916E+00
 -9.53575215E-04 -7.01783998E-02 -8.28840865E-02  2.85179915E-02 -6.32508706E-17
 -6.25465188E-05 -6.38046999E-03 -1.05286781E-02  2.07298381E-03 -1.27889160E-17
 -2.51877571E-08 -1.15701456E-04 -2.60427174E-04  2.39278235E-05 -1.89626309E-19
 -5.20781136E-10 -4.71342258E-05 -1.16245038E-04  2.48392871E-05 -1.66927065E-20
 -2.23574266E-06 -2.14683636E-03 -4.36588442E-03  7.27594608E-05  1.58231673E-18
 -2.11847582E-03 -7.79832195E-02 -1.16326135E-01  1.74485792E-02  4.82017203E-17
 -5.60806447E-03 -1.25501138E-05 -7.59639204E-04 -2.32670785E-01  0.00000000E+00
 -6.39595186E-08 -2.07013962E-07  2.81879329E-08 -8.39340573E-24  0.00000000E+00
 -1.85676930E-10 -6.88678878E-10  6.72858402E-11 -2.05422002E-25 -1.62598573E-07
 -8.81924324E-12 -5.43200371E-09 -5.54566579E-02 -2.47693492E-01  2.06586526E-03
  6.37202435E-02 -4.30341800E-16  0.00000000E+00  0.00000000E+00  9.79598981E-01
  3.15602395E-04  9.73764355E-03  1.37182036E-02  5.12144642E-02  8.51526368E-18
  3.23368265E-05  5.19967999E-03  9.37077393E-03 -1.92990967E-04  1.01825493E-17
  7.85954210E-09  5.86578055E-05  1.39449334E-04  1.36921586E-05  9.58519410E-20
 -8.94618745E-12 -8.06394500E-06 -2.08658043E-05  1.43396030E-05 -2.85539156E-21
 -5.32532212E-07 -1.00551559E-03 -2.17868179E-03  2.78598331E-04  7.35467501E-19
 -5.45483165E-04 -4.71558417E-02 -7.78148123E-02  2.42105069E-02  2.78767585E-17
  7.38916989E-03  8.31576690E-06 -5.11977761E-04 -2.65529951E-01  0.00000000E+00
 -1.27455542E-08 -4.24512253E-08  1.27945806E-08 -1.67255443E-24  0.00000000E+00
  1.77456579E-11  6.72858402E-11  3.96146800E-11  1.96327490E-26 -6.01022373E-08
 -1.26521496E-13  2.28352840E-09  6.30364306E-02  2.91353613E-01  2.43330202E-01
  4.37615442E-01  5.14306645E-16 -9.86498936E-02 -1.15150515E+00  0.00000000E+00
  1.99637940E+00 -5.91910183E-19 -4.35616497E-17 -6.32508706E-17  1.77018963E-17
  1.90139114E-02 -6.79648250E-20 -6.93320003E-18 -1.27889160E-17  2.25256313E-18
  1.24067718E-03 -1.73130652E-23 -7.95285917E-20 -1.89626309E-19  1.64470368E-20
  1.54489552E-05 -7.12665584E-26 -6.45010701E-21 -1.66927065E-20  3.39914482E-21
  5.73709219E-06  7.54729797E-22  7.24717295E-19  1.58231673E-18 -2.45617414E-20
  3.21426228E-04  7.58933126E-19  2.79370895E-17  4.82017203E-17 -6.25086425E-18
  1.82235046E-02 -1.05308018E-17 -1.13523778E-20  5.68401594E-19  2.94432476E-16
  0.00000000E+00 -2.51996911E-24 -8.39340573E-24  1.11058873E-24  6.01967699E-09
  0.00000000E+00 -5.41770536E-26 -2.05422002E-25  1.96327490E-26  1.53484580E-11
  4.23437599E-23 -1.93304373E-27 -3.16479486E-24 -1.17214088E-16 -5.23528964E-16
 -4.30341800E-16  1.34680136E-16  2.05670385E-01  0.00000000E+00  0.00000000E+00
  0.00000000E+00  0.00000000E+00  9.79598981E-01  2.17005884E-03  3.61147916E-01
  3.64370424E-01  4.73528448E-01 -5.20619705E-16  7.43433828E-03  2.93543539E-01
  4.17378434E-01  1.83666863E-01 -5.77574225E-17  1.95939547E-05  7.60204628E-03
  1.38818525E-02  5.65430081E-03 -2.65049423E-18  1.97022537E-08  2.04361264E-04
  3.98858616E-04  2.93345909E-04 -2.94361226E-19  1.52930608E-06  2.53262934E-04
  4.10483253E-04  3.11169870E-04 -6.27838006E-19  2.30396776E-04  7.90161331E-03
  8.86797478E-03  1.16143017E-02 -2.03723889E-17  8.67151357E-01  2.59361239E-03
  2.92914132E-05  5.29626345E-03  3.65690715E-12  4.32494917E-07  1.11821478E-06
  6.51864143E-07 -7.00456433E-22  1.84949515E-14  5.45126179E-08  1.62598573E-07
  6.01022373E-08 -4.23437599E-23  8.28560855E-08  1.80177381E-09  2.83806608E-06
  1.00196604E-01  2.76746470E+00  5.65891648E-01  3.79055931E+00 -4.71556818E-15
  2.37965661E-03  2.74095294E-01 -1.11868989E-01  4.51668227E-01 -6.64533922E-16
  1.04506659E+01  1.99003029E-05  5.88788131E-03  9.43611348E-03  2.30270686E-04
  3.21209439E-18  1.45935869E-06  5.31170829E-04  1.04973487E-03 -2.26877280E-05
  7.89122380E-19  4.20819278E-10  4.24607062E-06  1.06576249E-05  3.49027936E-07
  5.38642159E-21  4.50858763E-12  6.99584437E-07  1.88331299E-06 -2.31277959E-07
  1.17995669E-22  1.55528258E-08  4.32111611E-05  9.99839418E-05 -2.69818553E-06
 -3.28626435E-20  2.15015202E-05  3.26378149E-03  5.89473395E-03 -7.28514785E-04
 -2.00801180E-18  1.17789457E-03  6.27256446E-07  1.98215743E-05  2.12447781E-02
  0.00000000E+00  5.97992981E-10  1.99659309E-09 -2.14386541E-10 -1.36273720E-26
  0.00000000E+00  2.35988281E-12  8.81924324E-12  1.26521496E-13  1.93304373E-27
  1.80177381E-09  0.00000000E+00  1.37295863E-10  7.09591361E-03  1.30568854E-01
  1.43990164E-01  3.09370557E-02  1.17934026E-16  3.27131658E-02  5.21956403E-01
  3.94038137E-01 -2.82858513E-01 -1.15694277E-16  1.72823413E-01  7.23547876E-01
  2.52006210E-04  6.07732696E-02  6.94748694E-02 -8.50264195E-02  1.13689360E-16
  1.90334036E-05  1.21407972E-03  1.79686255E-03 -1.19069121E-03  3.30157807E-18
  6.61910877E-08  5.06248600E-05  9.94842987E-05 -5.63563262E-05  1.18077943E-19
  1.39925446E-08  1.68304435E-04  3.59456109E-04 -1.82382174E-04  2.02649394E-19
  4.78046062E-05  1.08963859E-02  1.98436632E-02 -5.52820528E-03  3.15067737E-18
  5.44829728E-03  2.34617774E-01  3.27529701E-01 -1.68017615E-01  1.29134302E-16
  6.33825111E-04  3.46195632E-06  7.82993712E-03  1.39885200E+00  3.01265910E-12
  7.67013502E-07  2.12522395E-06 -6.92784421E-07  7.70070008E-22  0.00000000E+00
  1.71515944E-09  5.43200371E-09 -2.28352840E-09  3.16479486E-24  2.83806608E-06
  1.37295863E-10  6.02093938E-09  6.10295011E-03  1.95318225E-01  8.06079752E-02
 -2.96461808E-01  4.78834524E-16  4.72618015E-02  1.96382503E+00 -3.94895227E-01
 -2.75708228E+00  3.29065713E-15  2.91832504E-02  5.30512393E-01  7.98424434E+00
Multipole Matrix (1,0,1)                   R   N=        1830
 -1.96135210E-15 -4.87126097E-16 -1.96135210E-15 -5.45641570E-17 -6.36908017E-16
 -1.96135210E-15  0.00000000E+00  0.00000000E+00  0.00000000E+00 -1.96135210E-15
  1.85595739E-01  2.16639311E+00  5.08390209E-01  0.00000000E+00 -1.96135210E-15
 -4.41094649E-21 -1.60890929E-16  1.67646354E-16 -2.02192353E-16  2.50218811E-03
 -4.00777069E-15 -9.12292668E-17 -1.69706376E-15  4.88351307E-16 -1.29745983E-15
  4.99623705E-01 -9.95379507E-16 -4.00777069E-15 -1.07899751E-16 -2.03686402E-15
  2.17422801E-16 -1.86279870E-15  4.94748030E-01 -3.45053927E-16 -4.02769188E-15
 -4.00777069E-15  1.18651063E-16  1.35156568E-15 -6.83515690E-16  4.00811619E-16
 -3.89334399E-01  0.00000000E+00  0.00000000E+00  0.00000000E+00 -4.00777069E-15
  6.26359604E-03  4.22484513E-01 -1.47257769E-01  3.35336971E-01 -8.55192533E-16
  5.99702384E-02  7.00011283E-01  5.08390209E-01  0.00000000E+00 -4.00777069E-15
  0.00000000E+00  1.11039546E-17 -2.46642218E-17  8.10796250E-18 -1.52926826E-04
  1.88956522E-21  2.50319737E-16 -4.08306899E-16 -8.11429778E-17 -3.95448497E-03
  7.06587031E-15 -3.98991702E-18 -5.07679386E-17 -1.19031757E-17 -2.62218177E-17
  2.56542909E-02 -1.27032627E-16  7.28624052E-16 -1.76804799E-15 -1.13677448E-16
 -6.62721675E-02  1.75489644E-15  7.06587031E-15 -8.80242693E-18 -1.42700065E-16
  7.23871861E-17 -7.06939171E-17  5.89790697E-02 -2.06768849E-16 -2.36513541E-16
 -6.27291153E-16  4.02382793E-17  7.53486950E-02 -2.90484711E-16 -3.39072481E-15
  7.06587031E-15  2.90847722E-18  1.30237589E-17  1.84370838E-17 -8.16163625E-18
 -1.21320629E-02 -3.96961297E-17  1.91909765E-16 -4.60833833E-16  3.76695415E-16
 -1.52140797E-02  0.00000000E+00  0.00000000E+00  0.00000000E+00  7.06587031E-15
  2.37544025E-04  8.10201724E-03  1.25771377E-02  3.36772939E-03  4.11205982E-18
  1.60879175E-03 -1.80304291E-01  3.28968688E-01  3.65235725E-02  3.88237244E-16
 -1.25592084E-01 -1.46599177E+00  5.08390209E-01  0.00000000E+00  7.06587031E-15
  0.00000000E+00 -6.81838717E-19  1.79157192E-18  3.62163527E-19 -5.39981447E-05
  0.00000000E+00 -2.25984080E-18  3.95467251E-18  3.46211725E-18 -2.42946570E-04
  3.31531902E-21 -4.95587675E-17  2.33099567E-17  6.69304691E-17 -6.45758410E-03
 -1.96135210E-15 -6.81838717E-19 -1.90781802E-18  4.61208887E-18  1.13323369E-18
  3.21156853E-03 -5.68583498E-18  9.40884817E-17 -1.80353676E-16 -7.73248638E-17
 -2.84310182E-02  2.57923709E-16  1.27858723E-15 -1.02380236E-15 -1.42127350E-15
 -5.66056738E-01 -4.87126097E-16 -1.96135210E-15 -1.79157192E-18 -4.61208887E-18
  1.02083509E-17  2.76653175E-18  1.53030685E-02 -1.02720691E-17  2.38840340E-17
 -8.64682015E-17 -1.46377936E-17 -7.50845279E-03  1.24323166E-16  3.65168687E-17
  4.84372838E-16 -2.08850806E-16 -3.90422579E-02  5.45641570E-17  6.36908017E-16
 -1.96135210E-15 -3.62163527E-19 -1.13323369E-18  2.76653175E-18 -1.04395961E-18
  1.16410291E-03 -8.69439831E-18  8.35920097E-17 -1.71780125E-16 -4.00461674E-17
 -2.67356689E-02  4.00324619E-16  1.11872068E-15 -1.09132209E-15 -9.32067220E-16
 -5.65660109E-01  0.00000000E+00  0.00000000E+00  0.00000000E+00 -1.96135210E-15
  5.39981447E-05 -3.21156853E-03  1.53030685E-02  1.16410291E-03 -5.03403430E-18
  6.55681745E-05 -4.22959214E-02  6.92159336E-02  4.12222631E-02  5.45674333E-18
 -4.65961618E-03 -6.02918279E-01  3.49733203E-01  5.98351729E-01  6.70104903E-16
 -1.85595739E-01 -2.16639311E+00  5.08390209E-01  0.00000000E+00 -1.96135210E-15
  0.00000000E+00 -5.68583498E-18  1.02720691E-17  8.69439831E-18 -6.55681745E-05
  0.00000000E+00 -1.39473328E-18  1.27416846E-18  3.51599902E-18 -1.74664332E-05
  0.00000000E+00 -7.09221312E-18 -2.82930279E-18  1.60016014E-17 -8.96819930E-05
 -4.41094649E-21 -1.60890929E-16 -1.67646354E-16  2.02192353E-16 -2.50218811E-03
 -4.00777069E-15 -2.25984080E-18  9.40884817E-17 -2.38840340E-17 -8.35920097E-17
  4.22959214E-02 -1.39473328E-18 -3.90156576E-18 -2.30427206E-18  1.09993037E-17
  1.03861516E-03  1.14259014E-17 -2.39892441E-17 -3.07357776E-18  2.44392550E-18
 -5.40512001E-02 -9.12292668E-17 -1.69706376E-15 -4.88351307E-16  1.29745983E-15
 -4.99623705E-01 -9.95379507E-16 -4.00777069E-15 -3.95467251E-18  1.80353676E-16
 -8.64682015E-17 -1.71780125E-16  6.92159336E-02 -1.27416846E-18  2.30427206E-18
 -7.04050837E-18 -5.30403440E-19  1.01977262E-02 -5.62617922E-18  4.39971051E-17
  5.62974604E-18 -5.56545850E-17  3.83759713E-02  1.07899751E-16  2.03686402E-15
  2.17422801E-16 -1.86279870E-15  4.94748030E-01  3.45053927E-16  4.02769188E-15
 -4.00777069E-15 -3.46211725E-18  7.73248638E-17 -1.46377936E-17 -4.00461674E-17
  4.12222631E-02 -3.51599902E-18 -1.09993037E-17 -5.30403440E-19  2.57769794E-17
  1.78675087E-03  2.57954101E-17 -5.25169884E-17 -1.20590358E-17  2.33259538E-17
 -7.69812693E-02 -1.18651063E-16 -1.35156568E-15 -6.83515690E-16  4.00811619E-16
 -3.89334399E-01  0.00000000E+00  0.00000000E+00  0.00000000E+00 -4.00777069E-15
  2.42946570E-04  2.84310182E-02 -7.50845279E-03 -2.67356689E-02  5.45674333E-18
  1.74664332E-05 -1.03861516E-03  1.01977262E-02  1.78675087E-03 -1.02951827E-17
 -1.72033936E-04 -5.03494489E-02  8.11293077E-03  7.12651589E-02  4.36878592E-18
 -6.26359604E-03 -4.22484513E-01 -1.47257769E-01  3.35336971E-01 -8.55192533E-16
 -5.99702384E-02 -7.00011283E-01  5.08390209E-01  0.00000000E+00 -4.00777069E-15
  3.31531902E-21  2.57923709E-16 -1.24323166E-16 -4.00324619E-16  4.65961618E-03
  0.00000000E+00  1.14259014E-17  5.62617922E-18 -2.57954101E-17  1.72033936E-04
  0.00000000E+00  2.45551859E-18  4.41186165E-18 -4.88584636E-18  3.65280134E-05
  0.00000000E+00  1.11039546E-17  2.46642218E-17 -8.10796250E-18  1.52926826E-04
  1.88956522E-21  2.50319737E-16  4.08306899E-16  8.11429778E-17  3.95448497E-03
  7.06587031E-15 -4.95587675E-17  1.27858723E-15 -3.65168687E-17 -1.11872068E-15
  6.02918279E-01 -7.09221312E-18 -2.39892441E-17 -4.39971051E-17  5.25169884E-17
  5.03494489E-02  2.45551859E-18  6.87120754E-18  8.51642527E-18 -1.52892494E-17
 -2.17266447E-03 -3.98991702E-18 -5.07679386E-17  1.19031757E-17  2.62218177E-17
 -2.56542909E-02 -1.27032627E-16  7.28624052E-16  1.76804799E-15  1.13677448E-16
  6.62721675E-02  1.75489644E-15  7.06587031E-15 -2.33099567E-17  1.02380236E-15
  4.84372838E-16 -1.09132209E-15  3.49733203E-01  2.82930279E-18  3.07357776E-18
  5.62974604E-18 -1.20590358E-17  8.11293077E-03 -4.41186165E-18 -8.51642527E-18
 -7.00768858E-18  2.15588796E-17  1.22064766E-02  8.80242693E-18  1.42700065E-16
  7.23871861E-17 -7.06939171E-17  5.89790697E-02  2.06768849E-16  2.36513541E-16
 -6.27291153E-16  4.02382793E-17  7.53486950E-02  2.90484711E-16  3.39072481E-15
  7.06587031E-15 -6.69304691E-17  1.42127350E-15 -2.08850806E-16 -9.32067220E-16
  5.98351729E-01 -1.60016014E-17 -2.44392550E-18 -5.56545850E-17  2.33259538E-17
  7.12651589E-02  4.88584636E-18  1.52892494E-17  2.15588796E-17 -2.60017086E-17
 -2.95012330E-03 -2.90847722E-18 -1.30237589E-17  1.84370838E-17 -8.16163625E-18
 -1.21320629E-02  3.96961297E-17 -1.91909765E-16 -4.60833833E-16  3.76695415E-16
 -1.52140797E-02  0.00000000E+00  0.00000000E+00  0.00000000E+00  7.06587031E-15
  6.45758410E-03  5.66056738E-01 -3.90422579E-02 -5.65660109E-01  6.70104903E-16
  8.96819930E-05  5.40512001E-02  3.83759713E-02 -7.69812693E-02  4.36878592E-18
 -3.65280134E-05  2.17266447E-03  1.22064766E-02 -2.95012330E-03  1.81303914E-17
 -2.37544025E-04 -8.10201724E-03  1.25771377E-02  3.36772939E-03  4.11205982E-18
 -1.60879175E-03  1.80304291E-01  3.28968688E-01  3.65235725E-02  3.88237244E-16
  1.25592084E-01  1.46599177E+00  5.08390209E-01  0.00000000E+00  7.06587031E-15
 -1.39360659E-17 -8.60278172E-16  2.73871634E-17 -1.04968104E-15  1.48483384E-01
 -2.69397604E-16 -3.92712230E-15 -3.38890372E-15 -3.51801617E-15  3.84755042E-01
  3.63044789E-17  8.90953616E-17 -3.17194545E-16  6.41102083E-17 -3.32104950E-02
 -9.57373385E-20  1.52395355E-17  5.50180704E-19  1.77312074E-17 -4.32658097E-03
 -3.94925814E-20 -5.49781743E-19 -1.35051571E-18 -1.25746554E-18  1.62182690E-04
  5.73971291E-19 -1.48652130E-17 -3.98663200E-18 -2.24505337E-17  7.59159004E-03
 -1.28235143E-14 -2.15888310E-19 -5.20589962E-19 -1.56471164E-17  5.32540958E-20
  1.28298032E-03 -1.79463878E-17  6.15958065E-16 -1.16271127E-15  1.99188316E-16
 -4.89788753E-02  4.74905445E-16  6.92121593E-15 -6.19848822E-15  4.89300637E-15
 -8.05554510E-01 -6.55922861E-18  8.31363025E-16 -3.03541689E-16  1.05392086E-15
 -1.92397703E-01 -3.67768361E-19  6.30297874E-18 -3.94584860E-18  9.71649207E-18
 -8.11780286E-03  6.95168714E-20  9.66999865E-19 -2.32911823E-18  1.74594981E-18
 -3.38628755E-04  3.11960966E-16  2.25975832E-14 -9.57373385E-20  1.52395355E-17
 -5.50180704E-19 -1.77312074E-17  4.32658097E-03 -3.94925814E-20 -5.49781743E-19
  1.35051571E-18  1.25746554E-18 -1.62182690E-04  5.73971291E-19 -1.48652130E-17
  3.98663200E-18  2.24505337E-17 -7.59159004E-03 -1.39360659E-17 -8.60278172E-16
 -2.73871634E-17  1.04968104E-15 -1.48483384E-01 -2.69397604E-16 -3.92712230E-15
  3.38890372E-15  3.51801617E-15 -3.84755042E-01  3.63044789E-17  8.90953616E-17
  3.17194545E-16 -6.41102083E-17  3.32104950E-02 -1.12994097E-20 -1.08379227E-18
 -1.28235143E-14 -6.55922861E-18  8.31363025E-16  3.03541689E-16 -1.05392086E-15
  1.92397703E-01 -3.67768361E-19  6.30297874E-18  3.94584860E-18 -9.71649207E-18
  8.11780286E-03  6.95168714E-20  9.66999865E-19  2.32911823E-18 -1.74594981E-18
  3.38628755E-04 -2.15888310E-19 -5.20589962E-19  1.56471164E-17 -5.32540958E-20
 -1.28298032E-03 -1.79463878E-17  6.15958065E-16  1.16271127E-15 -1.99188316E-16
  4.89788753E-02  4.74905445E-16  6.92121593E-15  6.19848822E-15 -4.89300637E-15
  8.05554510E-01 -1.08379227E-18  1.98756049E-20  3.11960966E-16  2.25975832E-14
  0.00000000E+00 -7.96463545E-22  3.21551912E-21  6.54107621E-22 -3.15312514E-08
  0.00000000E+00 -1.55189023E-20  4.91334817E-20  2.81881383E-20 -6.92356234E-07
  0.00000000E+00 -8.06203215E-18  1.50795137E-17  1.25390637E-17 -3.30411723E-04
 -2.99591102E-22 -2.19318107E-16  3.59122097E-16  7.27827141E-17 -8.62204634E-03
  0.00000000E+00 -1.04286806E-17  2.42675659E-17 -7.30635157E-18 -3.27003538E-04
  0.00000000E+00 -2.04652597E-20  7.40420358E-20 -8.88410367E-21 -6.84440811E-07
 -1.29635773E-21 -7.01109081E-18 -9.93467473E-18 -1.89339564E-21 -8.68773356E-15
 -1.50140960E-22 -1.82523179E-19  4.70028088E-19  8.12606315E-20 -2.43669432E-04
 -5.60299196E-21  5.45862324E-18 -1.07488407E-17 -5.29852877E-18 -2.06665757E-03
  8.29544065E-18  1.93447369E-16 -2.79384129E-16 -1.96030646E-16 -1.03954374E-01
 -5.80005515E-17 -1.42343940E-15  1.72717073E-15  3.03522135E-16 -8.16477102E-01
 -5.57280476E-18 -4.59133947E-16  7.51946086E-16 -1.96720467E-16 -8.87884786E-02
  1.28662887E-20 -7.86520252E-18  1.77969918E-17 -1.82543132E-18 -1.63393675E-03
  1.06370796E-18  3.06007020E-16 -5.14400700E-16 -1.10675497E-18 -2.15770627E-15
 -8.68773356E-15 -6.09266953E-22 -3.41457146E-19  8.70407929E-19  1.58894712E-19
 -4.17696153E-04 -1.83301297E-20  7.66079522E-18 -1.39563104E-17 -7.48790808E-18
 -2.99271617E-03  1.51665640E-17  1.65750758E-16 -2.03662691E-16 -1.87501989E-16
 -1.01758513E-01 -9.60557184E-17 -1.40647490E-15  1.39274566E-15  3.92208040E-16
 -7.71522604E-01 -1.26034419E-17 -5.72265752E-16  8.58294804E-16 -2.70651942E-16
 -1.09265534E-01  4.70314979E-20 -1.30580702E-17  2.83700608E-17 -3.09913341E-18
 -2.64954468E-03  1.39407369E-18  1.48424519E-16 -4.64871217E-16 -1.78919389E-18
  1.14868175E-16  1.34081539E-15 -8.68773356E-15 -1.23488045E-22 -8.50960645E-20
  2.23705683E-19 -2.26416998E-20 -1.06368727E-04 -1.02039670E-20  5.22724220E-18
 -1.04284708E-17 -3.37317213E-18 -2.03530878E-03  1.28769059E-17  1.63076401E-16
 -2.58819583E-16 -1.06462417E-16 -9.93756440E-02 -1.98815910E-17 -3.41882655E-16
  5.04960143E-16 -6.98625893E-16 -1.81817569E-01  3.90047803E-18  2.01137037E-16
 -3.54925197E-16 -8.88701091E-17  3.82216245E-02 -5.59728695E-21  1.88284890E-18
 -4.33862355E-18 -2.13715150E-18  3.84208406E-04  1.36042781E-18  3.81367085E-16
  4.78498255E-16  6.28066692E-19  0.00000000E+00  0.00000000E+00  0.00000000E+00
 -8.68773356E-15  1.34867576E-08 -2.57088468E-04  6.61775716E-04  1.13854932E-04
 -7.26856681E-20  6.59201650E-08 -2.18980356E-03  4.34201700E-03  2.18718696E-03
  1.46993503E-18 -1.23209165E-04 -1.14150451E-01  1.48930812E-01  1.10210577E-01
  5.33482292E-17 -4.59360270E-03 -9.12979213E-01  1.10676809E+00  2.01560117E-01
 -8.19245114E-16 -6.86582138E-05 -1.01502930E-01  1.63627656E-01 -4.43206563E-02
 -1.68794926E-16  1.83076738E-07 -1.77486277E-03  4.08008876E-03 -4.25843828E-04
 -2.46624398E-18 -2.72046163E-04 -9.99534733E-02 -8.57527305E-02 -1.96747673E-04
 -3.90505053E-01 -4.55822672E+00  5.08390209E-01  0.00000000E+00 -8.68773356E-15
  0.00000000E+00  3.58605698E-24 -1.75732655E-23  2.86758328E-25 -1.07944535E-10
  0.00000000E+00  1.42001437E-21 -5.72199975E-21 -1.29171004E-21 -3.74966894E-08
  0.00000000E+00  3.11641281E-18 -8.54477385E-18 -2.01747324E-18 -7.92456398E-05
  0.00000000E+00  1.72891277E-17 -4.02272880E-17  1.05753333E-17 -4.82589514E-04
  0.00000000E+00  4.23030999E-20 -1.35447053E-19  6.78219421E-20 -1.37902925E-06
  0.00000000E+00  1.93267437E-23 -8.67417529E-23  2.57847086E-23 -6.54673440E-10
  6.00823237E-22  2.37260891E-17  6.48172514E-20  1.64354666E-24  4.78719955E-21
  6.02754409E-16 -6.77015362E-16  6.89579599E-16 -2.23598471E-02  1.50522868E-14
 -4.55107486E-25  4.02275935E-20 -1.14332583E-19  1.69942044E-21 -1.66732495E-05
 -1.90842626E-22  2.99096774E-18 -6.97311901E-18 -1.44918267E-18 -5.14410132E-04
  1.62813852E-18  2.39872163E-16 -4.17893835E-16 -9.07150280E-17 -4.77709940E-02
 -2.20765963E-18  1.68122446E-16 -2.42449475E-16  5.94023729E-17 -1.50383355E-01
 -1.77884804E-20 -1.00085902E-17  1.91414485E-17 -8.78249782E-18 -4.51696229E-03
  7.77587485E-24 -8.33336011E-20  2.15038791E-19 -5.85075048E-20 -5.11569302E-05
  9.66965243E-19  9.12165888E-16 -1.30889896E-17 -1.09550435E-20 -3.46382399E-16
  6.79029246E-16 -1.69143920E-16  1.91754051E-16 -1.83998517E+00  3.73842194E-15
  1.50522868E-14 -2.24012055E-24  9.40221049E-20 -2.58022548E-19  3.98675943E-21
 -3.87720490E-05 -7.98191698E-22  5.89005965E-18 -1.30285998E-17 -2.88766704E-18
 -1.00780771E-03  4.40179706E-18  3.56695432E-16 -5.78242809E-16 -1.44703386E-16
 -7.00455740E-02 -5.07815293E-18  2.57073083E-16 -3.37538747E-16  1.01784602E-16
 -1.97273207E-01 -5.57282850E-20 -1.53295125E-17  2.69590673E-17 -1.36904233E-17
 -7.20596412E-03  3.52340238E-23 -1.77333617E-19  4.35283776E-19 -1.24223929E-19
 -1.09934754E-04  1.75200935E-18  9.36740489E-16 -1.54069468E-17 -2.30037062E-20
 -3.79891495E-16  6.64017828E-16  5.24466573E-17  4.01184114E-16 -1.14787507E+00
 -1.50587840E-16 -1.75775834E-15  1.50522868E-14  3.64000538E-26 -1.70717014E-21
  4.86594296E-21  1.26237639E-20  7.04447606E-07 -1.74722508E-22  1.46005372E-18
 -3.43894519E-18  2.43712345E-19 -2.49917221E-04  1.05311600E-18  9.23926109E-17
 -1.70734113E-16  5.17656807E-17 -1.80955469E-02  1.35055083E-18 -7.46132606E-17
  1.18123092E-16  4.30566838E-17  5.68168344E-02  2.84238038E-20  8.42881222E-18
 -1.64236267E-17  4.27153565E-18  3.95508663E-03 -1.03864308E-23  5.82508002E-20
 -1.50249908E-19  1.47924483E-20  3.60841787E-05  8.47588936E-19  7.38284045E-16
  1.56471554E-17  1.05130066E-20  3.94391577E-16 -8.52497866E-16  5.09738137E-16
 -8.95231794E-17  1.34980590E+00  0.00000000E+00  0.00000000E+00  0.00000000E+00
  1.50522868E-14  3.30145756E-11 -1.68108736E-05  4.78645260E-05 -7.11928806E-07
  1.27587580E-20  2.13359221E-09 -5.26525628E-04  1.23463263E-03  2.57411811E-04
  9.47908828E-19 -2.35831670E-05 -5.15692087E-02  8.98746061E-02  1.97750227E-02
  8.65029810E-17 -1.97527568E-04 -1.64150762E-01  2.55361743E-01 -6.25768614E-02
  8.60860567E-17 -2.40179741E-07 -4.68809445E-03  8.92248306E-03 -4.14150585E-03
 -2.83283290E-18  1.21681279E-10 -5.16869821E-05  1.33977880E-04 -3.65643910E-05
 -2.49257394E-20 -1.36980848E-04 -1.59042605E-01 -3.82402560E-03 -3.88299299E-06
 -1.77533291E-02 -1.92680085E+00  1.53453376E+00 -1.40541164E+00  5.53083576E-16
 -5.16098347E-01 -6.02423261E+00  5.08390209E-01  0.00000000E+00  1.50522868E-14
 -8.88127730E-23 -1.81264261E-19  4.66882365E-19  1.52779122E-19 -6.04879114E-05
 -7.39229307E-22  1.31075186E-19 -2.56484879E-19 -1.64912084E-19 -2.66828464E-04
  4.87093885E-19 -3.24383936E-18  2.55914190E-18  3.98392092E-18 -1.32527894E-02
 -1.11415070E-17 -1.07923361E-15  1.27668990E-15  8.76634861E-16 -2.35986142E-01
 -5.62516900E-18 -5.29922342E-16  8.78332733E-16  9.41109660E-17 -6.77733827E-02
  2.82163418E-20 -7.43646822E-18  1.66582675E-17  2.01036372E-18 -1.03579330E-03
  4.98300675E-20  9.81101196E-18 -1.41835078E-15 -1.81944863E-18 -6.16473462E-16
 -1.00941929E-14  3.25863173E-15  9.25916705E-15 -1.96855883E+00  7.53729457E-17
 -9.86776143E-16 -3.20159491E-16  1.14591399E-15 -4.89883315E-01 -3.24879367E-14
 -1.96260770E-26  1.30339392E-21 -3.85611571E-21 -7.56621967E-23 -8.15245427E-07
 -5.51924990E-24  1.39561233E-19 -3.48093592E-19 -7.11297620E-20 -2.79426159E-05
  4.56068744E-20  1.69536874E-17 -3.27632395E-17 -6.90780095E-18 -3.95805664E-03
 -1.07076417E-19  6.05396993E-18 -1.05173487E-17  1.20284597E-18 -1.77956807E-02
 -1.30284607E-21 -1.63757279E-18  3.45806655E-18 -1.05740629E-18 -5.35196149E-04
  5.80659448E-25 -9.12227768E-21  2.48968759E-20 -4.67215258E-21 -3.73106819E-06
  5.42609250E-20  1.10275589E-16 -3.73273130E-18 -1.32359273E-21 -4.79107286E-17
 -6.15375936E-17  9.97389631E-17 -2.60017046E-17 -5.06622245E-01  9.18869557E-16
  7.12579733E-15 -7.32441936E-15 -1.36019329E-15 -2.80199452E+00 -6.92914807E-16
  1.38112652E-14 -6.14861572E-23  2.11389415E-19 -5.49675256E-19  1.05343634E-19
 -4.64440723E-05 -2.02185226E-20  1.75603517E-17 -3.65829340E-17  8.67671247E-19
 -2.20435694E-03  1.05058976E-17  7.24263069E-16 -1.15307793E-15  1.51814661E-16
 -9.77200425E-02 -1.28385841E-18  2.97455406E-16 -3.84926510E-16  2.70920379E-16
 -8.62107666E-02 -1.61238281E-20 -3.31631022E-19  6.91206083E-19 -4.49172572E-19
 -1.98416190E-03  1.03864172E-22  2.27669026E-20 -5.20713813E-20  2.51970433E-20
 -5.00180321E-05  1.03460654E-17  4.20036814E-15 -1.34330786E-18 -2.24926802E-21
 -4.20930575E-17  1.26466359E-15 -6.08583233E-16  1.51659306E-15 -4.34988190E-01
  1.02347124E-15  1.39336431E-14  1.68280994E-15  1.28118119E-14 -2.44759008E+00
  2.51230708E-17  4.46848036E-15  4.02868244E-14 -2.99591102E-22 -2.19318107E-16
 -3.59122097E-16 -7.27827141E-17  8.62204634E-03  0.00000000E+00 -1.04286806E-17
 -2.42675659E-17  7.30635157E-18  3.27003538E-04  0.00000000E+00 -2.04652597E-20
 -7.40420358E-20  8.88410367E-21  6.84440811E-07  0.00000000E+00 -7.96463545E-22
 -3.21551912E-21 -6.54107621E-22  3.15312514E-08  0.00000000E+00 -1.55189023E-20
 -4.91334817E-20 -2.81881383E-20  6.92356234E-07  0.00000000E+00 -8.06203215E-18
 -1.50795137E-17 -1.25390637E-17  3.30411723E-04 -9.93467473E-18 -1.89339564E-21
 -1.29635773E-21 -7.01109081E-18  0.00000000E+00 -5.41838202E-27 -2.95355658E-26
 -6.01208019E-27  2.37540757E-13  0.00000000E+00  0.00000000E+00  0.00000000E+00
  0.00000000E+00  0.00000000E+00 -2.39362795E-26  0.00000000E+00 -1.77169947E-26
 -8.68773356E-15 -5.80005515E-17 -1.42343940E-15 -1.72717073E-15 -3.03522135E-16
  8.16477102E-01 -5.57280476E-18 -4.59133947E-16 -7.51946086E-16  1.96720467E-16
  8.87884786E-02  1.28662887E-20 -7.86520252E-18 -1.77969918E-17  1.82543132E-18
  1.63393675E-03 -1.50140960E-22 -1.82523179E-19 -4.70028088E-19 -8.12606315E-20
  2.43669432E-04 -5.60299196E-21  5.45862324E-18  1.07488407E-17  5.29852877E-18
  2.06665757E-03  8.29544065E-18  1.93447369E-16  2.79384129E-16  1.96030646E-16
  1.03954374E-01 -5.14400700E-16 -1.10675497E-18  1.06370796E-18  3.06007020E-16
 -5.41838202E-27 -1.08909972E-24 -5.80872978E-24 -1.22941736E-24 -7.36842673E-10
  0.00000000E+00  1.60597725E-23  4.25895154E-23  1.79114631E-24 -5.16400373E-09
  1.90158274E-22  4.50596471E-25 -1.14228098E-22 -2.15770627E-15 -8.68773356E-15
  9.60557184E-17  1.40647490E-15  1.39274566E-15  3.92208040E-16 -7.71522604E-01
  1.26034419E-17  5.72265752E-16  8.58294804E-16 -2.70651942E-16 -1.09265534E-01
 -4.70314979E-20  1.30580702E-17  2.83700608E-17 -3.09913341E-18 -2.64954468E-03
  6.09266953E-22  3.41457146E-19  8.70407929E-19  1.58894712E-19 -4.17696153E-04
  1.83301297E-20 -7.66079522E-18 -1.39563104E-17 -7.48790808E-18 -2.99271617E-03
 -1.51665640E-17 -1.65750758E-16 -2.03662691E-16 -1.87501989E-16 -1.01758513E-01
  4.64871217E-16  1.78919389E-18 -1.39407369E-18 -1.48424519E-16  2.95355658E-26
  5.80872978E-24  2.93804886E-23  6.32184841E-24  2.01333608E-07  0.00000000E+00
 -6.43924640E-23 -1.73146885E-22 -7.18201039E-24  2.07082404E-08 -2.52621844E-22
 -1.84610607E-24 -8.07897922E-23 -1.14868175E-16 -1.34081539E-15 -8.68773356E-15
  1.98815910E-17  3.41882655E-16  5.04960143E-16 -6.98625893E-16 -1.81817569E-01
 -3.90047803E-18 -2.01137037E-16 -3.54925197E-16 -8.88701091E-17  3.82216245E-02
  5.59728695E-21 -1.88284890E-18 -4.33862355E-18 -2.13715150E-18  3.84208406E-04
  1.23488045E-22  8.50960645E-20  2.23705683E-19 -2.26416998E-20 -1.06368727E-04
  1.02039670E-20 -5.22724220E-18 -1.04284708E-17 -3.37317213E-18 -2.03530878E-03
 -1.28769059E-17 -1.63076401E-16 -2.58819583E-16 -1.06462417E-16 -9.93756440E-02
 -4.78498255E-16 -6.28066692E-19 -1.36042781E-18 -3.81367085E-16  6.01208019E-27
  1.22941736E-24  6.32184841E-24  5.21562630E-25  5.56093417E-10  0.00000000E+00
 -1.79053296E-24 -4.74876358E-24  4.83480273E-24  5.75890173E-10 -1.83415166E-22
 -8.59282895E-26 -4.22179444E-23  0.00000000E+00  0.00000000E+00  0.00000000E+00
 -8.68773356E-15  4.59360270E-03  9.12979213E-01  1.10676809E+00  2.01560117E-01
 -8.19245114E-16  6.86582138E-05  1.01502930E-01  1.63627656E-01 -4.43206563E-02
 -1.68794926E-16 -1.83076738E-07  1.77486277E-03  4.08008876E-03 -4.25843828E-04
 -2.46624398E-18 -1.34867576E-08  2.57088468E-04  6.61775716E-04  1.13854932E-04
 -7.26856681E-20 -6.59201650E-08  2.18980356E-03  4.34201700E-03  2.18718696E-03
  1.46993503E-18  1.23209165E-04  1.14150451E-01  1.48930812E-01  1.10210577E-01
  5.33482292E-17  8.57527305E-02  1.96747673E-04  2.72046163E-04  9.99534733E-02
 -2.37540757E-13  7.36842673E-10  2.01333608E-07  5.56093417E-10 -2.40510455E-24
  0.00000000E+00 -5.16013616E-09 -1.36779922E-08 -5.75334380E-10  5.03517372E-24
  8.90272645E-08 -1.95491369E-10  2.26145528E-08  3.90505053E-01  4.55822672E+00
  5.08390209E-01  0.00000000E+00 -8.68773356E-15  0.00000000E+00  1.72891277E-17
  4.02272880E-17 -1.05753333E-17  4.82589514E-04  0.00000000E+00  4.23030999E-20
  1.35447053E-19 -6.78219421E-20  1.37902925E-06  0.00000000E+00  1.93267437E-23
  8.67417529E-23 -2.57847086E-23  6.54673440E-10  0.00000000E+00  3.58605698E-24
  1.75732655E-23 -2.86758328E-25  1.07944535E-10  0.00000000E+00  1.42001437E-21
  5.72199975E-21  1.29171004E-21  3.74966894E-08  0.00000000E+00  3.11641281E-18
  8.54477385E-18  2.01747324E-18  7.92456398E-05  6.48172514E-20  1.64354666E-24
  6.00823237E-22  2.37260891E-17  0.00000000E+00  0.00000000E+00  0.00000000E+00
  0.00000000E+00  0.00000000E+00  0.00000000E+00  0.00000000E+00  0.00000000E+00
  0.00000000E+00  0.00000000E+00  3.72938134E-28  0.00000000E+00  0.00000000E+00
  4.78719955E-21  6.02754409E-16  6.77015362E-16 -6.89579599E-16  2.23598471E-02
  1.50522868E-14 -2.20765963E-18  1.68122446E-16  2.42449475E-16 -5.94023729E-17
  1.50383355E-01 -1.77884804E-20 -1.00085902E-17 -1.91414485E-17  8.78249782E-18
  4.51696229E-03  7.77587485E-24 -8.33336011E-20 -2.15038791E-19  5.85075048E-20
  5.11569302E-05 -4.55107486E-25  4.02275935E-20  1.14332583E-19 -1.69942044E-21
  1.66732495E-05 -1.90842626E-22  2.99096774E-18  6.97311901E-18  1.44918267E-18
  5.14410132E-04  1.62813852E-18  2.39872163E-16  4.17893835E-16  9.07150280E-17
  4.77709940E-02 -1.30889896E-17 -1.09550435E-20  9.66965243E-19  9.12165888E-16
  0.00000000E+00  1.60597725E-23  6.43924640E-23  1.79053296E-24  5.16013616E-09
  0.00000000E+00  0.00000000E+00  0.00000000E+00  0.00000000E+00  0.00000000E+00
  6.92030601E-23  9.80391899E-29 -1.50649445E-24 -3.46382399E-16  6.79029246E-16
  1.69143920E-16 -1.91754051E-16  1.83998517E+00  3.73842194E-15  1.50522868E-14
  5.07815293E-18 -2.57073083E-16 -3.37538747E-16  1.01784602E-16 -1.97273207E-01
  5.57282850E-20  1.53295125E-17  2.69590673E-17 -1.36904233E-17 -7.20596412E-03
 -3.52340238E-23  1.77333617E-19  4.35283776E-19 -1.24223929E-19 -1.09934754E-04
  2.24012055E-24 -9.40221049E-20 -2.58022548E-19  3.98675943E-21 -3.87720490E-05
  7.98191698E-22 -5.89005965E-18 -1.30285998E-17 -2.88766704E-18 -1.00780771E-03
 -4.40179706E-18 -3.56695432E-16 -5.78242809E-16 -1.44703386E-16 -7.00455740E-02
  1.54069468E-17  2.30037062E-20 -1.75200935E-18 -9.36740489E-16  0.00000000E+00
 -4.25895154E-23 -1.73146885E-22 -4.74876358E-24 -1.36779922E-08  0.00000000E+00
  0.00000000E+00  0.00000000E+00  0.00000000E+00  1.53484580E-11 -1.76144081E-22
  2.74151695E-28  3.91090343E-24  3.79891495E-16 -6.64017828E-16  5.24466573E-17
  4.01184114E-16 -1.14787507E+00  1.50587840E-16  1.75775834E-15  1.50522868E-14
 -1.35055083E-18  7.46132606E-17  1.18123092E-16  4.30566838E-17  5.68168344E-02
 -2.84238038E-20 -8.42881222E-18 -1.64236267E-17  4.27153565E-18  3.95508663E-03
  1.03864308E-23 -5.82508002E-20 -1.50249908E-19  1.47924483E-20  3.60841787E-05
 -3.64000538E-26  1.70717014E-21  4.86594296E-21  1.26237639E-20  7.04447606E-07
  1.74722508E-22 -1.46005372E-18 -3.43894519E-18  2.43712345E-19 -2.49917221E-04
 -1.05311600E-18 -9.23926109E-17 -1.70734113E-16  5.17656807E-17 -1.80955469E-02
 -1.56471554E-17 -1.05130066E-20 -8.47588936E-19 -7.38284045E-16  0.00000000E+00
 -1.79114631E-24 -7.18201039E-24  4.83480273E-24 -5.75334380E-10  0.00000000E+00
  0.00000000E+00  0.00000000E+00  0.00000000E+00  0.00000000E+00 -3.85885978E-23
  2.14159074E-29 -1.16525119E-24 -3.94391577E-16  8.52497866E-16  5.09738137E-16
 -8.95231794E-17  1.34980590E+00  0.00000000E+00  0.00000000E+00  0.00000000E+00
  1.50522868E-14  1.97527568E-04  1.64150762E-01  2.55361743E-01 -6.25768614E-02
  8.60860567E-17  2.40179741E-07  4.68809445E-03  8.92248306E-03 -4.14150585E-03
 -2.83283290E-18 -1.21681279E-10  5.16869821E-05  1.33977880E-04 -3.65643910E-05
 -2.49257394E-20 -3.30145756E-11  1.68108736E-05  4.78645260E-05 -7.11928806E-07
  1.27587580E-20 -2.13359221E-09  5.26525628E-04  1.23463263E-03  2.57411811E-04
  9.47908828E-19  2.35831670E-05  5.15692087E-02  8.98746061E-02  1.97750227E-02
  8.65029810E-17  3.82402560E-03  3.88299299E-06  1.36980848E-04  1.59042605E-01
  0.00000000E+00  5.16400373E-09  2.07082404E-08  5.75890173E-10  5.03517372E-24
  0.00000000E+00  0.00000000E+00  1.53484580E-11  0.00000000E+00  0.00000000E+00
  1.31139127E-08  1.21602944E-13  7.27351035E-10  1.77533291E-02  1.92680085E+00
  1.53453376E+00 -1.40541164E+00  5.53083576E-16  5.16098347E-01  6.02423261E+00
  5.08390209E-01  0.00000000E+00  1.50522868E-14 -1.11415070E-17 -1.07923361E-15
 -1.27668990E-15 -8.76634861E-16  2.35986142E-01 -5.62516900E-18 -5.29922342E-16
 -8.78332733E-16 -9.41109660E-17  6.77733827E-02  2.82163418E-20 -7.43646822E-18
 -1.66582675E-17 -2.01036372E-18  1.03579330E-03 -8.88127730E-23 -1.81264261E-19
 -4.66882365E-19 -1.52779122E-19  6.04879114E-05 -7.39229307E-22  1.31075186E-19
  2.56484879E-19  1.64912084E-19  2.66828464E-04  4.87093885E-19 -3.24383936E-18
 -2.55914190E-18 -3.98392092E-18  1.32527894E-02 -1.41835078E-15 -1.81944863E-18
  4.98300675E-20  9.81101196E-18 -2.39362795E-26  1.90158274E-22  2.52621844E-22
  1.83415166E-22 -8.90272645E-08  3.72938134E-28  6.92030601E-23  1.76144081E-22
  3.85885978E-23 -1.31139127E-08 -1.86068658E-25  2.38820788E-24  6.61583331E-22
 -6.16473462E-16 -1.00941929E-14 -3.25863173E-15 -9.25916705E-15  1.96855883E+00
  7.53729457E-17 -9.86776143E-16  3.20159491E-16 -1.14591399E-15  4.89883315E-01
 -3.24879367E-14 -1.07076417E-19  6.05396993E-18  1.05173487E-17 -1.20284597E-18
  1.77956807E-02 -1.30284607E-21 -1.63757279E-18 -3.45806655E-18  1.05740629E-18
  5.35196149E-04  5.80659448E-25 -9.12227768E-21 -2.48968759E-20  4.67215258E-21
  3.73106819E-06 -1.96260770E-26  1.30339392E-21  3.85611571E-21  7.56621967E-23
  8.15245427E-07 -5.51924990E-24  1.39561233E-19  3.48093592E-19  7.11297620E-20
  2.79426159E-05  4.56068744E-20  1.69536874E-17  3.27632395E-17  6.90780095E-18
  3.95805664E-03 -3.73273130E-18 -1.32359273E-21  5.42609250E-20  1.10275589E-16
  0.00000000E+00  4.50596471E-25  1.84610607E-24  8.59282895E-26  1.95491369E-10
  0.00000000E+00  9.80391899E-29 -2.74151695E-28 -2.14159074E-29 -1.21602944E-13
  2.38820788E-24  0.00000000E+00 -1.30437357E-25 -4.79107286E-17 -6.15375936E-17
 -9.97389631E-17  2.60017046E-17  5.06622245E-01  9.18869557E-16  7.12579733E-15
  7.32441936E-15  1.36019329E-15  2.80199452E+00 -6.92914807E-16  1.38112652E-14
 -1.28385841E-18  2.97455406E-16  3.84926510E-16 -2.70920379E-16  8.62107666E-02
 -1.61238281E-20 -3.31631022E-19 -6.91206083E-19  4.49172572E-19  1.98416190E-03
  1.03864172E-22  2.27669026E-20  5.20713813E-20 -2.51970433E-20  5.00180321E-05
 -6.14861572E-23  2.11389415E-19  5.49675256E-19 -1.05343634E-19  4.64440723E-05
 -2.02185226E-20  1.75603517E-17  3.65829340E-17 -8.67671247E-19  2.20435694E-03
  1.05058976E-17  7.24263069E-16  1.15307793E-15 -1.51814661E-16  9.77200425E-02
 -1.34330786E-18 -2.24926802E-21  1.03460654E-17  4.20036814E-15 -1.77169947E-26
 -1.14228098E-22  8.07897922E-23  4.22179444E-23 -2.26145528E-08  0.00000000E+00
 -1.50649445E-24 -3.91090343E-24  1.16525119E-24 -7.27351035E-10  6.61583331E-22
 -1.30437357E-25  3.72655032E-27 -4.20930575E-17  1.26466359E-15  6.08583233E-16
 -1.51659306E-15  4.34988190E-01  1.02347124E-15  1.39336431E-14 -1.68280994E-15
 -1.28118119E-14  2.44759008E+00  2.51230708E-17  4.46848036E-15  4.02868244E-14
Multipole Matrix (0,1,1)                   R   N=        1830
 -4.00029000E-16 -9.93521585E-17 -4.00029000E-16  0.00000000E+00  0.00000000E+00
 -4.00029000E-16 -5.45641570E-17 -6.36908017E-16  0.00000000E+00 -4.00029000E-16
  3.78533143E-02  4.41848287E-01  0.00000000E+00  5.08390209E-01 -4.00029000E-16
 -3.90865781E-21 -4.18489571E-16  4.48796966E-16 -5.18065970E-16  6.00497311E-03
 -1.20061914E-14 -2.34068790E-17 -1.59801528E-15  1.01278684E-15 -1.80429784E-15
  3.64838639E-01 -2.98188640E-15 -1.20061914E-14 -2.90445533E-17 -1.28464120E-15
  1.07923193E-16 -1.68026363E-15  2.57326704E-01  0.00000000E+00  0.00000000E+00
 -1.20061914E-14  3.00007782E-17  6.10577678E-16 -6.35505192E-16  2.77667665E-16
 -1.40634207E-01 -3.45053927E-16 -4.02769188E-15  0.00000000E+00 -1.20061914E-14
  1.75924100E-03  4.51910382E-01 -3.11324132E-01  5.01236911E-01 -1.09173798E-15
  1.79654531E-01  2.09704350E+00  0.00000000E+00  5.08390209E-01 -1.20061914E-14
  0.00000000E+00 -1.36707800E-17  2.98662043E-17 -1.03676157E-17  1.91889058E-04
 -9.25742882E-21 -3.10222671E-16  5.07389688E-16  9.29649933E-17  5.17785728E-03
 -7.97775907E-15 -1.00051664E-18 -1.87479762E-16  2.49050467E-16 -1.73594935E-16
  4.76024572E-02 -4.47498069E-16 -3.63594756E-15  3.85242737E-15 -4.24914063E-16
  6.15570393E-01 -1.98137531E-15 -7.97775907E-15 -2.18172015E-18 -2.82217394E-16
  3.36325168E-16 -2.62652407E-16  6.50826061E-02 -7.22881074E-16 -3.71291632E-15
  3.03545465E-15 -1.89624205E-16  6.31845767E-01  0.00000000E+00  0.00000000E+00
 -7.97775907E-15  6.33486841E-19 -9.44064800E-18  4.18024259E-18 -4.04987270E-17
  9.19393283E-04 -1.59642253E-16 -1.93468554E-15  2.26665087E-15 -1.92195126E-15
  2.78823186E-01 -2.90484711E-16 -3.39072481E-15  0.00000000E+00 -7.97775907E-15
  6.14587762E-05  5.34655018E-02 -7.38469396E-02  4.73264933E-02 -8.69901354E-17
  6.31274761E-03  5.92308212E-01 -6.10536274E-01  2.53812978E-02 -2.13693789E-15
  1.41800422E-01  1.65518594E+00  0.00000000E+00  5.08390209E-01 -7.97775907E-15
  0.00000000E+00 -1.39064913E-19  3.62163527E-19  8.97404930E-20 -1.10132310E-05
  0.00000000E+00 -3.70727949E-19  6.43294802E-19  6.15740747E-19 -3.65231298E-05
 -1.10903377E-21 -8.24562864E-18  3.73974294E-18  1.21524030E-17 -8.34842095E-04
 -4.00029000E-16 -1.39064913E-19 -3.89110417E-19  1.13323369E-18 -7.13054511E-19
  6.55017803E-04 -1.98010856E-17 -1.34936015E-16  1.79957284E-16  6.63414982E-17
  4.60572764E-02 -2.66355942E-16 -5.16033325E-16  2.33083902E-16  1.48761567E-16
  2.50420899E-01 -9.93521585E-17 -4.00029000E-16 -3.62163527E-19 -1.13323369E-18
  2.76653175E-18 -1.04395961E-18  1.16410291E-03 -3.41458945E-17 -1.39828384E-16
  1.47799790E-16  8.47089258E-17  5.05450603E-02 -1.34742512E-16 -1.48258166E-16
 -2.60564866E-16  8.68926586E-17  8.12777921E-02  0.00000000E+00  0.00000000E+00
 -4.00029000E-16 -8.97404930E-20  7.13054511E-19 -1.04395961E-18 -8.97401637E-19
  9.83286847E-03 -3.07005262E-17 -1.94342927E-16  2.62122343E-16  7.88034116E-17
  6.74459011E-02 -4.12809068E-16 -7.81023376E-16  3.81634661E-16  2.58106717E-16
  3.93235531E-01  5.45641570E-17  6.36908017E-16  0.00000000E+00 -4.00029000E-16
  1.10132310E-05 -6.55017803E-04  1.16410291E-03  9.83286847E-03 -1.02672014E-18
  2.36741017E-04  3.37765636E-02 -3.60584661E-02 -9.26238990E-03 -8.65851899E-17
  4.54835762E-03  1.40055728E-01 -4.85861729E-02  4.41677016E-03 -5.37285585E-16
 -3.78533143E-02 -4.41848287E-01  0.00000000E+00  5.08390209E-01 -4.00029000E-16
  0.00000000E+00 -1.98010856E-17  3.41458945E-17  3.07005262E-17 -2.36741017E-04
  0.00000000E+00 -4.17824173E-18  3.51599902E-18  1.06334747E-17 -5.23246854E-05
  0.00000000E+00 -1.85931559E-17 -8.57190154E-18  4.24275537E-17 -2.28399074E-04
 -3.90865781E-21 -4.18489571E-16 -4.48796966E-16  5.18065970E-16 -6.00497311E-03
 -1.20061914E-14 -3.70727949E-19 -1.34936015E-16  1.39828384E-16  1.94342927E-16
 -3.37765636E-02 -4.17824173E-18 -1.16880303E-17  1.09993037E-17  2.69749887E-17
  3.11140867E-03 -1.18565305E-17 -3.57971136E-17 -1.57705248E-17  7.46787649E-17
 -1.58200304E-03 -2.34068790E-17 -1.59801528E-15 -1.01278684E-15  1.80429784E-15
 -3.64838639E-01 -2.98188640E-15 -1.20061914E-14 -6.43294802E-19 -1.79957284E-16
  1.47799790E-16  2.62122343E-16 -3.60584661E-02 -3.51599902E-18 -1.09993037E-17
 -5.30403440E-19  2.57769794E-17  1.78675087E-03  5.46791958E-18  1.94891132E-17
 -2.17680238E-17 -4.03330988E-17  2.28725616E-04  2.90445533E-17  1.28464120E-15
  1.07923193E-16 -1.68026363E-15  2.57326704E-01  0.00000000E+00  0.00000000E+00
 -1.20061914E-14 -6.15740747E-19 -6.63414982E-17  8.47089258E-17  7.88034116E-17
 -9.26238990E-03 -1.06334747E-17 -2.69749887E-17  2.57769794E-17  5.66597771E-17
  1.49539132E-02 -2.71454340E-17 -6.21930224E-17 -3.14334991E-17  1.17851179E-16
  2.15405728E-02 -3.00007782E-17 -6.10577678E-16 -6.35505192E-16  2.77667665E-16
 -1.40634207E-01  3.45053927E-16  4.02769188E-15  0.00000000E+00 -1.20061914E-14
  3.65231298E-05 -4.60572764E-02  5.05450603E-02  6.74459011E-02 -8.65851899E-17
  5.23246854E-05 -3.11140867E-03  1.78675087E-03  1.49539132E-02 -3.08415684E-17
  1.75009877E-04 -1.97153892E-02 -5.94483605E-03  5.17823611E-02 -8.56065032E-17
 -1.75924100E-03 -4.51910382E-01 -3.11324132E-01  5.01236911E-01 -1.09173798E-15
 -1.79654531E-01 -2.09704350E+00  0.00000000E+00  5.08390209E-01 -1.20061914E-14
 -1.10903377E-21 -2.66355942E-16  1.34742512E-16  4.12809068E-16 -4.54835762E-03
  0.00000000E+00 -1.18565305E-17 -5.46791958E-18  2.71454340E-17 -1.75009877E-04
  0.00000000E+00 -2.77241654E-18 -4.88584636E-18  5.60087769E-18 -4.12421510E-05
  0.00000000E+00 -1.36707800E-17 -2.98662043E-17  1.03676157E-17 -1.91889058E-04
 -9.25742882E-21 -3.10222671E-16 -5.07389688E-16 -9.29649933E-17 -5.17785728E-03
 -7.97775907E-15 -8.24562864E-18 -5.16033325E-16  1.48258166E-16  7.81023376E-16
 -1.40055728E-01 -1.85931559E-17 -3.57971136E-17 -1.94891132E-17  6.21930224E-17
  1.97153892E-02 -2.77241654E-18 -7.75797402E-18 -1.52892494E-17  1.22372060E-17
  2.45305857E-03 -1.00051664E-18 -1.87479762E-16 -2.49050467E-16  1.73594935E-16
 -4.76024572E-02 -4.47498069E-16 -3.63594756E-15 -3.85242737E-15  4.24914063E-16
 -6.15570393E-01 -1.98137531E-15 -7.97775907E-15 -3.73974294E-18 -2.33083902E-16
 -2.60564866E-16  3.81634661E-16 -4.85861729E-02  8.57190154E-18  1.57705248E-17
 -2.17680238E-17 -3.14334991E-17 -5.94483605E-03  4.88584636E-18  1.52892494E-17
  2.15588796E-17 -2.60017086E-17 -2.95012330E-03  2.18172015E-18  2.82217394E-16
  3.36325168E-16 -2.62652407E-16  6.50826061E-02  7.22881074E-16  3.71291632E-15
  3.03545465E-15 -1.89624205E-16  6.31845767E-01  0.00000000E+00  0.00000000E+00
 -7.97775907E-15 -1.21524030E-17 -1.48761567E-16  8.68926586E-17  2.58106717E-16
  4.41677016E-03 -4.24275537E-17 -7.46787649E-17 -4.03330988E-17  1.17851179E-16
  5.17823611E-02 -5.60087769E-18 -1.22372060E-17 -2.60017086E-17  1.57105587E-17
  1.29244165E-02 -6.33486841E-19  9.44064800E-18  4.18024259E-18 -4.04987270E-17
  9.19393283E-04  1.59642253E-16  1.93468554E-15  2.26665087E-15 -1.92195126E-15
  2.78823186E-01  2.90484711E-16  3.39072481E-15  0.00000000E+00 -7.97775907E-15
  8.34842095E-04 -2.50420899E-01  8.12777921E-02  3.93235531E-01 -5.37285585E-16
  2.28399074E-04  1.58200304E-03  2.28725616E-04  2.15405728E-02 -8.56065032E-17
  4.12421510E-05 -2.45305857E-03 -2.95012330E-03  1.29244165E-02 -2.04702164E-17
 -6.14587762E-05 -5.34655018E-02 -7.38469396E-02  4.73264933E-02 -8.69901354E-17
 -6.31274761E-03 -5.92308212E-01 -6.10536274E-01  2.53812978E-02 -2.13693789E-15
 -1.41800422E-01 -1.65518594E+00  0.00000000E+00  5.08390209E-01 -7.97775907E-15
 -3.70163163E-18 -1.10010554E-15  3.85209463E-16 -1.65702508E-15  1.42230942E-01
 -8.06993401E-16 -1.17602515E-14 -3.52105808E-15 -1.27482911E-14  1.15227879E+00
 -4.58783803E-17 -1.89733591E-15 -1.94007890E-15 -1.89545219E-15  2.02951727E-01
 -1.45302389E-20 -3.72806288E-17 -3.94307107E-17 -6.22577357E-17  6.88123225E-03
 -1.18313588E-19 -1.64491208E-18 -1.25669761E-18 -4.69403273E-18  4.84555311E-04
 -5.76672108E-19 -1.20039237E-17  9.59435492E-19 -2.91646027E-17  2.89903176E-03
 -3.83949477E-14 -5.82577432E-20 -4.29678877E-17  6.24850066E-17 -4.84031988E-17
  8.01795401E-03 -6.56073501E-17 -1.70550969E-15  2.12845578E-15 -9.48477345E-16
  1.99718129E-01 -5.36183894E-16 -7.81348361E-15  4.89440494E-15 -7.38681936E-15
  9.09426298E-01 -1.01821889E-18 -4.85010165E-16  8.81357625E-17 -8.20576078E-16
  7.27286668E-02 -9.18903355E-19 -4.30075666E-18  4.38730797E-18 -1.17966442E-17
 -3.05964390E-04 -7.84893970E-20 -1.09133932E-18  1.74559715E-18 -2.75320907E-18
  3.81991938E-04 -1.58403397E-15 -2.55093537E-14 -1.45302389E-20 -3.72806288E-17
  3.94307107E-17  6.22577357E-17 -6.88123225E-03 -1.18313588E-19 -1.64491208E-18
  1.25669761E-18  4.69403273E-18 -4.84555311E-04 -5.76672108E-19 -1.20039237E-17
 -9.59435492E-19  2.91646027E-17 -2.89903176E-03 -3.70163163E-18 -1.10010554E-15
 -3.85209463E-16  1.65702508E-15 -1.42230942E-01 -8.06993401E-16 -1.17602515E-14
  3.52105808E-15  1.27482911E-14 -1.15227879E+00 -4.58783803E-17 -1.89733591E-15
  1.94007890E-15  1.89545219E-15 -2.02951727E-01 -3.38316183E-20 -7.87675570E-19
 -3.83949477E-14 -1.01821889E-18 -4.85010165E-16 -8.81357625E-17  8.20576078E-16
 -7.27286668E-02 -9.18903355E-19 -4.30075666E-18 -4.38730797E-18  1.17966442E-17
  3.05964390E-04 -7.84893970E-20 -1.09133932E-18 -1.74559715E-18  2.75320907E-18
 -3.81991938E-04 -5.82577432E-20 -4.29678877E-17 -6.24850066E-17  4.84031988E-17
 -8.01795401E-03 -6.56073501E-17 -1.70550969E-15 -2.12845578E-15  9.48477345E-16
 -1.99718129E-01 -5.36183894E-16 -7.81348361E-15 -4.89440494E-15  7.38681936E-15
 -9.09426298E-01 -7.87675570E-19 -2.24366398E-20 -1.58403397E-15 -2.55093537E-14
  0.00000000E+00 -1.62509359E-22  6.54197689E-22  1.42738389E-22 -6.43360429E-09
  0.00000000E+00 -2.83489276E-21  8.95394180E-21  5.32361258E-21 -1.23524791E-07
  0.00000000E+00 -1.48536058E-18  2.76608751E-18  2.39390433E-18 -5.93133953E-05
 -6.11197484E-23 -4.47485044E-17  7.27557696E-17  1.73863227E-17 -1.75918854E-03
  0.00000000E+00 -2.34754852E-18  5.43392195E-18 -1.53158071E-18 -7.48172780E-05
  0.00000000E+00 -4.63871089E-21  1.67163721E-20 -1.77618623E-21 -1.57368181E-07
 -2.27454510E-22 -1.24680685E-18 -2.31084205E-18 -4.45014269E-22 -1.77261576E-15
 -3.06206413E-23 -3.72540806E-20  8.12977335E-20  8.82978696E-20 -4.97360046E-05
 -2.45178039E-20 -1.80167409E-18  3.39887520E-18  4.11708999E-19  6.79174712E-04
 -7.92836015E-18 -3.36653643E-17  5.56859435E-17  1.64682090E-18  1.73889030E-02
 -1.18300115E-17 -2.90397926E-16  3.03372101E-16  3.02039330E-16 -1.66565157E-01
 -1.29657894E-17 -2.71065582E-16  4.12485697E-16 -2.31967882E-17 -5.66968299E-02
 -1.77675820E-20 -6.64729400E-18  1.32436252E-17  1.03779308E-18 -1.43342752E-03
 -5.75282807E-19 -9.20279535E-17 -3.90500052E-16 -1.36439180E-18 -4.40251087E-16
 -1.77261576E-15 -1.23448992E-22 -8.51340998E-20  1.79850576E-19  1.92714724E-19
 -1.06422334E-04 -7.72649234E-20 -3.12810068E-18  5.59013956E-18  9.00457528E-19
  1.18521119E-03 -1.47404304E-17 -4.01600581E-17  5.66420939E-17  1.00802864E-17
  2.05053202E-02 -1.98675218E-17 -3.41723284E-16  2.89944837E-16  3.54080906E-16
 -1.81724293E-01 -3.00562861E-17 -3.80556619E-16  5.24391243E-16 -4.59860368E-17
 -8.15997718E-02 -6.41035177E-20 -1.30557389E-17  2.45435909E-17  1.98633251E-18
 -2.83393798E-03 -9.22872866E-19 -6.66430281E-17 -4.35742965E-16 -2.70694636E-18
  0.00000000E+00  0.00000000E+00 -1.77261576E-15 -2.91496261E-23  5.82905825E-20
 -1.24969668E-19 -6.82304823E-21  8.19809106E-05 -4.50854714E-20 -3.22004454E-18
  6.00839471E-18  1.26677756E-18  1.22504786E-03 -1.25592873E-17 -6.28828528E-17
  9.53843653E-17  1.75053298E-17  3.42494951E-02 -2.70456146E-18  1.98769187E-16
 -1.98327939E-16 -1.48338456E-16  8.21684721E-02  9.38309132E-18  2.07821133E-16
 -3.24602006E-16 -5.74999380E-17  4.17806166E-02  8.24737624E-21  4.15551795E-18
 -8.31092229E-18 -1.84299947E-18  8.83449454E-04 -1.03830131E-18 -1.75294686E-16
  4.67758147E-16  1.19782032E-18  1.14868175E-16  1.34081539E-15  0.00000000E+00
 -1.77261576E-15  2.75054484E-09 -5.24736297E-05  1.13908539E-04  1.26930735E-04
 -1.48342551E-20  3.13003546E-07  6.08281415E-04 -1.03333301E-03 -5.21347169E-05
 -7.99415268E-19  1.13916163E-04  8.86457755E-03 -9.67038689E-03  9.02140678E-03
 -3.48704477E-17 -9.36943396E-04 -1.86262191E-01  2.01466840E-01  1.60381568E-01
 -1.67138894E-16 -1.52959251E-04 -5.28510767E-02  7.55007400E-02 -5.73773494E-03
 -1.15669704E-16 -2.61792075E-07 -1.41646412E-03  2.79230256E-03  2.06213650E-04
 -2.23073166E-18  1.36249501E-04  1.58187361E-02 -5.37035735E-02 -2.31761450E-04
 -7.96773295E-02 -9.30045156E-01  0.00000000E+00  5.08390209E-01 -1.77261576E-15
  0.00000000E+00 -3.64165071E-25  1.78059819E-24 -6.20104225E-26  1.10345514E-11
  0.00000000E+00 -1.62926504E-22  6.54334579E-22  1.35512273E-22  4.39328866E-09
  0.00000000E+00 -3.36436872E-19  9.18824932E-19  1.92216372E-19  8.72291691E-06
  0.00000000E+00 -1.56443820E-18  3.62947969E-18 -1.09237365E-18  4.31555204E-05
  0.00000000E+00 -3.29244848E-21  1.05359406E-20 -5.63456657E-21  1.02690502E-07
  0.00000000E+00 -1.58645159E-24  7.11428687E-24 -2.29031363E-24  5.25086172E-11
 -7.29163691E-23 -2.65782261E-18 -4.68657191E-21 -1.27484206E-25  1.54951459E-22
 -5.06092903E-17  5.40812929E-17 -6.12076467E-17  1.69429732E-03 -1.43858870E-15
 -1.17481187E-25 -1.06005900E-20  2.74152587E-20 -1.08310361E-20  4.41500906E-06
 -1.05604536E-21 -1.50683517E-18  3.26323535E-18  1.70673256E-19  2.62648993E-04
 -1.55501583E-18 -7.22354231E-17  1.20440390E-16 -6.30021084E-18  1.52438012E-02
 -3.74300238E-19 -4.57640378E-18  7.25422021E-18 -1.91618681E-17  7.55329998E-04
 -3.66094491E-20 -2.45045001E-18  4.69904653E-18 -7.12279063E-19 -1.08422940E-03
 -1.10441475E-23 -2.01312090E-20  4.85868129E-20  4.13239985E-21 -1.22561293E-05
 -6.50279532E-19 -3.54098798E-16 -4.50694980E-18 -4.55232160E-21 -6.39638441E-17
 -2.76277964E-17  4.61030513E-17 -2.98115417E-17 -1.07640607E-01 -3.57291327E-16
 -1.43858870E-15 -5.73973331E-25 -2.74441949E-20  6.78359935E-20 -2.80211721E-20
  1.14225323E-05 -4.24806542E-21 -3.23659408E-18  6.61884740E-18  3.83353965E-19
  5.66607608E-04 -4.25316637E-18 -1.14640015E-16  1.77608506E-16 -7.73107614E-18
  2.46555858E-02 -8.69591262E-19 -1.07743243E-17  1.61763489E-17 -2.92151618E-17
  8.19933461E-04 -1.16833695E-19 -4.30842163E-18  7.85969131E-18 -1.46290925E-18
 -1.91765714E-03 -4.94444628E-23 -4.78811269E-20  1.10458953E-19  9.42001408E-21
 -2.91204837E-05 -1.29792506E-18 -4.15375217E-16 -6.17898910E-18 -1.07028545E-20
 -6.89299568E-17 -3.70519224E-17  6.26441580E-18 -4.93078654E-17 -7.27053595E-02
  0.00000000E+00  0.00000000E+00 -1.43858870E-15 -4.22713360E-27 -9.95300065E-21
  2.57565165E-20 -3.32317382E-21  4.13069329E-06 -9.86983407E-22 -1.29575632E-18
  2.82005338E-18 -1.24438568E-19  2.25038209E-04 -1.05249954E-18 -6.06087220E-17
  1.02191713E-16 -1.63168294E-17  1.22071328E-02  2.71313651E-19 -2.29521978E-17
  3.27258971E-17 -5.11340435E-18  1.79095347E-02  5.95433811E-20  3.62357544E-18
 -6.90746238E-18  1.12058724E-18  1.63526272E-03  1.50891580E-23  3.25007194E-20
 -7.79604393E-20  3.58089197E-21  1.98888627E-05 -7.57158186E-19 -4.07956877E-16
  7.45460405E-18  7.08259348E-21  7.48789116E-17 -1.27894516E-16  5.63775361E-17
 -1.08389369E-16  2.40939989E-01 -1.50587840E-16 -1.75775834E-15  0.00000000E+00
 -1.43858870E-15  8.73008402E-12  4.41725900E-06 -1.14300135E-05  4.50429771E-06
 -3.34219754E-21  1.33592317E-08  2.59907987E-04 -5.59113017E-04 -2.96444879E-05
 -4.88072518E-19  2.19043025E-05  1.43443490E-02 -2.29761100E-02  9.27509127E-04
 -2.78022350E-17 -3.20366391E-05  4.38682509E-03 -6.57996048E-03  1.98614403E-02
 -6.43808565E-18 -4.69019859E-07 -9.98319874E-04  1.73123792E-03 -1.96507939E-04
 -1.08168932E-18 -1.78726063E-10 -1.20982551E-05  2.86402715E-05  2.68501319E-06
 -6.79141673E-21  9.02986517E-05  5.12494176E-02 -1.15256233E-03 -1.59194578E-06
 -3.03725553E-03 -1.84684849E-02  1.70996199E-02  1.48697431E-01 -1.63523182E-16
  4.93249468E-02  5.75752577E-01  0.00000000E+00  5.08390209E-01 -1.43858870E-15
 -1.54855842E-23 -1.75725465E-19  3.43101597E-19  2.60278964E-19 -6.07196530E-05
 -2.88903161E-21 -2.28545654E-20  6.79442678E-20 -2.37302030E-21  1.59394441E-05
 -4.60798307E-19 -2.17685149E-18  4.05181793E-18  4.29266661E-18 -3.60804879E-04
 -2.56373407E-18 -4.68340695E-16  4.89879137E-16  5.43044848E-16 -9.38885625E-02
 -1.39956075E-17 -4.71774227E-16  6.79509595E-16  2.06243516E-16 -6.58756161E-02
 -3.87783825E-20 -1.19383653E-17  2.19065958E-17  6.68066106E-18 -1.77729220E-03
 -1.64586503E-20 -3.06887558E-18 -1.49358953E-15 -4.38478296E-18 -1.40781359E-16
 -3.97700154E-15  8.42817218E-16  4.74902199E-15 -6.74485973E-01 -5.87071343E-18
 -2.54236441E-16 -1.16443689E-16  4.11329638E-16 -5.89334820E-02 -1.72295379E-14
 -4.79008774E-27 -2.16743803E-22  5.83971991E-22 -3.38797844E-22  1.35968132E-07
 -2.95371035E-23 -6.16936323E-20  1.43092018E-19  4.47928456E-21  1.24318727E-05
 -4.31520146E-20 -4.30155475E-18  7.91743140E-18 -6.36896978E-19  1.03569633E-03
 -1.89525727E-20  1.22215403E-19 -9.72829333E-20 -5.18163815E-19 -6.83356959E-04
 -2.72843968E-21 -4.92997732E-19  9.96081756E-19 -6.82638057E-20 -1.62263261E-04
 -8.27182445E-25 -3.09021856E-21  7.79514095E-21  4.87864134E-22 -1.26588964E-06
 -3.33775257E-20 -3.55765188E-17 -1.50605865E-18 -7.08425393E-22 -9.13065584E-18
 -1.77730758E-17  2.98500960E-17  1.76359411E-17 -4.17597222E-02 -8.30306032E-17
 -4.10840605E-16  3.91835985E-16 -5.69111056E-16  1.81573861E-01 -1.77742433E-16
 -4.07729598E-16 -1.69298585E-23 -2.17649636E-19  4.65018537E-19 -2.09849564E-19
  4.90181163E-05 -9.08104927E-20 -1.88849438E-17  3.45288128E-17 -6.05369872E-18
  2.49063890E-03 -1.09193582E-17 -4.15417181E-16  5.89978457E-16 -2.14451980E-16
  5.97752679E-02 -1.99730923E-19 -6.95685323E-17  8.55864560E-17 -1.06006297E-16
  1.53092781E-02 -3.55933108E-20 -1.92922662E-19  5.16214592E-19 -2.73131864E-19
 -2.00583810E-04 -1.30447738E-22 -1.71648988E-21  5.86041525E-21 -9.77258076E-21
  6.56847184E-07 -1.43152868E-17 -2.68405900E-15 -3.91149176E-19 -5.62592970E-22
 -7.53281726E-18 -2.24761950E-16  1.04774931E-16 -4.12951133E-16  2.79694970E-02
 -1.17883242E-16 -3.65052497E-15 -7.73280919E-16 -4.62299556E-15  5.26636707E-01
 -2.04674834E-17 -9.25635904E-16 -1.62511233E-14 -6.11197484E-23 -4.47485044E-17
 -7.27557696E-17 -1.73863227E-17  1.75918854E-03  0.00000000E+00 -2.34754852E-18
 -5.43392195E-18  1.53158071E-18  7.48172780E-05  0.00000000E+00 -4.63871089E-21
 -1.67163721E-20  1.77618623E-21  1.57368181E-07  0.00000000E+00 -1.62509359E-22
 -6.54197689E-22 -1.42738389E-22  6.43360429E-09  0.00000000E+00 -2.83489276E-21
 -8.95394180E-21 -5.32361258E-21  1.23524791E-07  0.00000000E+00 -1.48536058E-18
 -2.76608751E-18 -2.39390433E-18  5.93133953E-05 -2.31084205E-18 -4.45014269E-22
 -2.27454510E-22 -1.24680685E-18  0.00000000E+00 -1.10554833E-27 -6.01208019E-27
 -1.29655779E-27  4.84670123E-14  0.00000000E+00  0.00000000E+00  0.00000000E+00
  0.00000000E+00  0.00000000E+00 -4.52766787E-27  0.00000000E+00 -4.19942625E-27
 -1.77261576E-15 -1.18300115E-17 -2.90397926E-16 -3.03372101E-16 -3.02039330E-16
  1.66565157E-01 -1.29657894E-17 -2.71065582E-16 -4.12485697E-16  2.31967882E-17
  5.66968299E-02 -1.77675820E-20 -6.64729400E-18 -1.32436252E-17 -1.03779308E-18
  1.43342752E-03 -3.06206413E-23 -3.72540806E-20 -8.12977335E-20 -8.82978696E-20
  4.97360046E-05 -2.45178039E-20 -1.80167409E-18 -3.39887520E-18 -4.11708999E-19
 -6.79174712E-04 -7.92836015E-18 -3.36653643E-17 -5.56859435E-17 -1.64682090E-18
 -1.73889030E-02 -3.90500052E-16 -1.36439180E-18 -5.75282807E-19 -9.20279535E-17
 -1.10554833E-27 -2.22216221E-25 -1.22941736E-24 -3.41017841E-26 -1.50342886E-10
  0.00000000E+00 -1.64952101E-23 -5.49398144E-23 -1.27500532E-23  5.30211941E-09
 -2.54457601E-22 -3.78498380E-25 -1.06930653E-21 -4.40251087E-16 -1.77261576E-15
  1.98675218E-17  3.41723284E-16  2.89944837E-16  3.54080906E-16 -1.81724293E-01
  3.00562861E-17  3.80556619E-16  5.24391243E-16 -4.59860368E-17 -8.15997718E-02
  6.41035177E-20  1.30557389E-17  2.45435909E-17  1.98633251E-18 -2.83393798E-03
  1.23448992E-22  8.51340998E-20  1.79850576E-19  1.92714724E-19 -1.06422334E-04
  7.72649234E-20  3.12810068E-18  5.59013956E-18  9.00457528E-19  1.18521119E-03
  1.47404304E-17  4.01600581E-17  5.66420939E-17  1.00802864E-17  2.05053202E-02
  4.35742965E-16  2.70694636E-18  9.22872866E-19  6.66430281E-17  6.01208019E-27
  1.22941736E-24  6.32184841E-24  5.21562630E-25  5.56093417E-10  0.00000000E+00
  5.49400721E-23  1.77829111E-22  4.24666721E-23 -1.76595117E-08  6.57684010E-22
  1.26373933E-24  2.96276815E-21  0.00000000E+00  0.00000000E+00 -1.77261576E-15
  2.70456146E-18 -1.98769187E-16 -1.98327939E-16 -1.48338456E-16  8.21684721E-02
 -9.38309132E-18 -2.07821133E-16 -3.24602006E-16 -5.74999380E-17  4.17806166E-02
 -8.24737624E-21 -4.15551795E-18 -8.31092229E-18 -1.84299947E-18  8.83449454E-04
  2.91496261E-23 -5.82905825E-20 -1.24969668E-19 -6.82304823E-21  8.19809106E-05
  4.50854714E-20  3.22004454E-18  6.00839471E-18  1.26677756E-18  1.22504786E-03
  1.25592873E-17  6.28828528E-17  9.53843653E-17  1.75053298E-17  3.42494951E-02
 -4.67758147E-16 -1.19782032E-18  1.03830131E-18  1.75294686E-16  1.29655779E-27
  3.41017841E-26  5.21562630E-25 -2.20735055E-25  1.98721613E-07  0.00000000E+00
 -9.07120695E-24 -3.02126245E-23 -4.96568591E-24  2.91559670E-09  4.83812822E-22
 -2.69464676E-25 -7.91524555E-22 -1.14868175E-16 -1.34081539E-15  0.00000000E+00
 -1.77261576E-15  9.36943396E-04  1.86262191E-01  2.01466840E-01  1.60381568E-01
 -1.67138894E-16  1.52959251E-04  5.28510767E-02  7.55007400E-02 -5.73773494E-03
 -1.15669704E-16  2.61792075E-07  1.41646412E-03  2.79230256E-03  2.06213650E-04
 -2.23073166E-18 -2.75054484E-09  5.24736297E-05  1.13908539E-04  1.26930735E-04
 -1.48342551E-20 -3.13003546E-07 -6.08281415E-04 -1.03333301E-03 -5.21347169E-05
 -7.99415268E-19 -1.13916163E-04 -8.86457755E-03 -9.67038689E-03  9.02140678E-03
 -3.48704477E-17  5.37035735E-02  2.31761450E-04 -1.36249501E-04 -1.58187361E-02
 -4.84670123E-14  1.50342886E-10  5.56093417E-10  1.98721613E-07 -4.90729394E-25
  0.00000000E+00  5.30224890E-09  1.76600675E-08  4.09806897E-09 -5.17080300E-24
 -1.16865214E-07  1.64211598E-10  2.06493039E-07  7.96773295E-02  9.30045156E-01
  0.00000000E+00  5.08390209E-01 -1.77261576E-15  0.00000000E+00 -1.56443820E-18
 -3.62947969E-18  1.09237365E-18 -4.31555204E-05  0.00000000E+00 -3.29244848E-21
 -1.05359406E-20  5.63456657E-21 -1.02690502E-07  0.00000000E+00 -1.58645159E-24
 -7.11428687E-24  2.29031363E-24 -5.25086172E-11  0.00000000E+00 -3.64165071E-25
 -1.78059819E-24  6.20104225E-26 -1.10345514E-11  0.00000000E+00 -1.62926504E-22
 -6.54334579E-22 -1.35512273E-22 -4.39328866E-09  0.00000000E+00 -3.36436872E-19
 -9.18824932E-19 -1.92216372E-19 -8.72291691E-06 -4.68657191E-21 -1.27484206E-25
 -7.29163691E-23 -2.65782261E-18  0.00000000E+00  0.00000000E+00  0.00000000E+00
  0.00000000E+00  0.00000000E+00  0.00000000E+00  0.00000000E+00  0.00000000E+00
  0.00000000E+00  0.00000000E+00 -4.40473331E-29  0.00000000E+00  0.00000000E+00
  1.54951459E-22 -5.06092903E-17 -5.40812929E-17  6.12076467E-17 -1.69429732E-03
 -1.43858870E-15 -3.74300238E-19 -4.57640378E-18 -7.25422021E-18  1.91618681E-17
 -7.55329998E-04 -3.66094491E-20 -2.45045001E-18 -4.69904653E-18  7.12279063E-19
  1.08422940E-03 -1.10441475E-23 -2.01312090E-20 -4.85868129E-20 -4.13239985E-21
  1.22561293E-05 -1.17481187E-25 -1.06005900E-20 -2.74152587E-20  1.08310361E-20
 -4.41500906E-06 -1.05604536E-21 -1.50683517E-18 -3.26323535E-18 -1.70673256E-19
 -2.62648993E-04 -1.55501583E-18 -7.22354231E-17 -1.20440390E-16  6.30021084E-18
 -1.52438012E-02 -4.50694980E-18 -4.55232160E-21 -6.50279532E-19 -3.54098798E-16
  0.00000000E+00 -1.64952101E-23 -5.49400721E-23  9.07120695E-24 -5.30224890E-09
  0.00000000E+00  0.00000000E+00  0.00000000E+00  0.00000000E+00  0.00000000E+00
 -7.85436120E-23 -2.58805809E-28 -9.91821614E-25 -6.39638441E-17 -2.76277964E-17
 -4.61030513E-17  2.98115417E-17  1.07640607E-01 -3.57291327E-16 -1.43858870E-15
  8.69591262E-19  1.07743243E-17  1.61763489E-17 -2.92151618E-17  8.19933461E-04
  1.16833695E-19  4.30842163E-18  7.85969131E-18 -1.46290925E-18 -1.91765714E-03
  4.94444628E-23  4.78811269E-20  1.10458953E-19  9.42001408E-21 -2.91204837E-05
  5.73973331E-25  2.74441949E-20  6.78359935E-20 -2.80211721E-20  1.14225323E-05
  4.24806542E-21  3.23659408E-18  6.61884740E-18  3.83353965E-19  5.66607608E-04
  4.25316637E-18  1.14640015E-16  1.77608506E-16 -7.73107614E-18  2.46555858E-02
  6.17898910E-18  1.07028545E-20  1.29792506E-18  4.15375217E-16  0.00000000E+00
  5.49398144E-23  1.77829111E-22 -3.02126245E-23  1.76600675E-08  0.00000000E+00
  0.00000000E+00  0.00000000E+00  0.00000000E+00  0.00000000E+00  2.34284715E-22
  9.67196918E-28  3.14100702E-24  6.89299568E-17  3.70519224E-17  6.26441580E-18
 -4.93078654E-17 -7.27053595E-02  0.00000000E+00  0.00000000E+00 -1.43858870E-15
 -2.71313651E-19  2.29521978E-17  3.27258971E-17 -5.11340435E-18  1.79095347E-02
 -5.95433811E-20 -3.62357544E-18 -6.90746238E-18  1.12058724E-18  1.63526272E-03
 -1.50891580E-23 -3.25007194E-20 -7.79604393E-20  3.58089197E-21  1.98888627E-05
  4.22713360E-27  9.95300065E-21  2.57565165E-20 -3.32317382E-21  4.13069329E-06
  9.86983407E-22  1.29575632E-18  2.82005338E-18 -1.24438568E-19  2.25038209E-04
  1.05249954E-18  6.06087220E-17  1.02191713E-16 -1.63168294E-17  1.22071328E-02
 -7.45460405E-18 -7.08259348E-21  7.57158186E-19  4.07956877E-16  0.00000000E+00
  1.27500532E-23  4.24666721E-23 -4.96568591E-24  4.09806897E-09  0.00000000E+00
  0.00000000E+00  0.00000000E+00  0.00000000E+00  1.53484580E-11  7.42084667E-23
  5.84005013E-28 -1.62637618E-24 -7.48789116E-17  1.27894516E-16  5.63775361E-17
 -1.08389369E-16  2.40939989E-01  1.50587840E-16  1.75775834E-15  0.00000000E+00
 -1.43858870E-15  3.20366391E-05 -4.38682509E-03 -6.57996048E-03  1.98614403E-02
 -6.43808565E-18  4.69019859E-07  9.98319874E-04  1.73123792E-03 -1.96507939E-04
 -1.08168932E-18  1.78726063E-10  1.20982551E-05  2.86402715E-05  2.68501319E-06
 -6.79141673E-21 -8.73008402E-12 -4.41725900E-06 -1.14300135E-05  4.50429771E-06
 -3.34219754E-21 -1.33592317E-08 -2.59907987E-04 -5.59113017E-04 -2.96444879E-05
 -4.88072518E-19 -2.19043025E-05 -1.43443490E-02 -2.29761100E-02  9.27509127E-04
 -2.78022350E-17  1.15256233E-03  1.59194578E-06 -9.02986517E-05 -5.12494176E-02
  0.00000000E+00 -5.30211941E-09 -1.76595117E-08  2.91559670E-09 -5.17080300E-24
  0.00000000E+00  0.00000000E+00  0.00000000E+00  1.53484580E-11  0.00000000E+00
 -1.48654460E-08 -3.21009878E-13  4.78274188E-10  3.03725553E-03  1.84684849E-02
  1.70996199E-02  1.48697431E-01 -1.63523182E-16 -4.93249468E-02 -5.75752577E-01
  0.00000000E+00  5.08390209E-01 -1.43858870E-15 -2.56373407E-18 -4.68340695E-16
 -4.89879137E-16 -5.43044848E-16  9.38885625E-02 -1.39956075E-17 -4.71774227E-16
 -6.79509595E-16 -2.06243516E-16  6.58756161E-02 -3.87783825E-20 -1.19383653E-17
 -2.19065958E-17 -6.68066106E-18  1.77729220E-03 -1.54855842E-23 -1.75725465E-19
 -3.43101597E-19 -2.60278964E-19  6.07196530E-05 -2.88903161E-21 -2.28545654E-20
 -6.79442678E-20  2.37302030E-21 -1.59394441E-05 -4.60798307E-19 -2.17685149E-18
 -4.05181793E-18 -4.29266661E-18  3.60804879E-04 -1.49358953E-15 -4.38478296E-18
 -1.64586503E-20 -3.06887558E-18 -4.52766787E-27 -2.54457601E-22 -6.57684010E-22
 -4.83812822E-22  1.16865214E-07 -4.40473331E-29 -7.85436120E-23 -2.34284715E-22
 -7.42084667E-23  1.48654460E-08 -9.86789967E-26 -2.45298422E-24 -4.76437675E-21
 -1.40781359E-16 -3.97700154E-15 -8.42817218E-16 -4.74902199E-15  6.74485973E-01
 -5.87071343E-18 -2.54236441E-16  1.16443689E-16 -4.11329638E-16  5.89334820E-02
 -1.72295379E-14 -1.89525727E-20  1.22215403E-19  9.72829333E-20  5.18163815E-19
  6.83356959E-04 -2.72843968E-21 -4.92997732E-19 -9.96081756E-19  6.82638057E-20
  1.62263261E-04 -8.27182445E-25 -3.09021856E-21 -7.79514095E-21 -4.87864134E-22
  1.26588964E-06 -4.79008774E-27 -2.16743803E-22 -5.83971991E-22  3.38797844E-22
 -1.35968132E-07 -2.95371035E-23 -6.16936323E-20 -1.43092018E-19 -4.47928456E-21
 -1.24318727E-05 -4.31520146E-20 -4.30155475E-18 -7.91743140E-18  6.36896978E-19
 -1.03569633E-03 -1.50605865E-18 -7.08425393E-22 -3.33775257E-20 -3.55765188E-17
  0.00000000E+00 -3.78498380E-25 -1.26373933E-24  2.69464676E-25 -1.64211598E-10
  0.00000000E+00 -2.58805809E-28 -9.67196918E-28 -5.84005013E-28  3.21009878E-13
 -2.45298422E-24  0.00000000E+00 -1.26994717E-25 -9.13065584E-18 -1.77730758E-17
 -2.98500960E-17 -1.76359411E-17  4.17597222E-02 -8.30306032E-17 -4.10840605E-16
 -3.91835985E-16  5.69111056E-16 -1.81573861E-01 -1.77742433E-16 -4.07729598E-16
 -1.99730923E-19 -6.95685323E-17 -8.55864560E-17  1.06006297E-16 -1.53092781E-02
 -3.55933108E-20 -1.92922662E-19 -5.16214592E-19  2.73131864E-19  2.00583810E-04
 -1.30447738E-22 -1.71648988E-21 -5.86041525E-21  9.77258076E-21 -6.56847184E-07
 -1.69298585E-23 -2.17649636E-19 -4.65018537E-19  2.09849564E-19 -4.90181163E-05
 -9.08104927E-20 -1.88849438E-17 -3.45288128E-17  6.05369872E-18 -2.49063890E-03
 -1.09193582E-17 -4.15417181E-16 -5.89978457E-16  2.14451980E-16 -5.97752679E-02
 -3.91149176E-19 -5.62592970E-22 -1.43152868E-17 -2.68405900E-15 -4.19942625E-27
 -1.06930653E-21 -2.96276815E-21  7.91524555E-22 -2.06493039E-07  0.00000000E+00
 -9.91821614E-25 -3.14100702E-24  1.62637618E-24 -4.78274188E-10 -4.76437675E-21
 -1.26994717E-25 -1.50323660E-27 -7.53281726E-18 -2.24761950E-16 -1.04774931E-16
  4.12951133E-16 -2.79694970E-02 -1.17883242E-16 -3.65052497E-15  7.73280919E-16
  4.62299556E-15 -5.26636707E-01 -2.04674834E-17 -9.25635904E-16 -1.62511233E-14
Multipole Matrix (0,0,2)                   R   N=        1830
  3.10650896E-02  2.63532865E-02  8.41350389E-01  0.00000000E+00  0.00000000E+00
  5.08390209E-01  0.00000000E+00  0.00000000E+00  0.00000000E+00  5.08390209E-01
 -1.09128314E-16 -1.27381603E-15  0.00000000E+00  0.00000000E+00  1.52517063E+00
  6.56893082E-08  3.82669024E-03 -4.12288351E-03  4.65375179E-03 -3.24960854E-17
  3.10650896E-02  3.82669024E-03  3.34770192E-01 -1.97294320E-01  2.22698215E-01
 -1.77841925E-15  2.63532865E-02  8.41350389E-01  4.12288351E-03  1.97294320E-01
  9.52796011E-03  1.58363290E-01 -1.25855925E-15  0.00000000E+00  0.00000000E+00
  5.08390209E-01 -4.65375179E-03 -2.22698215E-01  1.58363290E-01 -2.89281251E-02
  1.42061312E-15  0.00000000E+00  0.00000000E+00  0.00000000E+00  5.08390209E-01
  3.96635252E-18 -1.22273851E-15  8.30957629E-16 -9.37952903E-16  4.49478737E-01
 -6.90107853E-16 -8.05538376E-15  0.00000000E+00  0.00000000E+00  1.52517063E+00
  0.00000000E+00  1.91607772E-04 -4.14654078E-04  1.38508286E-04 -1.09697684E-18
  6.62090453E-08  3.83073410E-03 -6.09815801E-03 -1.24400436E-03 -1.92883844E-17
  3.10650896E-02  1.91607772E-04  6.17353317E-02 -7.87564657E-02  2.63072852E-02
 -2.40515124E-16  3.83073410E-03  3.34960153E-01 -2.91612506E-01 -5.94880010E-02
 -2.33583748E-15  2.63532865E-02  8.41350389E-01  4.14654078E-04  7.87564657E-02
 -8.45455362E-02  3.58099404E-02 -3.28215932E-16  6.09815801E-03  2.91612506E-01
 -1.56428562E-01 -6.24958848E-02 -2.39690216E-15  0.00000000E+00  0.00000000E+00
  5.08390209E-01 -1.38508286E-04 -2.63072852E-02  3.58099404E-02  1.06974395E-02
  1.09635063E-16  1.24400436E-03  5.94880010E-02 -6.24958848E-02  1.37179751E-01
 -4.88960230E-16  0.00000000E+00  0.00000000E+00  0.00000000E+00  5.08390209E-01
  1.23800488E-19 -1.47713762E-16  2.05449368E-16 -6.86269384E-17  6.79774605E-02
 -2.61470542E-17 -2.44028133E-15  2.51564800E-15  5.13183995E-16  4.49786125E-01
 -5.80969421E-16 -6.78144962E-15  0.00000000E+00  0.00000000E+00  1.52517063E+00
  0.00000000E+00  4.45043950E-05 -1.14690104E-04 -2.33917038E-05  6.54686116E-20
  0.00000000E+00  1.91846304E-04 -3.27622250E-04 -2.90188448E-04  6.25047500E-19
  6.59921410E-08  3.82904972E-03 -1.97080071E-03 -5.90066913E-03  1.32438959E-17
  3.10650896E-02  4.45043950E-05  2.74072409E-02 -4.03539906E-02 -8.23042759E-03
  9.97548992E-18  1.91846304E-04  6.17784499E-02 -6.21941588E-02 -5.50879142E-02
 -8.48973544E-17  3.82904972E-03  3.34881044E-01 -9.42708966E-02 -2.82251455E-01
 -5.56103569E-16  2.63532865E-02  8.41350389E-01  1.14690104E-04  4.03539906E-02
 -5.26623519E-02 -1.26978340E-02  1.49474367E-17  3.27622250E-04  6.21941588E-02
 -4.41346133E-02 -5.91769596E-02 -9.53056748E-17  1.97080071E-03  9.42708966E-02
  1.17863369E-01 -9.58773541E-02 -1.73385404E-16  0.00000000E+00  0.00000000E+00
  5.08390209E-01  2.33917038E-05  8.23042759E-03 -1.26978340E-02  7.00564701E-03
  3.04861536E-18  2.90188448E-04  5.50879142E-02 -5.91769596E-02 -2.97393866E-02
 -8.44161403E-17  5.90066913E-03  2.82251455E-01 -9.58773541E-02 -1.37175229E-01
 -5.19123974E-16  0.00000000E+00  0.00000000E+00  0.00000000E+00  5.08390209E-01
 -6.54686116E-20 -9.97548992E-18  1.49474367E-17  3.04861536E-18  2.87863290E-02
 -1.44536836E-18 -2.42193123E-16  2.59521160E-16  2.29868523E-16  6.80282119E-02
 -3.01004426E-17 -1.21636446E-15  4.16098600E-16  1.24581859E-15  4.49658105E-01
  1.09128314E-16  1.27381603E-15  0.00000000E+00  0.00000000E+00  1.52517063E+00
  0.00000000E+00  1.91846304E-04 -3.27622250E-04 -2.90188448E-04  1.44536836E-18
  0.00000000E+00  4.45512879E-05 -3.70980651E-05 -1.11135718E-04  4.14448173E-19
  0.00000000E+00  1.91633907E-04  8.74522903E-05 -4.28393494E-04  1.72149495E-18
  6.56893082E-08  3.82669024E-03  4.12288351E-03 -4.65375179E-03  3.24960854E-17
  3.10650896E-02  1.91846304E-04  6.17784499E-02 -6.21941588E-02 -5.50879142E-02
  2.42193123E-16  4.45512879E-05  2.74231714E-02 -1.30471375E-02 -3.90856769E-02
  6.31181339E-17  1.91633907E-04  6.17400570E-02  1.66091307E-02 -8.13614315E-02
  1.55707819E-16  3.82669024E-03  3.34770192E-01  1.97294320E-01 -2.22698215E-01
  1.77841925E-15  2.63532865E-02  8.41350389E-01  3.27622250E-04  6.21941588E-02
 -4.41346133E-02 -5.91769596E-02  2.59521160E-16  3.70980651E-05  1.30471375E-02
  3.09695008E-03 -1.94852441E-02  3.05609280E-17 -8.74522903E-05 -1.66091307E-02
  1.78933740E-02  2.33547129E-02 -4.37723347E-17 -4.12288351E-03 -1.97294320E-01
  9.52796011E-03  1.58363290E-01 -1.25855925E-15  0.00000000E+00  0.00000000E+00
  5.08390209E-01  2.90188448E-04  5.50879142E-02 -5.91769596E-02 -2.97393866E-02
  2.29868523E-16  1.11135718E-04  3.90856769E-02 -1.94852441E-02 -4.87712008E-02
  9.15522320E-17  4.28393494E-04  8.13614315E-02  2.33547129E-02 -9.17443103E-02
  2.14423011E-16  4.65375179E-03  2.22698215E-01  1.58363290E-01 -2.89281251E-02
  1.42061312E-15  0.00000000E+00  0.00000000E+00  0.00000000E+00  5.08390209E-01
 -6.25047500E-19  8.48973544E-17 -9.53056748E-17 -8.44161403E-17  6.80282119E-02
 -4.14448173E-19 -6.31181339E-17  3.05609280E-17  9.15522320E-17  2.88038800E-02
 -1.56756679E-18 -9.43046043E-17 -2.59731353E-17  1.27231913E-16  6.79830221E-02
 -3.96635252E-18  1.22273851E-15  8.30957629E-16 -9.37952903E-16  4.49478737E-01
  6.90107853E-16  8.05538376E-15  0.00000000E+00  0.00000000E+00  1.52517063E+00
  6.59921410E-08  3.82904972E-03 -1.97080071E-03 -5.90066913E-03  3.01004426E-17
  0.00000000E+00  1.91633907E-04  8.74522903E-05 -4.28393494E-04  1.56756679E-18
  0.00000000E+00  4.44893366E-05  7.75841818E-05 -8.75968399E-05  3.48419072E-19
  0.00000000E+00  1.91607772E-04  4.14654078E-04 -1.38508286E-04  1.09697684E-18
  6.62090453E-08  3.83073410E-03  6.09815801E-03  1.24400436E-03  1.92883844E-17
  3.10650896E-02  3.82904972E-03  3.34881044E-01 -9.42708966E-02 -2.82251455E-01
  1.21636446E-15  1.91633907E-04  6.17400570E-02  1.66091307E-02 -8.13614315E-02
  9.43046043E-17  4.44893366E-05  2.74021237E-02  2.73021528E-02 -3.08256432E-02
  5.30973459E-17  1.91607772E-04  6.17353317E-02  7.87564657E-02 -2.63072852E-02
  2.40515124E-16  3.83073410E-03  3.34960153E-01  2.91612506E-01  5.94880010E-02
  2.33583748E-15  2.63532865E-02  8.41350389E-01  1.97080071E-03  9.42708966E-02
  1.17863369E-01 -9.58773541E-02  4.16098600E-16 -8.74522903E-05 -1.66091307E-02
  1.78933740E-02  2.33547129E-02 -2.59731353E-17 -7.75841818E-05 -2.73021528E-02
 -1.89096722E-02  3.21817327E-02 -5.38388376E-17 -4.14654078E-04 -7.87564657E-02
 -8.45455362E-02  3.58099404E-02 -3.28215932E-16 -6.09815801E-03 -2.91612506E-01
 -1.56428562E-01 -6.24958848E-02 -2.39690216E-15  0.00000000E+00  0.00000000E+00
  5.08390209E-01  5.90066913E-03  2.82251455E-01 -9.58773541E-02 -1.37175229E-01
  1.24581859E-15  4.28393494E-04  8.13614315E-02  2.33547129E-02 -9.17443103E-02
  1.27231913E-16  8.75968399E-05  3.08256432E-02  3.21817327E-02 -2.67413954E-02
  6.07870307E-17  1.38508286E-04  2.63072852E-02  3.58099404E-02  1.06974395E-02
  1.09635063E-16 -1.24400436E-03 -5.94880010E-02 -6.24958848E-02  1.37179751E-01
 -4.88960230E-16  0.00000000E+00  0.00000000E+00  0.00000000E+00  5.08390209E-01
 -1.32438959E-17  5.56103569E-16 -1.73385404E-16 -5.19123974E-16  4.49658105E-01
 -1.72149495E-18 -1.55707819E-16 -4.37723347E-17  2.14423011E-16  6.79830221E-02
 -3.48419072E-19 -5.30973459E-17 -5.38388376E-17  6.07870307E-17  2.87806914E-02
 -1.23800488E-19  1.47713762E-16  2.05449368E-16 -6.86269384E-17  6.79774605E-02
  2.61470542E-17  2.44028133E-15  2.51564800E-15  5.13183995E-16  4.49786125E-01
  5.80969421E-16  6.78144962E-15  0.00000000E+00  0.00000000E+00  1.52517063E+00
  5.47312554E-04  9.84558784E-02 -2.92754872E-02  1.05976002E-01 -7.35490123E-16
  6.04184372E-03  4.11417169E-01  9.31331195E-02  2.78658794E-01 -4.96142505E-15
  5.47427989E-04  9.84695999E-02  8.70965583E-02  6.71183981E-02 -9.22901681E-16
  9.79240406E-06  7.71156714E-03  7.59534540E-03  9.31277744E-03 -4.52382686E-17
  1.31391279E-06  2.27518852E-03  1.24843973E-03  3.73868611E-03 -9.04190511E-18
  9.78908679E-06  7.70996629E-03 -4.74193236E-04  1.20057480E-02 -3.32756232E-17
  6.49524236E-01  9.77830897E-06  7.70476370E-03 -1.06279630E-02  5.58864888E-03
 -4.31357746E-17  5.47366306E-04  9.84622679E-02 -1.06420879E-01  2.76375025E-02
 -8.56645033E-16  6.04150533E-03  4.11406964E-01 -1.94846909E-01  2.19903580E-01
 -4.17651106E-15  5.47499844E-04  9.84781405E-02 -1.45953058E-02  1.08992484E-01
 -5.39502851E-16  9.78463336E-06  7.70781683E-03 -4.26751141E-03  1.12284621E-02
 -2.29125636E-17  1.31180495E-06  2.27298436E-03 -2.61124122E-03  2.94789733E-03
 -7.60405440E-18  5.66832248E-02  6.49524236E-01  9.79240406E-06  7.71156714E-03
 -7.59534540E-03 -9.31277744E-03  4.52382686E-17  1.31391279E-06  2.27518852E-03
 -1.24843973E-03 -3.73868611E-03  9.04190511E-18  9.78908679E-06  7.70996629E-03
  4.74193236E-04 -1.20057480E-02  3.32756232E-17  5.47312554E-04  9.84558784E-02
  2.92754872E-02 -1.05976002E-01  7.35490123E-16  6.04184372E-03  4.11417169E-01
 -9.31331195E-02 -2.78658794E-01  4.96142505E-15  5.47427989E-04  9.84695999E-02
 -8.70965583E-02 -6.71183981E-02  9.22901681E-16  1.62869428E-04  1.08393654E-03
  6.49524236E-01  5.47499844E-04  9.84781405E-02  1.45953058E-02 -1.08992484E-01
  5.39502851E-16  9.78463336E-06  7.70781683E-03  4.26751141E-03 -1.12284621E-02
  2.29125636E-17  1.31180495E-06  2.27298436E-03  2.61124122E-03 -2.94789733E-03
  7.60405440E-18  9.77830897E-06  7.70476370E-03  1.06279630E-02 -5.58864888E-03
  4.31357746E-17  5.47366306E-04  9.84622679E-02  1.06420879E-01 -2.76375025E-02
  8.56645033E-16  6.04150533E-03  4.11406964E-01  1.94846909E-01 -2.19903580E-01
  4.17651106E-15  1.08393654E-03  1.62680996E-04  5.66832248E-02  6.49524236E-01
  0.00000000E+00  1.19862656E-08 -4.78749749E-08 -9.76700034E-09  3.26304269E-23
  0.00000000E+00  2.57964789E-07 -8.06013008E-07 -4.64009585E-07  1.16084119E-21
  0.00000000E+00  1.19542768E-04 -2.20023215E-04 -1.83948137E-04  4.99356322E-19
  4.48773207E-09  2.69470031E-03 -4.36451331E-03 -8.90840283E-04  6.35676210E-18
  0.00000000E+00  1.19457996E-04 -2.74330439E-04  8.29770067E-05  3.30015725E-20
  0.00000000E+00  2.57602976E-07 -9.22131549E-07  1.10997832E-07  1.58176913E-22
  2.26892047E-08  1.06491345E-04  1.06471835E-04  2.26600805E-08  3.10650896E-02
  1.19862656E-08  3.26437809E-04 -6.97228767E-04 -1.42242030E-04  3.48480846E-19
  2.57964789E-07  1.68034073E-03 -2.83892415E-03 -1.63432600E-03 -1.91486271E-19
  1.19542768E-04  4.74131521E-02 -5.08786295E-02 -4.25365528E-02 -1.19664484E-17
  2.69470031E-03  2.76317723E-01 -2.59318134E-01 -5.29293929E-02  5.56552497E-16
  1.19457996E-04  4.73943932E-02 -6.34556326E-02  1.91934897E-02  1.58945606E-16
  2.57602976E-07  1.67907786E-03 -3.25000803E-03  3.91206487E-04  4.15797466E-18
  1.99681203E-04  3.40766503E-02  3.40726827E-02  1.99528209E-04  2.63532865E-02
  8.41350389E-01  4.78749749E-08  6.97228767E-04 -1.39542320E-03 -3.05835368E-04
  7.47784941E-19  8.06013008E-07  2.83892415E-03 -4.32348581E-03 -2.80141288E-03
 -4.09017547E-19  2.20023215E-04  5.08786295E-02 -4.07533405E-02 -4.83728996E-02
 -1.66013634E-17  4.36451331E-03  2.59318134E-01 -1.66415383E-01 -5.83092076E-02
  6.08016240E-16  2.74330439E-04  6.34556326E-02 -7.29361951E-02  2.72330523E-02
  2.29957371E-16  9.22131549E-07  3.25000803E-03 -5.83998377E-03  7.68244525E-04
  8.24319456E-18  3.18852207E-04  2.00645749E-02  3.42504659E-02  3.93692337E-04
  0.00000000E+00  0.00000000E+00  5.08390209E-01  9.76700034E-09  1.42242030E-04
 -3.05835368E-04  4.12985463E-05  1.52556023E-19  4.64009585E-07  1.63432600E-03
 -2.80141288E-03 -1.06999175E-03 -2.35465260E-19  1.83948137E-04  4.25365528E-02
 -4.83728996E-02 -2.33354292E-02 -1.38793984E-17  8.90840283E-04  5.29293929E-02
 -5.83092076E-02  1.07358710E-01  1.24102121E-16 -8.29770067E-05 -1.91934897E-02
  2.72330523E-02  8.86184164E-03 -6.95554399E-17 -1.10997832E-07 -3.91206487E-04
  7.68244525E-04  4.49851397E-04 -9.92240992E-19  2.56814405E-04  4.03068125E-02
 -2.92185274E-02 -1.11290068E-04  0.00000000E+00  0.00000000E+00  0.00000000E+00
  5.08390209E-01 -2.20095775E-23 -5.37386234E-20  1.12416157E-19  2.29340829E-20
  3.11076571E-04 -2.03334631E-21 -5.73694646E-18  9.80685682E-18  5.64566020E-18
  1.62821874E-03 -8.08070799E-19 -1.36466128E-16  1.54006794E-16  1.28755790E-16
  5.13187016E-02  1.41673263E-18  4.60720247E-16 -4.96801450E-16 -1.01402084E-16
  3.57780586E-01  7.74916588E-19  2.29618324E-16 -3.27274566E-16  9.89910709E-17
  5.12971520E-02  1.37613358E-21  6.27387949E-18 -1.23513150E-17  1.48673927E-18
  1.62697711E-03 -1.05877886E-18 -1.59559259E-16  2.52798988E-16  1.12415949E-18
  2.29736350E-16  2.68163078E-15  0.00000000E+00  0.00000000E+00  1.52517063E+00
  0.00000000E+00  3.08589751E-11 -1.50021907E-10  2.45263031E-12 -8.63305170E-26
  0.00000000E+00  1.05527185E-08 -4.21461143E-08 -9.53512426E-09 -1.08209173E-23
  0.00000000E+00  2.18108382E-05 -5.91199163E-05 -1.40001400E-05 -2.95602394E-20
  0.00000000E+00  1.31805939E-04 -3.02700821E-04  7.98448501E-05 -4.57911371E-19
  0.00000000E+00  3.82586455E-07 -1.21046538E-06  6.07662026E-07 -2.00622860E-21
  0.00000000E+00  1.85777755E-10 -8.26090912E-10  2.46048441E-10 -9.10515853E-25
  4.18554347E-09  1.54590110E-04  5.90452952E-07  1.60573953E-11  2.15582755E-07
  4.49713417E-03 -5.08173190E-03  5.21966549E-03 -2.20576781E-17  3.10650896E-02
  3.08589751E-11  1.37376756E-05 -3.54764614E-05  5.79986259E-07 -2.56204709E-20
  1.05527185E-08  3.05030649E-04 -6.51268976E-04 -1.47342898E-04 -9.15348440E-19
  2.18108382E-05  1.85156139E-02 -2.83280625E-02 -6.70834576E-03 -5.94948226E-17
  1.31805939E-04  5.00693714E-02 -6.71901333E-02  1.77230643E-02 -7.62035261E-17
  3.82586455E-07  2.07558443E-03 -3.55869194E-03  1.78648806E-03 -5.73625952E-19
  1.85777755E-10  3.56265726E-05 -8.42329204E-05  2.50884962E-05 -2.06907263E-20
  7.28961501E-05  4.32265457E-02  1.40509307E-03  2.66212242E-06  4.49713417E-03
  3.64763319E-01 -2.17501762E-01  2.23405418E-01 -4.24629464E-16  2.63532865E-02
  8.41350389E-01  1.50021907E-10  3.54764614E-05 -8.74233417E-05  1.49982235E-06
 -6.62693800E-20  4.21461143E-08  6.51268976E-04 -1.30263647E-03 -3.16619190E-04
 -1.97545148E-18  5.91199163E-05  2.83280625E-02 -3.87458884E-02 -1.06834935E-02
 -9.63015135E-17  3.02700821E-04  6.71901333E-02 -7.75527765E-02  2.52376012E-02
 -1.07776605E-16  1.21046538E-06  3.55869194E-03 -5.52695081E-03  3.11221029E-03
 -8.88522067E-19  8.26090912E-10  8.42329204E-05 -1.88380348E-04  5.94489392E-05
 -4.87055459E-20  1.45178693E-04  4.52728399E-02  1.87183662E-03  6.26497524E-06
  5.08173190E-03  2.17501762E-01  7.53003992E-03  1.63039590E-01 -3.26758724E-16
  0.00000000E+00  0.00000000E+00  5.08390209E-01 -2.45263031E-12 -5.79986259E-07
  1.49982235E-06  4.29291453E-06  1.08340371E-21  9.53512426E-09  1.47342898E-04
 -3.16619190E-04  2.52172430E-05 -4.46925551E-19  1.40001400E-05  6.70834576E-03
 -1.06834935E-02  3.83851378E-03 -2.28050842E-17 -7.98448501E-05 -1.77230643E-02
  2.52376012E-02  1.14687691E-02  2.84287531E-17 -6.07662026E-07 -1.78648806E-03
  3.11221029E-03 -8.89765658E-04  4.46044247E-19 -2.46048441E-10 -2.50884962E-05
  5.94489392E-05 -6.49124640E-06  1.45067855E-20  6.33318838E-05  3.17224253E-02
 -1.69693164E-03 -2.56181517E-06 -5.21966549E-03 -2.23405418E-01  1.63039590E-01
 -1.20379218E-03  3.35627945E-16  0.00000000E+00  0.00000000E+00  0.00000000E+00
  5.08390209E-01 -6.69162774E-27 -1.59485488E-20  4.12859973E-20 -6.74963348E-22
  1.29523030E-05 -6.60321756E-23 -1.34687232E-18  2.89794735E-18  6.55630739E-19
  2.90547221E-04 -1.11800647E-19 -7.70702077E-17  1.23544064E-16  2.92563707E-17
  1.91053899E-02  2.71769438E-19 -9.88163520E-18  1.61055126E-17 -4.24822845E-18
  5.43774374E-02  3.09943606E-21  6.78841153E-18 -1.17776283E-17  5.91245120E-18
  2.01775655E-03  1.29239928E-24  9.43773374E-20 -2.23466453E-19  6.65587425E-20
  3.36462694E-05 -4.90548513E-19 -2.91101944E-16  7.22089066E-18  1.10792337E-20
  1.88968048E-17  1.27810956E-16 -1.15387921E-16  1.18519898E-16  4.98783559E-01
 -3.01175679E-16 -3.51551669E-15  0.00000000E+00  0.00000000E+00  1.52517063E+00
  8.25214546E-09  1.09238713E-04 -2.13101952E-04 -9.18461610E-05  3.82078011E-19
  3.14821684E-08  2.42795407E-04 -3.77445198E-04 -3.15438219E-04  4.58995283E-19
  7.41003058E-06  6.50216703E-03 -6.50042933E-03 -7.98459356E-03  1.35649217E-17
  4.60395986E-04  8.78402638E-02 -7.88551206E-02 -6.18407905E-02  4.30400656E-16
  1.20212954E-04  3.68087579E-02 -4.77668494E-02 -5.94148121E-03  2.50055428E-16
  5.09615505E-07  1.28604243E-03 -2.30159611E-03 -3.48130707E-04  7.17375385E-18
  2.20314342E-05  3.83150114E-03  6.22402168E-02  3.00341251E-04  6.06070781E-03
  4.11985261E-01 -6.63726328E-02 -2.86370337E-01  2.77831400E-15  5.97677370E-04
  1.04357239E-01  3.66144440E-02 -1.09252329E-01  3.45256550E-16  6.49524236E-01
  1.36842965E-12  6.15766577E-07 -1.65732881E-06 -3.57795979E-08 -8.06647123E-22
  2.96421194E-10  1.50753396E-05 -3.46572001E-05 -7.68319624E-06 -4.30948115E-20
  6.19543339E-07  1.44633625E-03 -2.53022115E-03 -5.76409052E-04 -4.01922287E-18
  5.98725876E-06  5.70859658E-03 -9.08216262E-03  1.09381498E-03 -4.15136823E-18
  2.75296310E-08  2.24108825E-04 -4.33200786E-04  1.43287120E-04  1.96755711E-19
  1.31904442E-11  2.36833280E-06 -5.92748618E-06  1.21398797E-06  1.17293630E-21
  4.12249405E-06  5.61493222E-03  2.88944704E-04  2.24668463E-07  5.97703511E-04
  1.04360259E-01 -1.08235984E-01  3.95256623E-02 -3.15766196E-17  6.06066137E-03
  4.11983864E-01 -2.88042333E-01 -5.86915045E-02 -1.21333046E-15  5.49449801E-02
  6.49524236E-01  3.23413217E-09  6.25166447E-05 -1.33356243E-04  3.12918811E-05
 -2.76648867E-19  8.08515686E-07  1.69771121E-03 -3.00807833E-03  8.29081144E-05
 -1.06816512E-17  1.38762862E-04  4.03390652E-02 -5.15311602E-02  7.62546063E-03
 -2.74613754E-16  9.51977999E-05  3.17361178E-02 -3.33227933E-02  2.60960833E-02
 -1.32491676E-16  3.79958617E-07  1.07806950E-03 -1.47963962E-03  1.31082780E-03
 -2.35033282E-18  2.21959425E-09  4.99618276E-05 -9.69409981E-05  5.36354755E-05
 -1.28119564E-19  7.82503815E-04  1.32323994E-01  3.84070602E-04  3.09312423E-06
  5.97677355E-04  1.04357237E-01 -3.66144434E-02  1.09252328E-01 -4.18135382E-16
  6.06070768E-03  4.11985257E-01  6.63726320E-02  2.86370336E-01 -3.12630156E-15
  1.77870151E-02  1.51838584E-01  6.49524236E-01  4.48773207E-09  2.69470031E-03
  4.36451331E-03  8.90840283E-04 -6.35676210E-18  0.00000000E+00  1.19457996E-04
  2.74330439E-04 -8.29770067E-05 -3.30015725E-20  0.00000000E+00  2.57602976E-07
  9.22131549E-07 -1.10997832E-07 -1.58176913E-22  0.00000000E+00  1.19862656E-08
  4.78749749E-08  9.76700034E-09 -3.26304269E-23  0.00000000E+00  2.57964789E-07
  8.06013008E-07  4.64009585E-07 -1.16084119E-21  0.00000000E+00  1.19542768E-04
  2.20023215E-04  1.83948137E-04 -4.99356322E-19  1.06471835E-04  2.26600805E-08
  2.26892047E-08  1.06491345E-04  0.00000000E+00  9.35490156E-14  5.05929927E-13
  1.03228230E-13 -2.88567313E-28  0.00000000E+00  0.00000000E+00  0.00000000E+00
  0.00000000E+00  0.00000000E+00  4.25271841E-13  0.00000000E+00  2.36901962E-13
  3.10650896E-02  2.69470031E-03  2.76317723E-01  2.59318134E-01  5.29293929E-02
 -5.56552497E-16  1.19457996E-04  4.73943932E-02  6.34556326E-02 -1.91934897E-02
 -1.58945606E-16  2.57602976E-07  1.67907786E-03  3.25000803E-03 -3.91206487E-04
 -4.15797466E-18  1.19862656E-08  3.26437809E-04  6.97228767E-04  1.42242030E-04
 -3.48480846E-19  2.57964789E-07  1.68034073E-03  2.83892415E-03  1.63432600E-03
  1.91486271E-19  1.19542768E-04  4.74131521E-02  5.08786295E-02  4.25365528E-02
  1.19664484E-17  3.40726827E-02  1.99528209E-04  1.99681203E-04  3.40766503E-02
  9.35490156E-14  6.33305107E-07  1.81764184E-06  3.70865490E-07 -5.34231041E-22
  0.00000000E+00  1.11877836E-08  3.72608054E-08  1.24746303E-09 -2.03533664E-23
  3.07385005E-07  4.16067246E-10  2.17083277E-07  2.63532865E-02  8.41350389E-01
 -4.36451331E-03 -2.59318134E-01 -1.66415383E-01 -5.83092076E-02  6.08016240E-16
 -2.74330439E-04 -6.34556326E-02 -7.29361951E-02  2.72330523E-02  2.29957371E-16
 -9.22131549E-07 -3.25000803E-03 -5.83998377E-03  7.68244525E-04  8.24319456E-18
 -4.78749749E-08 -6.97228767E-04 -1.39542320E-03 -3.05835368E-04  7.47784941E-19
 -8.06013008E-07 -2.83892415E-03 -4.32348581E-03 -2.80141288E-03 -4.09017547E-19
 -2.20023215E-04 -5.08786295E-02 -4.07533405E-02 -4.83728996E-02 -1.66013634E-17
 -3.42504659E-02 -3.93692337E-04 -3.18852207E-04 -2.00645749E-02 -5.05929927E-13
 -1.81764184E-06 -5.01968687E-06 -1.06472326E-06  1.53337296E-21  0.00000000E+00
 -3.72608054E-08 -1.20594509E-07 -4.15481693E-09  6.77904279E-23 -7.94794196E-07
 -1.38917515E-09 -6.01380168E-07  0.00000000E+00  0.00000000E+00  5.08390209E-01
 -8.90840283E-04 -5.29293929E-02 -5.83092076E-02  1.07358710E-01  1.24102121E-16
  8.29770067E-05  1.91934897E-02  2.72330523E-02  8.86184164E-03 -6.95554399E-17
  1.10997832E-07  3.91206487E-04  7.68244525E-04  4.49851397E-04 -9.92240992E-19
 -9.76700034E-09 -1.42242030E-04 -3.05835368E-04  4.12985463E-05  1.52556023E-19
 -4.64009585E-07 -1.63432600E-03 -2.80141288E-03 -1.06999175E-03 -2.35465260E-19
 -1.83948137E-04 -4.25365528E-02 -4.83728996E-02 -2.33354292E-02 -1.38793984E-17
  2.92185274E-02  1.11290068E-04 -2.56814405E-04 -4.03068125E-02 -1.03228230E-13
 -3.70865490E-07 -1.06472326E-06 -1.86343814E-08  3.12864230E-22  0.00000000E+00
 -1.24746303E-09 -4.15481693E-09  3.36772346E-09  2.26957125E-24 -2.97197154E-07
 -7.93436014E-11  7.91752676E-08  0.00000000E+00  0.00000000E+00  0.00000000E+00
  5.08390209E-01 -1.41673263E-18 -4.60720247E-16 -4.96801450E-16 -1.01402084E-16
  3.57780586E-01 -7.74916588E-19 -2.29618324E-16 -3.27274566E-16  9.89910709E-17
  5.12971520E-02 -1.37613358E-21 -6.27387949E-18 -1.23513150E-17  1.48673927E-18
  1.62697711E-03  2.20095775E-23  5.37386234E-20  1.12416157E-19  2.29340829E-20
  3.11076571E-04  2.03334631E-21  5.73694646E-18  9.80685682E-18  5.64566020E-18
  1.62821874E-03  8.08070799E-19  1.36466128E-16  1.54006794E-16  1.28755790E-16
  5.13187016E-02 -2.52798988E-16 -1.12415949E-18  1.05877886E-18  1.59559259E-16
  2.88567313E-28  5.34231041E-22  1.53337296E-21  3.12864230E-22  5.95824448E-07
  0.00000000E+00 -2.32891712E-23 -7.75681653E-23 -2.59692236E-24  1.05204706E-08
  9.73634320E-22 -6.73806311E-25 -1.02082581E-21 -2.29736350E-16 -2.68163078E-15
  0.00000000E+00  0.00000000E+00  1.52517063E+00  0.00000000E+00  1.31805939E-04
  3.02700821E-04 -7.98448501E-05  4.57911371E-19  0.00000000E+00  3.82586455E-07
  1.21046538E-06 -6.07662026E-07  2.00622860E-21  0.00000000E+00  1.85777755E-10
  8.26090912E-10 -2.46048441E-10  9.10515853E-25  0.00000000E+00  3.08589751E-11
  1.50021907E-10 -2.45263031E-12  8.63305170E-26  0.00000000E+00  1.05527185E-08
  4.21461143E-08  9.53512426E-09  1.08209173E-23  0.00000000E+00  2.18108382E-05
  5.91199163E-05  1.40001400E-05  2.95602394E-20  5.90452952E-07  1.60573953E-11
  4.18554347E-09  1.54590110E-04  0.00000000E+00  0.00000000E+00  0.00000000E+00
  0.00000000E+00  0.00000000E+00  0.00000000E+00  0.00000000E+00  0.00000000E+00
  0.00000000E+00  0.00000000E+00  2.99909693E-15  0.00000000E+00  0.00000000E+00
  2.15582755E-07  4.49713417E-03  5.08173190E-03 -5.21966549E-03  2.20576781E-17
  3.10650896E-02  1.31805939E-04  5.00693714E-02  6.71901333E-02 -1.77230643E-02
  7.62035261E-17  3.82586455E-07  2.07558443E-03  3.55869194E-03 -1.78648806E-03
  5.73625952E-19  1.85777755E-10  3.56265726E-05  8.42329204E-05 -2.50884962E-05
  2.06907263E-20  3.08589751E-11  1.37376756E-05  3.54764614E-05 -5.79986259E-07
  2.56204709E-20  1.05527185E-08  3.05030649E-04  6.51268976E-04  1.47342898E-04
  9.15348440E-19  2.18108382E-05  1.85156139E-02  2.83280625E-02  6.70834576E-03
  5.94948226E-17  1.40509307E-03  2.66212242E-06  7.28961501E-05  4.32265457E-02
  0.00000000E+00  1.11877836E-08  3.72608054E-08  1.24746303E-09  2.32891712E-23
  0.00000000E+00  4.89695792E-11  1.85676930E-10 -1.77456579E-11  5.41770536E-26
  1.61622446E-08  2.23018079E-12  1.16302490E-09  4.49713417E-03  3.64763319E-01
  2.17501762E-01 -2.23405418E-01  4.24629464E-16  2.63532865E-02  8.41350389E-01
 -3.02700821E-04 -6.71901333E-02 -7.75527765E-02  2.52376012E-02 -1.07776605E-16
 -1.21046538E-06 -3.55869194E-03 -5.52695081E-03  3.11221029E-03 -8.88522067E-19
 -8.26090912E-10 -8.42329204E-05 -1.88380348E-04  5.94489392E-05 -4.87055459E-20
 -1.50021907E-10 -3.54764614E-05 -8.74233417E-05  1.49982235E-06 -6.62693800E-20
 -4.21461143E-08 -6.51268976E-04 -1.30263647E-03 -3.16619190E-04 -1.97545148E-18
 -5.91199163E-05 -2.83280625E-02 -3.87458884E-02 -1.06834935E-02 -9.63015135E-17
 -1.87183662E-03 -6.26497524E-06 -1.45178693E-04 -4.52728399E-02  0.00000000E+00
 -3.72608054E-08 -1.20594509E-07 -4.15481693E-09 -7.75681653E-23  0.00000000E+00
 -1.85676930E-10 -6.88678878E-10  6.72858402E-11 -2.05422002E-25 -4.82083539E-08
 -8.33452695E-12 -3.68344644E-09 -5.08173190E-03 -2.17501762E-01  7.53003992E-03
  1.63039590E-01 -3.26758724E-16  0.00000000E+00  0.00000000E+00  5.08390209E-01
  7.98448501E-05  1.77230643E-02  2.52376012E-02  1.14687691E-02  2.84287531E-17
  6.07662026E-07  1.78648806E-03  3.11221029E-03 -8.89765658E-04  4.46044247E-19
  2.46048441E-10  2.50884962E-05  5.94489392E-05 -6.49124640E-06  1.45067855E-20
  2.45263031E-12  5.79986259E-07  1.49982235E-06  4.29291453E-06  1.08340371E-21
 -9.53512426E-09 -1.47342898E-04 -3.16619190E-04  2.52172430E-05 -4.46925551E-19
 -1.40001400E-05 -6.70834576E-03 -1.06834935E-02  3.83851378E-03 -2.28050842E-17
  1.69693164E-03  2.56181517E-06 -6.33318838E-05 -3.17224253E-02  0.00000000E+00
 -1.24746303E-09 -4.15481693E-09  3.36772346E-09 -2.59692236E-24  0.00000000E+00
  1.77456579E-11  6.72858402E-11  8.91776408E-12  1.96327490E-26 -9.00470734E-09
  4.87165850E-13  8.99826305E-10  5.21966549E-03  2.23405418E-01  1.63039590E-01
 -1.20379218E-03  3.35627945E-16  0.00000000E+00  0.00000000E+00  0.00000000E+00
  5.08390209E-01 -2.71769438E-19  9.88163520E-18  1.61055126E-17 -4.24822845E-18
  5.43774374E-02 -3.09943606E-21 -6.78841153E-18 -1.17776283E-17  5.91245120E-18
  2.01775655E-03 -1.29239928E-24 -9.43773374E-20 -2.23466453E-19  6.65587425E-20
  3.36462694E-05  6.69162774E-27  1.59485488E-20  4.12859973E-20 -6.74963348E-22
  1.29523030E-05  6.60321756E-23  1.34687232E-18  2.89794735E-18  6.55630739E-19
  2.90547221E-04  1.11800647E-19  7.70702077E-17  1.23544064E-16  2.92563707E-17
  1.91053899E-02 -7.22089066E-18 -1.10792337E-20  4.90548513E-19  2.91101944E-16
  0.00000000E+00  2.03533664E-23  6.77904279E-23  2.26957125E-24  1.05204706E-08
  0.00000000E+00 -5.41770536E-26 -2.05422002E-25  1.96327490E-26  4.60453739E-11
  7.34484956E-23 -5.45723002E-28 -3.86417411E-24 -1.88968048E-17 -1.27810956E-16
 -1.15387921E-16  1.18519898E-16  4.98783559E-01  3.01175679E-16  3.51551669E-15
  0.00000000E+00  0.00000000E+00  1.52517063E+00  4.60395986E-04  8.78402638E-02
  7.88551206E-02  6.18407905E-02 -4.30400656E-16  1.20212954E-04  3.68087579E-02
  4.77668494E-02  5.94148121E-03 -2.50055428E-16  5.09615505E-07  1.28604243E-03
  2.30159611E-03  3.48130707E-04 -7.17375385E-18  8.25214546E-09  1.09238713E-04
  2.13101952E-04  9.18461610E-05 -3.82078011E-19  3.14821684E-08  2.42795407E-04
  3.77445198E-04  3.15438219E-04 -4.58995283E-19  7.41003058E-06  6.50216703E-03
  6.50042933E-03  7.98459356E-03 -1.35649217E-17  6.22402168E-02  3.00341251E-04
  2.20314342E-05  3.83150114E-03  4.25271841E-13  3.07385005E-07  7.94794196E-07
  2.97197154E-07 -9.73634320E-22  2.99909693E-15  1.61622446E-08  4.82083539E-08
  9.00470734E-09 -7.34484956E-23  8.27999512E-08  6.09710976E-10  4.19865980E-07
  6.06070781E-03  4.11985261E-01  6.63726328E-02  2.86370337E-01 -2.77831400E-15
  5.97677370E-04  1.04357239E-01 -3.66144440E-02  1.09252329E-01 -3.45256550E-16
  6.49524236E-01  5.98725876E-06  5.70859658E-03  9.08216262E-03 -1.09381498E-03
  4.15136823E-18  2.75296310E-08  2.24108825E-04  4.33200786E-04 -1.43287120E-04
 -1.96755711E-19  1.31904442E-11  2.36833280E-06  5.92748618E-06 -1.21398797E-06
 -1.17293630E-21  1.36842965E-12  6.15766577E-07  1.65732881E-06  3.57795979E-08
  8.06647123E-22  2.96421194E-10  1.50753396E-05  3.46572001E-05  7.68319624E-06
  4.30948115E-20  6.19543339E-07  1.44633625E-03  2.53022115E-03  5.76409052E-04
  4.01922287E-18  2.88944704E-04  2.24668463E-07  4.12249405E-06  5.61493222E-03
  0.00000000E+00  4.16067246E-10  1.38917515E-09  7.93436014E-11  6.73806311E-25
  0.00000000E+00  2.23018079E-12  8.33452695E-12 -4.87165850E-13  5.45723002E-28
  6.09710976E-10  0.00000000E+00  6.85736872E-11  5.97703511E-04  1.04360259E-01
  1.08235984E-01 -3.95256623E-02  3.15766196E-17  6.06066137E-03  4.11983864E-01
  2.88042333E-01  5.86915045E-02  1.21333046E-15  5.49449801E-02  6.49524236E-01
  9.51977999E-05  3.17361178E-02  3.33227933E-02 -2.60960833E-02  1.32491676E-16
  3.79958617E-07  1.07806950E-03  1.47963962E-03 -1.31082780E-03  2.35033282E-18
  2.21959425E-09  4.99618276E-05  9.69409981E-05 -5.36354755E-05  1.28119564E-19
  3.23413217E-09  6.25166447E-05  1.33356243E-04 -3.12918811E-05  2.76648867E-19
  8.08515686E-07  1.69771121E-03  3.00807833E-03 -8.29081144E-05  1.06816512E-17
  1.38762862E-04  4.03390652E-02  5.15311602E-02 -7.62546063E-03  2.74613754E-16
  3.84070602E-04  3.09312423E-06  7.82503815E-04  1.32323994E-01  2.36901962E-13
  2.17083277E-07  6.01380168E-07 -7.91752676E-08  1.02082581E-21  0.00000000E+00
  1.16302490E-09  3.68344644E-09 -8.99826305E-10  3.86417411E-24  4.19865980E-07
  6.85736872E-11  6.02026092E-09  5.97677355E-04  1.04357237E-01  3.66144434E-02
 -1.09252328E-01  4.18135382E-16  6.06070768E-03  4.11985257E-01 -6.63726320E-02
 -2.86370336E-01  3.12630156E-15  1.77870151E-02  1.51838584E-01  6.49524236E-01
Number of independent functions            I               60
Alpha MO coefficients                      R   N=        3600
  6.98402640E-01  3.29502559E-02 -1.47030981E-03 -2.95067829E-04 -1.53014206E-16
 -2.47994208E-02 -8.79919735E-03 -2.77754843E-03  3.77304401E-03 -3.38573571E-17
  2.30915347E-02  8.74308946E-03 -1.06681929E-03 -4.55275836E-03  2.26702745E-16
 -6.98402640E-01 -3.29502559E-02 -1.47030981E-03 -2.95067829E-04  8.23607723E-18
  2.47994208E-02  8.79919734E-03 -2.77754843E-03  3.77304401E-03 -6.52861149E-17
 -2.30915347E-02 -8.74308946E-03 -1.06681930E-03 -4.55275836E-03 -1.43937539E-16
  4.21864974E-04 -4.21849635E-04 -4.21864974E-04  4.21849635E-04  3.50333836E-02
  6.91082166E-03  3.97364815E-03  9.32152983E-04 -1.35859875E-16 -2.01268548E-04
 -6.07060001E-04 -3.40678749E-04  6.71774515E-05 -3.15054183E-16 -4.14744297E-04
  3.46284187E-05  1.59028769E-04 -3.50333836E-02 -6.91082166E-03  3.97364815E-03
  9.32152983E-04 -1.15106764E-16  2.01268548E-04  6.07060001E-04 -3.40678749E-04
  6.71774515E-05 -1.98405080E-16  4.14744297E-04 -3.46284188E-05 -1.59028769E-04
 -6.98401059E-01 -3.26910012E-02  1.10463773E-03  2.18824271E-04  1.00164652E-16
  2.51015116E-02  7.74521485E-03  3.26098419E-03 -3.56618616E-03 -2.83998377E-17
  2.32485646E-02  7.64806308E-03 -1.61483741E-03 -4.55530182E-03 -9.04351109E-17
 -6.98401059E-01 -3.26910012E-02 -1.10463773E-03 -2.18824271E-04 -4.68489854E-17
  2.51015116E-02  7.74521486E-03 -3.26098419E-03  3.56618616E-03  1.08848469E-17
  2.32485646E-02  7.64806307E-03  1.61483741E-03  4.55530182E-03  2.22241370E-16
 -2.72430401E-04 -2.68917490E-04 -2.72430401E-04 -2.68917489E-04  3.56388847E-02
  7.00656135E-03  4.02318701E-03  9.42964167E-04  1.19074996E-16 -2.12108766E-04
 -6.12981247E-04 -3.51049132E-04  7.04074993E-05  5.65913295E-18 -4.29610064E-04
  3.33511018E-05  1.44770086E-04  3.56388847E-02  7.00656134E-03 -4.02318701E-03
 -9.42964166E-04 -1.36440419E-17 -2.12108766E-04 -6.12981246E-04  3.51049132E-04
 -7.04074993E-05  5.91034403E-17 -4.29610064E-04  3.33511018E-05  1.44770086E-04
  3.44331724E-02 -3.26933219E-03 -4.37660604E-03 -6.70614987E-04 -2.94691507E-16
 -3.03541579E-02 -1.74564401E-03  9.75771378E-05  2.66853184E-04  1.22730705E-16
  1.73992589E-02  1.23136538E-03  2.43404492E-04 -1.64852329E-04  2.99511158E-16
 -3.44331716E-02  3.26933211E-03 -4.37660593E-03 -6.70614973E-04 -1.80792725E-16
  3.03541571E-02  1.74564397E-03  9.75771385E-05  2.66853177E-04 -2.60874068E-16
 -1.73992591E-02 -1.23136539E-03  2.43404488E-04 -1.64852336E-04  1.07922469E-16
  2.70820236E-04 -4.66446668E-05 -2.70820229E-04  4.66446647E-05 -6.98575970E-01
 -3.15397527E-02  1.44362698E-03 -1.11199705E-03 -4.85198481E-16  1.04743194E-02
  8.36585487E-03  3.40026280E-03 -3.54320198E-03  1.73745966E-16  6.64874127E-03
 -2.67537017E-04 -2.29291951E-04  6.98575987E-01  3.15397535E-02  1.44362701E-03
 -1.11199708E-03  3.20879798E-17 -1.04743197E-02 -8.36585507E-03  3.40026289E-03
 -3.54320207E-03  2.89463642E-16 -6.64874144E-03  2.67537024E-04  2.29291957E-04
 -3.52628036E-02  3.33375809E-03  4.29913784E-03  5.77486827E-04  1.00881123E-16
  3.32216192E-02  1.68333950E-03  2.92682016E-05 -3.18861169E-04 -8.52766936E-17
  7.90580094E-03  1.85987515E-04 -1.38097698E-04 -2.97594695E-04 -2.47683545E-16
 -3.52628045E-02  3.33375817E-03 -4.29913794E-03 -5.77486844E-04  2.18940191E-16
  3.32216199E-02  1.68333954E-03 -2.92681992E-05  3.18861176E-04 -3.13634222E-16
  7.90580051E-03  1.85987485E-04  1.38097704E-04  2.97594691E-04 -1.44567286E-16
 -2.71427413E-04  8.32169795E-05 -2.71427420E-04  8.32169807E-05 -6.98579880E-01
 -3.15241673E-02  1.45653472E-03 -1.11207647E-03 -1.98778634E-16  1.04773329E-02
  8.36741481E-03  3.39864507E-03 -3.54282930E-03  1.28470163E-16  6.64742066E-03
 -2.67858634E-04 -2.36608522E-04 -6.98579862E-01 -3.15241666E-02 -1.45653468E-03
  1.11207644E-03 -1.10418781E-16  1.04773327E-02  8.36741460E-03 -3.39864499E-03
  3.54282921E-03 -6.57834761E-17  6.64742050E-03 -2.67858627E-04 -2.36608516E-04
  3.45230342E-02 -8.16575599E-03  3.37394433E-03 -1.62860896E-03  9.08367239E-17
  6.51885680E-01  3.25809891E-02 -2.17150484E-03 -1.49340604E-03  2.90035507E-17
 -2.50386350E-01 -1.81366811E-02 -4.72145657E-03 -5.12361752E-04  1.15973591E-17
 -3.45230342E-02  8.16575599E-03  3.37394433E-03 -1.62860895E-03  2.64419385E-17
 -6.51885680E-01 -3.25809891E-02 -2.17150484E-03 -1.49340604E-03 -1.30133124E-16
  2.50386350E-01  1.81366811E-02 -4.72145657E-03 -5.12361752E-04  6.24464829E-17
 -6.19256214E-03  2.55547287E-03  6.19256213E-03 -2.55547287E-03 -3.30027362E-02
 -1.60817825E-03  1.12851427E-04 -7.02824407E-05  7.69152261E-17  1.15039120E-03
  5.20936218E-04  2.35703558E-04 -1.54438737E-04  7.42363586E-17  3.71010984E-04
 -3.74254183E-06 -1.28266460E-04  3.30027362E-02  1.60817825E-03  1.12851427E-04
 -7.02824407E-05  1.46077851E-16 -1.15039120E-03 -5.20936218E-04  2.35703558E-04
 -1.54438737E-04 -6.32955246E-18 -3.71010984E-04  3.74254184E-06  1.28266460E-04
  1.57696096E-02 -3.02133600E-03  2.10159249E-03 -5.05917837E-03 -7.82033974E-17
  6.41691926E-01  3.21760410E-02 -2.18391559E-03 -1.22740996E-03  1.62974833E-16
 -2.77711614E-01 -1.91972614E-02 -4.48909550E-03 -4.22115031E-04  6.52404998E-17
  1.57696096E-02 -3.02133600E-03 -2.10159250E-03  5.05917837E-03 -9.34105915E-17
  6.41691927E-01  3.21760410E-02  2.18391559E-03  1.22740996E-03  1.35836467E-16
 -2.77711614E-01 -1.91972614E-02  4.48909550E-03  4.22115031E-04  8.16459964E-17
 -6.14878332E-03  2.72196515E-03 -6.14878332E-03  2.72196515E-03  2.66504269E-02
  1.18176980E-03 -1.17174566E-04 -3.75026910E-05  9.14380822E-17 -4.63940029E-04
 -3.23792365E-04 -1.58460206E-04  1.67527268E-04  5.42437522E-16 -2.73180326E-04
  9.15341949E-06 -1.27953759E-04  2.66504269E-02  1.18176980E-03  1.17174566E-04
  3.75026910E-05  2.83606436E-16 -4.63940028E-04 -3.23792365E-04  1.58460206E-04
 -1.67527268E-04  4.37312208E-17 -2.73180326E-04  9.15341949E-06 -1.27953759E-04
  1.34908357E-02 -3.64041509E-03  3.27864736E-04  5.31766057E-03  1.06712083E-16
 -2.52644767E-01 -5.02897654E-03 -4.16299919E-03 -5.19093260E-04  2.85191414E-20
 -6.53289679E-01 -2.75958121E-02  7.95503280E-04  1.17627120E-03  4.61236740E-17
 -1.34908357E-02  3.64041509E-03  3.27864736E-04  5.31766057E-03 -3.28587475E-17
  2.52644767E-01  5.02897655E-03 -4.16299919E-03 -5.19093261E-04 -1.79210067E-17
  6.53289679E-01  2.75958121E-02  7.95503281E-04  1.17627120E-03 -8.08908299E-17
  2.18673198E-03  6.09418691E-03 -2.18673198E-03 -6.09418691E-03 -4.69210696E-03
 -2.74879247E-04  4.63524564E-06  1.21229310E-06  2.99572364E-16  1.14330468E-03
  1.78323578E-04  1.09726509E-04  5.59042097E-05 -5.12640425E-17  7.28499596E-05
  2.24717014E-05 -2.42757302E-04  4.69210697E-03  2.74879247E-04  4.63524568E-06
  1.21229309E-06  6.43412600E-17 -1.14330468E-03 -1.78323578E-04  1.09726509E-04
  5.59042097E-05 -1.52527972E-16 -7.28499596E-05 -2.24717014E-05  2.42757302E-04
 -3.37202736E-02  7.55240153E-03 -2.45059386E-03 -2.68760447E-03  1.24958049E-16
 -2.77281428E-01 -6.25216841E-03 -3.97286414E-03 -6.65230603E-04 -8.56069777E-17
 -6.42383541E-01 -2.66694135E-02  1.14297034E-03  8.83051982E-04 -2.07039198E-16
 -3.37202736E-02  7.55240153E-03  2.45059386E-03  2.68760447E-03  2.81306196E-17
 -2.77281428E-01 -6.25216841E-03  3.97286414E-03  6.65230603E-04 -1.02814754E-16
 -6.42383541E-01 -2.66694135E-02 -1.14297034E-03 -8.83051981E-04  3.95955851E-17
  2.58658480E-03  6.13540753E-03  2.58658480E-03  6.13540753E-03 -1.88312316E-02
 -8.42264092E-04  2.13503859E-04 -5.03446689E-05  1.03650995E-16  1.73792638E-03
  4.30634709E-04  2.30612311E-04 -3.84150616E-05  1.77689368E-17  2.78208121E-04
  1.91269138E-05 -2.44128275E-04 -1.88312316E-02 -8.42264092E-04 -2.13503859E-04
  5.03446689E-05  2.44152285E-17  1.73792638E-03  4.30634709E-04 -2.30612311E-04
  3.84150616E-05 -8.47339547E-17  2.78208121E-04  1.91269138E-05 -2.44128275E-04
 -4.15950763E-04 -1.75045944E-04 -2.59916074E-05 -3.10956400E-05  1.08485185E-16
 -6.45912865E-04  1.00371929E-04  2.22052582E-05 -3.49221890E-05 -6.38071923E-17
 -1.33918363E-03  4.12252247E-05 -1.52214762E-04  3.95122286E-06  2.75212605E-17
 -4.15950764E-04 -1.75045944E-04  2.59916074E-05  3.10956400E-05 -1.55473823E-16
 -6.45912865E-04  1.00371929E-04 -2.22052584E-05  3.49221890E-05 -1.34869908E-16
 -1.33918362E-03  4.12252247E-05  1.52214762E-04 -3.95122287E-06 -1.30071673E-17
  2.07911624E-05 -1.76966976E-04  2.07911625E-05 -1.76966976E-04 -1.14541795E-02
  7.37287058E-03 -3.36689072E-03  3.49023473E-03  8.14881734E-17 -7.00250125E-01
 -3.19731770E-02 -1.02614340E-03  1.03902543E-03  2.84444966E-16 -5.08250992E-05
  6.62940038E-03  6.65301597E-03 -1.14541795E-02  7.37287056E-03  3.36689072E-03
 -3.49023473E-03 -2.47455558E-16 -7.00250124E-01 -3.19731770E-02  1.02614340E-03
 -1.03902543E-03 -1.82047730E-16 -5.08250992E-05  6.62940037E-03  6.65301596E-03
  3.98556992E-04  1.76233133E-04  2.73640453E-05  3.29916011E-05 -5.33967835E-17
  2.20682715E-04 -1.58171186E-06 -1.07356947E-04  1.07288789E-05 -5.46765561E-17
 -1.26252032E-03  2.04911700E-05 -1.69196687E-04 -1.11741648E-06  9.78483626E-17
 -3.98556991E-04 -1.76233132E-04  2.73640452E-05  3.29916010E-05 -3.95828037E-16
 -2.20682714E-04  1.58171170E-06 -1.07356947E-04  1.07288788E-05 -1.75251132E-16
  1.26252032E-03 -2.04911701E-05 -1.69196688E-04 -1.11741647E-06 -9.98146590E-17
 -1.26678130E-05 -1.77359951E-04  1.26678130E-05  1.77359951E-04 -1.14477758E-02
  7.37296709E-03 -3.36762377E-03  3.49078489E-03  3.74461418E-16 -7.00250588E-01
 -3.19735708E-02 -1.02646984E-03  1.03918170E-03  8.61312036E-17 -5.12746398E-05
  6.62936579E-03  6.65289311E-03  1.14477758E-02 -7.37296710E-03 -3.36762377E-03
  3.49078489E-03 -2.24132964E-16  7.00250589E-01  3.19735709E-02 -1.02646984E-03
  1.03918170E-03  1.66233198E-16  5.12746399E-05 -6.62936580E-03 -6.65289312E-03
  1.08333725E-01 -2.70904954E-01  5.07425968E-02  1.10041590E-02 -2.47676793E-17
  9.92640642E-02 -2.46864838E-01  1.39858666E-02  6.00342398E-02 -6.84225117E-17
  9.97895769E-02 -2.47964119E-01 -3.53911570E-02  4.98043561E-02  1.19375282E-17
  1.08333725E-01 -2.70904954E-01 -5.07425968E-02 -1.10041590E-02 -5.18695461E-17
  9.92640642E-02 -2.46864838E-01 -1.39858666E-02 -6.00342398E-02  1.80927119E-16
  9.97895769E-02 -2.47964119E-01  3.53911570E-02 -4.98043561E-02  1.05652921E-16
 -4.31119014E-02 -4.43082480E-02 -4.31119014E-02 -4.43082480E-02  4.31282767E-02
 -1.10736857E-01 -2.49154032E-02 -1.35050722E-02 -2.98616494E-16  2.25143218E-02
 -5.61340612E-02 -1.87715994E-02  1.11137831E-02 -4.21078075E-17 -2.16035906E-02
 -9.08459318E-03 -1.34949521E-02  4.31282767E-02 -1.10736857E-01  2.49154032E-02
  1.35050722E-02  1.86966381E-16  2.25143218E-02 -5.61340612E-02  1.87715994E-02
 -1.11137831E-02 -1.20638933E-16 -2.16035906E-02 -9.08459318E-03 -1.34949521E-02
 -1.02639702E-01  2.69058013E-01  2.65884647E-02 -4.21421257E-03 -4.50996278E-17
 -3.64576676E-02  9.48228964E-02  6.28612439E-02 -2.69830381E-02  1.42433251E-17
  4.93749272E-02 -1.28321808E-01  4.67086219E-02  4.81814963E-02 -1.70784791E-16
  1.02639702E-01 -2.69058013E-01  2.65884647E-02 -4.21421257E-03  1.11111323E-16
  3.64576676E-02 -9.48228964E-02  6.28612439E-02 -2.69830381E-02  2.32613451E-16
 -4.93749272E-02  1.28321808E-01  4.67086219E-02  4.81814963E-02 -1.16079128E-16
  2.43531163E-02 -3.58066627E-02 -2.43531163E-02  3.58066627E-02  1.11104775E-01
 -2.89235023E-01 -2.91525579E-03 -4.06216604E-02  1.98165425E-17  8.37964646E-02
 -2.14990774E-01 -5.01627958E-02  3.92524364E-02 -4.96076766E-16 -6.42257434E-02
 -4.38963389E-02 -5.12389837E-02 -1.11104775E-01  2.89235023E-01 -2.91525579E-03
 -4.06216604E-02  9.45508912E-17 -8.37964646E-02  2.14990774E-01 -5.01627958E-02
  3.92524364E-02  2.96818394E-16  6.42257434E-02  4.38963389E-02  5.12389837E-02
 -4.41702629E-03  1.53177006E-02  9.19785109E-02  6.27812020E-03 -2.16924283E-16
  4.31226475E-02 -1.11226319E-01  3.26861864E-02  1.88768615E-02 -7.94103402E-17
  3.45168457E-02 -8.89004867E-02 -5.02175069E-02  1.92029387E-03  8.21250296E-17
 -4.41702629E-03  1.53177006E-02 -9.19785109E-02 -6.27812020E-03 -5.11794925E-17
  4.31226475E-02 -1.11226319E-01 -3.26861864E-02 -1.88768615E-02  1.98085206E-17
  3.45168457E-02 -8.89004867E-02  5.02175069E-02 -1.92029387E-03 -4.21337079E-17
 -2.07785644E-02 -8.47010779E-03 -2.07785644E-02 -8.47010779E-03 -1.20747292E-01
  3.17131024E-01 -5.77250058E-02  5.36211221E-02 -4.45118418E-16 -1.20913256E-01
  3.16136259E-01  5.26899987E-02 -5.29621562E-02  5.43014279E-16  7.52764763E-02
  7.42008885E-02  7.54948727E-02 -1.20747292E-01  3.17131024E-01  5.77250058E-02
 -5.36211221E-02 -2.71631433E-16 -1.20913256E-01  3.16136259E-01 -5.26899987E-02
  5.29621562E-02 -1.43276187E-16  7.52764763E-02  7.42008885E-02  7.54948727E-02
 -1.95211343E-02  5.23834212E-02 -3.01690889E-02  1.29469487E-01 -8.84397147E-16
 -1.36053035E-01  3.63762424E-01 -4.90106308E-02 -4.18865467E-03  3.44005584E-16
 -1.16753459E-01  3.11720848E-01  6.63475199E-02  3.75773457E-02  5.28911427E-16
  1.95211343E-02 -5.23834212E-02 -3.01690889E-02  1.29469487E-01 -5.12024160E-16
  1.36053035E-01 -3.63762424E-01 -4.90106308E-02 -4.18865467E-03 -4.44679569E-17
  1.16753459E-01 -3.11720848E-01  6.63475199E-02  3.75773457E-02 -1.98752590E-16
  9.73914762E-02  8.51368611E-02 -9.73914762E-02 -8.51368611E-02  3.00356297E-03
 -9.67213129E-03 -1.84349458E-02  2.29458128E-02 -1.36964826E-15 -1.31757686E-02
  3.40232584E-02  6.12518759E-03  3.32160882E-03 -9.22916806E-16 -1.16184883E-02
  7.76120926E-03  1.54953771E-02 -3.00356297E-03  9.67213129E-03 -1.84349458E-02
  2.29458128E-02 -1.04789112E-15  1.31757686E-02 -3.40232584E-02  6.12518759E-03
  3.32160882E-03 -3.97885359E-16  1.16184883E-02 -7.76120926E-03 -1.54953771E-02
  1.01587513E-01 -2.76736683E-01  5.86323373E-02  2.42895192E-02 -2.63939502E-16
  3.91431190E-02 -1.07358573E-01 -9.58209072E-02  3.78226713E-02 -5.33831033E-17
 -7.80170549E-02  2.13557399E-01 -4.22231802E-02 -5.93959652E-02  4.02652321E-16
 -1.01587513E-01  2.76736683E-01  5.86323373E-02  2.42895192E-02 -2.89356883E-17
 -3.91431190E-02  1.07358573E-01 -9.58209072E-02  3.78226713E-02 -3.06560903E-17
  7.80170549E-02 -2.13557399E-01 -4.22231802E-02 -5.93959652E-02  8.81009588E-18
 -2.94509851E-02  5.30399454E-02  2.94509851E-02 -5.30399454E-02  5.62972930E-02
 -1.48199796E-01  1.20273799E-01 -4.30049907E-02 -1.27321572E-16  1.08817653E-01
 -2.93933440E-01 -1.46757635E-02  3.85009444E-02  2.25445446E-17 -3.91693567E-02
 -8.59962727E-02 -7.22128791E-02 -5.62972930E-02  1.48199796E-01  1.20273799E-01
 -4.30049907E-02  8.06231074E-17 -1.08817653E-01  2.93933440E-01 -1.46757635E-02
  3.85009444E-02 -4.31044750E-16  3.91693567E-02  8.59962727E-02  7.22128791E-02
 -6.14155030E-02  1.79496296E-01  4.70497259E-02  1.54065244E-01 -5.98080235E-16
 -2.35168479E-02  6.82028407E-02  1.69422494E-01 -1.90999529E-02  2.75189541E-16
  9.11527475E-02 -2.59818937E-01  9.26806993E-03 -5.54907197E-02  5.54683762E-16
 -6.14155030E-02  1.79496296E-01 -4.70497259E-02 -1.54065244E-01  2.99259796E-16
 -2.35168479E-02  6.82028407E-02 -1.69422494E-01  1.90999529E-02 -9.55905613E-17
  9.11527475E-02 -2.59818937E-01 -9.26806993E-03  5.54907197E-02 -1.83407408E-16
  4.34871672E-02 -1.22944075E-01  4.34871672E-02 -1.22944075E-01 -5.48387809E-02
  1.66595849E-01  9.73848947E-02 -9.09904375E-02  7.07579790E-16  7.00059555E-02
 -2.02144323E-01  2.91905297E-02 -4.75812229E-02  8.60849681E-16  9.12127172E-02
 -7.92941417E-02 -9.87938163E-02 -5.48387809E-02  1.66595849E-01 -9.73848947E-02
  9.09904375E-02 -5.62894249E-16  7.00059555E-02 -2.02144323E-01 -2.91905297E-02
  4.75812229E-02 -1.78770722E-16  9.12127172E-02 -7.92941417E-02 -9.87938163E-02
  6.57121809E-02 -1.93482311E-01 -7.59760258E-02  1.64742990E-01 -3.43535058E-16
 -1.08824455E-01  3.19014869E-01  1.75341537E-03  8.72435555E-02 -2.23587097E-16
  4.17723781E-02 -1.22691615E-01  1.67299991E-01  1.14517301E-01 -1.56023349E-16
  6.57121809E-02 -1.93482311E-01  7.59760258E-02 -1.64742990E-01  4.85374252E-16
 -1.08824455E-01  3.19014869E-01 -1.75341537E-03 -8.72435555E-02 -4.65421485E-16
  4.17723781E-02 -1.22691615E-01 -1.67299991E-01 -1.14517301E-01 -9.33318786E-17
  1.59589870E-01 -5.50633035E-02  1.59589870E-01 -5.50633035E-02  1.49789146E-02
 -4.78684932E-02 -9.48687192E-02 -2.52764710E-02  8.40190667E-16 -5.28479644E-02
  1.57972138E-01 -6.07532423E-02 -4.64188094E-03  4.75917258E-16  1.29958817E-02
  8.61040858E-02  3.91014400E-02  1.49789146E-02 -4.78684932E-02  9.48687192E-02
  2.52764710E-02  5.96013093E-17 -5.28479644E-02  1.57972138E-01  6.07532423E-02
  4.64188094E-03 -7.62906330E-16  1.29958817E-02  8.61040858E-02  3.91014400E-02
 -1.07405681E-02  2.74732565E-02 -1.17095607E-01 -5.09226804E-02 -9.99647405E-17
 -4.67747020E-02  1.42123278E-01 -4.27222051E-03 -6.91535760E-03  4.70951300E-16
  2.45994832E-02 -7.43388592E-02  7.46862520E-02  3.26810667E-02  5.27409577E-16
  1.07405681E-02 -2.74732565E-02 -1.17095607E-01 -5.09226804E-02 -2.87250096E-17
  4.67747020E-02 -1.42123278E-01 -4.27222051E-03 -6.91535760E-03 -5.87710285E-17
 -2.45994832E-02  7.43388592E-02  7.46862520E-02  3.26810667E-02  7.35065714E-17
  4.23820220E-02 -5.56515967E-02 -4.23820220E-02  5.56515967E-02 -1.00802979E-01
  3.10105231E-01  3.06117439E-02 -1.23975274E-01 -3.12300007E-16  8.06342753E-02
 -2.49421480E-01  8.22680101E-02 -1.35764718E-01 -4.13982835E-16  1.78121771E-01
 -1.23053924E-01 -1.64056177E-01  1.00802979E-01 -3.10105231E-01  3.06117439E-02
 -1.23975274E-01 -2.74840960E-16 -8.06342753E-02  2.49421480E-01  8.22680101E-02
 -1.35764718E-01 -1.65501364E-16 -1.78121771E-01  1.23053924E-01  1.64056177E-01
  5.02152228E-02 -1.44866841E-01  1.46721235E-01 -1.64422525E-02 -1.02680905E-17
 -9.75032959E-03  3.68132878E-02 -8.59255219E-02  1.87749585E-01 -5.73918077E-16
 -5.36413740E-02  1.71744341E-01 -5.14538685E-02  1.97866389E-01 -5.75056183E-16
  5.02152228E-02 -1.44866841E-01 -1.46721235E-01  1.64422525E-02 -3.43761048E-16
 -9.75032959E-03  3.68132878E-02  8.59255219E-02 -1.87749585E-01 -4.83742815E-16
 -5.36413740E-02  1.71744341E-01  5.14538685E-02 -1.97866389E-01  4.28565867E-16
  1.03799960E-01  1.65299710E-01  1.03799960E-01  1.65299710E-01 -5.80815997E-02
  1.77923827E-01  1.21383925E-02 -6.49807281E-02 -4.95562892E-16  5.52903905E-02
 -1.74493133E-01  8.15134365E-02 -7.29517591E-02 -9.30227965E-16  1.08992326E-01
 -1.04503994E-01 -8.44309060E-02 -5.80815997E-02  1.77923827E-01 -1.21383925E-02
  6.49807281E-02  8.26122003E-18  5.52903905E-02 -1.74493133E-01 -8.15134365E-02
  7.29517591E-02 -1.44291871E-16  1.08992326E-01 -1.04503994E-01 -8.44309060E-02
  3.81979151E-02 -1.25755186E-01 -1.24180377E-01 -6.42125861E-02 -6.17875085E-16
  1.41886056E-02 -5.56006754E-02 -1.57208891E-01 -1.27528176E-01  1.01105985E-15
 -2.39387164E-02  6.74541174E-02  1.47954003E-01 -6.58662615E-02  1.54320592E-15
  3.81979151E-02 -1.25755186E-01  1.24180377E-01  6.42125861E-02  2.01519462E-16
  1.41886056E-02 -5.56006754E-02  1.57208891E-01  1.27528176E-01  2.59857932E-16
 -2.39387164E-02  6.74541174E-02 -1.47954003E-01  6.58662615E-02 -4.50824361E-16
 -1.27990155E-01 -8.55151724E-02 -1.27990155E-01 -8.55151724E-02 -4.48701710E-02
  1.41014274E-01 -1.82608649E-01 -1.07958435E-01  2.66952750E-16  1.56338108E-02
 -5.93583664E-02 -2.22485462E-02 -2.08341590E-01 -2.51938623E-16  1.50145270E-01
  1.67416145E-02 -1.73981386E-01 -4.48701710E-02  1.41014274E-01  1.82608649E-01
  1.07958435E-01 -1.76221196E-15  1.56338108E-02 -5.93583664E-02  2.22485462E-02
  2.08341590E-01 -1.75869009E-15  1.50145270E-01  1.67416145E-02 -1.73981386E-01
 -1.02910365E-02  3.78133742E-02  1.32887544E-01 -1.45575184E-01  2.75303242E-16
  1.38537316E-02 -4.59458135E-02 -2.00479304E-01  1.03599986E-02 -4.24395105E-17
 -3.60292952E-02  1.17931681E-01  1.31091613E-01  9.65894396E-02 -2.59946112E-18
  1.02910365E-02 -3.78133742E-02  1.32887544E-01 -1.45575184E-01  8.18788593E-16
 -1.38537316E-02  4.59458135E-02 -2.00479304E-01  1.03599986E-02 -4.83492825E-17
  3.60292952E-02 -1.17931681E-01  1.31091613E-01  9.65894396E-02  1.00067781E-16
 -6.54191642E-02  2.95589780E-02  6.54191642E-02 -2.95589780E-02  1.98999655E-02
 -5.88006622E-02 -7.77292437E-02 -2.17789013E-01  1.54744080E-15 -1.28569628E-02
  5.11397641E-02 -2.37557265E-01 -4.40492875E-02  1.07451585E-15  1.41104019E-01
  1.91446825E-01 -4.62820168E-02 -1.98999655E-02  5.88006622E-02 -7.77292437E-02
 -2.17789013E-01 -5.81351802E-17  1.28569628E-02 -5.11397641E-02 -2.37557265E-01
 -4.40492875E-02 -6.16295530E-16 -1.41104019E-01 -1.91446825E-01  4.62820168E-02
  7.59459579E-02 -2.57240172E-01  7.17352655E-02  5.52624225E-03  2.15513269E-15
 -4.43890281E-02  1.56046840E-01  6.66901886E-03  2.19074604E-01  1.67060193E-15
  4.09327007E-02 -1.45085317E-01  1.36385712E-01 -1.99141635E-01  2.12541732E-15
 -7.59459579E-02  2.57240172E-01  7.17352655E-02  5.52624225E-03  1.99629046E-15
  4.43890281E-02 -1.56046840E-01  6.66901886E-03  2.19074604E-01  2.13231668E-15
 -4.09327007E-02  1.45085317E-01  1.36385712E-01 -1.99141635E-01  2.85027277E-15
  2.40414777E-01 -2.65280691E-01 -2.40414777E-01  2.65280691E-01  1.11124844E-02
 -3.19252437E-02  4.24874933E-02  1.88996560E-02  9.42841209E-17 -1.32872717E-02
  4.79855438E-02 -9.75773716E-02 -1.49285017E-02  2.98274687E-16 -5.43799537E-02
  9.78919921E-02 -4.24930138E-02 -1.11124844E-02  3.19252437E-02  4.24874933E-02
  1.88996560E-02  1.19444967E-15  1.32872717E-02 -4.79855438E-02 -9.75773716E-02
 -1.49285017E-02  1.25930014E-15  5.43799537E-02 -9.78919921E-02  4.24930138E-02
 -7.51213020E-03  2.93837575E-02  1.02007839E-01  2.47430882E-01 -2.46740844E-15
  1.57592819E-02 -5.60138725E-02  9.58541366E-02 -1.52033300E-01  1.23579031E-15
 -3.69325708E-02  1.21634257E-01 -5.68533050E-02 -2.14827028E-01  2.49746655E-15
  7.51213020E-03 -2.93837575E-02  1.02007839E-01  2.47430882E-01 -8.17388749E-16
 -1.57592819E-02  5.60138725E-02  9.58541366E-02 -1.52033300E-01 -1.52308138E-16
  3.69325708E-02 -1.21634257E-01 -5.68533050E-02 -2.14827028E-01 -9.77951912E-16
 -1.19231266E-01 -7.01157265E-02  1.19231266E-01  7.01157265E-02  2.04073766E-03
 -1.70999517E-02 -1.97124165E-01  3.39360026E-02 -1.59480563E-15 -3.27209439E-04
 -1.10901432E-02 -4.27767122E-02 -2.38375856E-01 -1.16808080E-15  3.98600839E-03
  6.85969605E-02 -2.00913475E-01 -2.04073766E-03  1.70999517E-02 -1.97124165E-01
  3.39360026E-02 -3.42687741E-15  3.27209439E-04  1.10901432E-02 -4.27767122E-02
 -2.38375856E-01 -1.18824534E-15 -3.98600839E-03 -6.85969605E-02  2.00913475E-01
 -1.99054027E-02  6.60065532E-02  1.29204583E-02  1.26580156E-02 -1.17434468E-15
  2.60983999E-02 -8.78756089E-02  6.67060137E-02  1.43192673E-03 -7.52302582E-16
 -2.06958640E-02  7.64493875E-02 -1.22857029E-01  2.76947977E-02 -5.77966087E-16
 -1.99054027E-02  6.60065532E-02 -1.29204583E-02 -1.26580156E-02 -3.33531557E-16
  2.60983999E-02 -8.78756089E-02 -6.67060137E-02 -1.43192673E-03 -4.15866563E-16
 -2.06958640E-02  7.64493875E-02  1.22857029E-01 -2.76947977E-02 -8.86879714E-16
 -1.66793257E-02  1.06626849E-01 -1.66793257E-02  1.06626849E-01  2.44040370E-02
 -6.50524632E-02  7.49735495E-02 -2.81210145E-01  7.56012655E-16  7.67321280E-03
 -6.84833890E-03 -3.28428329E-01  6.48948574E-02  1.09328641E-15  1.72855535E-01
  2.43776860E-01  5.22894784E-03  2.44040370E-02 -6.50524632E-02 -7.49735495E-02
  2.81210145E-01 -1.53937900E-15  7.67321280E-03 -6.84833890E-03  3.28428329E-01
 -6.48948574E-02  1.24303870E-16  1.72855535E-01  2.43776860E-01  5.22894784E-03
 -1.90595308E-03  9.56272813E-03  1.25925476E-01 -3.93493428E-02  1.45815110E-15
  3.48770775E-02 -1.11676910E-01  1.37523145E-01  2.88751697E-01  6.11220049E-16
  7.93445728E-03 -2.07076335E-02 -2.34903118E-01  1.50679954E-01  6.27352250E-16
  1.90595308E-03 -9.56272813E-03  1.25925476E-01 -3.93493428E-02  1.04775466E-15
 -3.48770775E-02  1.11676910E-01  1.37523145E-01  2.88751697E-01  1.05833323E-15
 -7.93445728E-03  2.07076335E-02 -2.34903118E-01  1.50679954E-01  5.69914107E-16
  2.19752440E-01  2.10325295E-01 -2.19752440E-01 -2.10325295E-01 -2.13392200E-03
  2.01270929E-04 -1.37644157E-01  5.13109218E-03 -8.78025366E-17  4.89763750E-03
 -2.55442102E-02  5.07033102E-03 -1.47428290E-01 -4.41692274E-16  1.05699573E-02
  9.44013155E-03 -1.00781873E-01  2.13392200E-03 -2.01270929E-04 -1.37644157E-01
  5.13109218E-03  1.52300054E-15 -4.89763750E-03  2.55442102E-02  5.07033102E-03
 -1.47428290E-01  5.43906912E-16 -1.05699573E-02 -9.44013155E-03  1.00781873E-01
  4.89235568E-03 -1.89575899E-02 -1.30998852E-01  1.63120594E-01 -1.07128207E-14
 -1.41054502E-02  5.12884363E-02  2.37739475E-01 -4.07241788E-02 -7.65680731E-15
  9.31343663E-03 -2.98566137E-02 -2.02174584E-01 -9.05721074E-02 -6.90312262E-15
 -4.89235568E-03  1.89575899E-02 -1.30998852E-01  1.63120594E-01 -1.00264579E-14
  1.41054502E-02 -5.12884363E-02  2.37739475E-01 -4.07241788E-02 -8.92862483E-15
 -9.31343663E-03  2.98566137E-02 -2.02174584E-01 -9.05721074E-02 -8.94964393E-15
  4.89300605E-02  4.68698748E-02 -4.89300605E-02 -4.68698748E-02  1.34423602E-03
  1.55873178E-02  1.49992963E-01 -2.39766925E-01 -6.03411446E-15  2.22639874E-02
 -5.99991391E-02 -2.10406406E-01  1.60761405E-01 -3.82226872E-15  1.84401714E-01
  1.26936371E-01  8.33268439E-02 -1.34423602E-03 -1.55873178E-02  1.49992963E-01
 -2.39766925E-01 -6.55291286E-15 -2.22639874E-02  5.99991391E-02 -2.10406406E-01
  1.60761405E-01 -5.57304697E-15 -1.84401714E-01 -1.26936371E-01 -8.33268439E-02
 -2.76242045E-02  9.84119024E-02  2.22461172E-02 -9.26878486E-02  2.47331471E-15
 -1.14811294E-03  1.38049657E-02  1.21343096E-01  1.39171237E-01  4.98422251E-15
  5.53203533E-04  2.50958287E-05 -1.43994891E-01 -6.47294533E-02  6.66121588E-15
 -2.76242045E-02  9.84119024E-02 -2.22461172E-02  9.26878486E-02  4.20533368E-15
 -1.14811294E-03  1.38049657E-02 -1.21343096E-01 -1.39171237E-01  4.84688075E-15
  5.53203534E-04  2.50958287E-05  1.43994891E-01  6.47294533E-02  2.67367516E-15
  1.51981971E-01 -7.99872159E-03  1.51981971E-01 -7.99872159E-03  1.90505238E-02
 -7.81977209E-02 -7.14776463E-02  1.76440763E-01 -3.50452586E-16 -8.50184468E-03
  2.02610182E-02 -1.11959735E-01 -2.87327429E-01  2.46230160E-16 -1.83492737E-01
  1.72843869E-01 -2.74906100E-01  1.90505238E-02 -7.81977209E-02  7.14776463E-02
 -1.76440763E-01 -1.15156066E-15 -8.50184468E-03  2.02610182E-02  1.11959735E-01
  2.87327429E-01 -1.94030660E-15 -1.83492737E-01  1.72843869E-01 -2.74906100E-01
  1.55869155E-17 -1.66105316E-16 -5.02734385E-15  8.73201836E-15  3.38339446E-01
 -3.22086207E-16  6.59993766E-16  6.97405781E-15 -5.69118080E-15  2.99997718E-01
 -2.34278968E-16  1.10028369E-15 -5.03194959E-15 -5.12918236E-16  3.00206604E-01
  8.05553704E-16 -3.09925608E-15 -2.60403894E-15  3.46069202E-15  3.38339446E-01
  3.53675034E-16 -1.32076501E-15  6.83858166E-15 -7.70544013E-16  2.99997718E-01
  1.10450991E-16 -2.77461885E-16 -6.66232166E-15 -4.06534309E-15  3.00206604E-01
 -3.34243792E-15  4.98556477E-15 -1.65877761E-15 -2.07010344E-16 -4.33291138E-16
  1.96713948E-15  4.32608679E-15 -8.83280814E-15  1.58349811E-01  8.43864116E-16
 -2.51924045E-15 -4.09582750E-15  7.96429056E-15  8.35494368E-02  8.07802739E-15
  9.63883498E-16  6.03499793E-15 -1.02719068E-16 -2.85005586E-16  3.82765234E-15
 -4.58749754E-15  1.58349811E-01 -6.39584935E-16  1.82946809E-15 -6.81494348E-15
  2.48022024E-15  8.35494368E-02 -3.71596251E-15 -4.48424952E-15  6.91606129E-18
  1.20040094E-02 -5.59510068E-02 -2.77010012E-01 -7.82929806E-02 -2.30661380E-15
 -1.08300820E-02  3.60407748E-02 -1.78183865E-03 -6.72705650E-02  3.67174984E-15
  1.51992380E-02 -5.07820687E-02 -4.31258034E-02  1.38966240E-01  5.72212235E-15
 -1.20040094E-02  5.59510068E-02 -2.77010012E-01 -7.82929806E-02  2.26863014E-15
  1.08300820E-02 -3.60407748E-02 -1.78183865E-03 -6.72705650E-02  2.43525478E-15
 -1.51992380E-02  5.07820687E-02 -4.31258034E-02  1.38966240E-01 -8.37947047E-16
 -3.01224696E-02  6.10604753E-02  3.01224696E-02 -6.10604753E-02 -3.56990435E-03
  1.63887493E-02  2.06603297E-01  1.69747673E-01 -3.83949622E-15  2.63139192E-03
 -6.52621984E-03 -1.82968043E-01 -1.62945949E-01 -2.50681153E-15 -2.27194615E-01
  2.33510109E-01 -2.23970639E-01  3.56990435E-03 -1.63887493E-02  2.06603297E-01
  1.69747673E-01 -6.88324464E-15 -2.63139192E-03  6.52621984E-03 -1.82968043E-01
 -1.62945949E-01 -5.14455637E-15  2.27194615E-01 -2.33510109E-01  2.23970639E-01
  3.35315257E-03 -7.86489266E-03  1.39723403E-01 -2.84135446E-01  1.63481011E-15
  7.77442376E-03 -1.93566190E-02 -1.78926190E-01  2.38947325E-01  1.90688585E-15
 -9.07912845E-03  2.02631690E-02  1.26841674E-01 -2.41444271E-01  3.59054940E-15
  3.35315257E-03 -7.86489266E-03 -1.39723403E-01  2.84135446E-01  1.71933137E-15
  7.77442376E-03 -1.93566190E-02  1.78926190E-01 -2.38947325E-01  1.74540288E-15
 -9.07912845E-03  2.02631690E-02 -1.26841674E-01  2.41444271E-01  1.47186726E-16
  1.89345394E-01 -2.86832826E-01  1.89345394E-01 -2.86832826E-01 -7.60282764E-03
  3.87931572E-02  1.14853107E-01 -5.68206796E-02  1.24878844E-15  6.60095807E-03
 -1.61963608E-02 -5.90494276E-02  1.19371465E-01  8.33399408E-16  6.88134261E-02
  2.88148189E-02  4.88347758E-02 -7.60282764E-03  3.87931572E-02 -1.14853107E-01
  5.68206796E-02 -7.43119256E-16  6.60095807E-03 -1.61963608E-02  5.90494276E-02
 -1.19371465E-01 -1.84077138E-16  6.88134261E-02  2.88148189E-02  4.88347758E-02
 -9.19672042E-03  5.34432476E-02  2.51829819E-01  1.40650261E-01 -2.81700396E-15
 -5.55761375E-03  1.48199180E-02 -2.20177419E-01 -8.17535259E-02  3.84250865E-15
 -1.98606280E-03  8.09840112E-03  2.16232947E-01  1.70093270E-01  5.87996298E-15
 -9.19672042E-03  5.34432476E-02 -2.51829819E-01 -1.40650261E-01  2.35111995E-15
 -5.55761375E-03  1.48199180E-02  2.20177419E-01  8.17535259E-02  1.78831858E-15
 -1.98606280E-03  8.09840112E-03 -2.16232947E-01 -1.70093270E-01 -4.87511126E-16
 -1.87686673E-01 -5.09444438E-02 -1.87686673E-01 -5.09444438E-02 -2.26142162E-02
  9.42045585E-02  2.67627569E-01  1.14099929E-01 -4.35017747E-15  3.48016192E-03
 -5.84597308E-03 -1.26658884E-01 -3.66302225E-02 -3.67250540E-15 -1.70623320E-01
  1.56613277E-01 -1.17346951E-01 -2.26142162E-02  9.42045585E-02 -2.67627569E-01
 -1.14099929E-01 -6.81741155E-15  3.48016192E-03 -5.84597308E-03  1.26658884E-01
  3.66302225E-02 -5.08140912E-15 -1.70623320E-01  1.56613277E-01 -1.17346951E-01
  2.45686610E-16 -1.26301099E-15 -5.50764805E-17 -1.21681013E-15 -3.54620275E-01
 -7.83552093E-17  1.55290198E-16  1.82664924E-15  5.11345071E-16 -1.34716033E-01
 -5.88781961E-18  2.66219553E-16 -8.50500342E-16  5.62299291E-17  1.47125478E-01
  3.64348313E-16 -1.66971641E-15  3.31196367E-15  6.67084874E-16  3.54620275E-01
  1.55822404E-16 -4.56200349E-16 -8.46656857E-16  2.40107038E-15  1.34716033E-01
  3.09321337E-17 -7.80812339E-16  1.26996605E-15 -1.40589049E-16 -1.47125478E-01
  1.21013340E-15  9.60109621E-16  3.73380476E-16  2.96309173E-15 -6.68842623E-18
 -3.13611666E-16 -1.52643387E-15  1.38645584E-15  3.68391233E-01 -8.24951139E-17
  1.19282142E-17  3.23226472E-15  2.99819300E-15  2.66792266E-01  2.70606830E-15
 -3.49020961E-15  2.67109047E-15  9.20472774E-18  1.39091553E-16 -2.34712556E-16
 -1.60329925E-15 -3.68391233E-01  1.45557708E-16 -8.22132809E-16  1.95338526E-16
 -3.01983547E-16 -2.66792266E-01  3.41093517E-16  2.01939075E-16  3.99108957E-18
  3.60794495E-18 -4.24159270E-16  1.92687888E-16 -3.45735971E-15  1.22797462E-02
  9.87243455E-17  4.80454241E-16  1.86155298E-15  1.59899480E-15  1.69416700E-01
  2.72317875E-16 -4.29094700E-16 -1.78854731E-15 -1.73169880E-15  1.60552632E-01
  6.42488681E-16 -3.53645194E-15  7.03909920E-15  5.41312477E-17  1.22797462E-02
 -6.17014483E-16  1.95443993E-15 -4.51610612E-15  2.06808633E-15  1.69416700E-01
  1.94373961E-16 -1.68910515E-15  2.86437811E-15  9.72801533E-16  1.60552632E-01
  1.23306075E-15 -7.29284855E-17  1.56915649E-15  2.53683342E-15  4.27169340E-16
 -1.32290534E-15 -3.45991176E-15 -3.32072962E-15 -4.18891201E-01 -3.21910161E-16
  6.74440218E-16  5.06520544E-15  4.13179682E-15 -4.20540746E-01  5.56053626E-15
 -5.96124203E-15  6.96800506E-15  1.34555494E-16  2.41748840E-16  4.55668771E-16
 -5.70575228E-16 -4.18891201E-01  1.67221810E-16 -7.78031768E-16  2.02751977E-15
 -1.17465184E-15 -4.20540746E-01  1.07903348E-15  2.05314445E-17 -8.72160732E-17
  9.91912170E-17 -5.54467810E-16 -2.01102903E-16 -1.48501787E-15  2.16787263E-02
  8.09485866E-17  3.13296963E-16  9.86897374E-16  1.51013972E-15  4.71249211E-01
  1.06170229E-16 -2.47926664E-16 -7.60989582E-16  2.80958642E-16  4.48460646E-01
  2.06772014E-16 -1.34382192E-15  3.14852259E-15 -9.46950621E-16 -2.16787263E-02
 -9.84054086E-17  2.39705660E-16 -1.85601320E-15  4.86783237E-16 -4.71249211E-01
  4.19030982E-20 -4.24737522E-16  1.42316971E-15 -8.27589077E-16 -4.48460646E-01
  2.07866865E-16  7.95942188E-16 -3.05790907E-16  1.82109178E-15  2.82915897E-16
 -6.67091040E-16 -1.05373263E-15  1.16674134E-16  7.78591385E-04 -6.27790177E-18
 -3.94077322E-16  2.35973349E-15  1.77320607E-15  1.80795638E-02  2.19842673E-15
 -1.66676250E-15  2.87445411E-15  1.36649699E-17  2.11652029E-16  3.83833257E-16
 -1.24468618E-16 -7.78591385E-04  1.11069360E-16 -5.18166402E-16  7.55402391E-16
 -8.16340493E-17 -1.80795638E-02  5.36806723E-16 -2.64031851E-16  7.91818204E-18
 -2.60960612E-17  4.14359819E-16  1.75438189E-16 -1.38378977E-15 -3.77822843E-01
  6.11120673E-17  3.04208976E-16  5.17711420E-17 -2.99565018E-16 -1.98489012E-01
  5.24745689E-17 -1.97882367E-16 -3.65990487E-16  1.21196870E-17  2.42264887E-01
  2.76754286E-17 -1.68259579E-16  5.96709169E-16  4.54658010E-16  3.77822843E-01
 -3.37606502E-16  6.84517825E-16 -1.10280757E-15 -2.23943081E-16  1.98489012E-01
  3.14609855E-17  3.19622232E-16  4.42341090E-16 -9.99081802E-16 -2.42264887E-01
 -2.86602161E-16 -2.59308646E-16 -5.07786514E-17 -9.07485783E-16  1.07737506E-16
 -3.89113076E-16 -4.84982423E-16 -2.11691081E-15 -2.33903220E-01 -1.30526387E-16
  2.41925197E-16 -6.10360581E-17 -2.77870258E-16 -3.96444463E-01  7.12323417E-16
 -7.95240961E-16  1.69039991E-15  1.09610509E-16 -4.78127681E-16  8.26308681E-16
  9.85227271E-16  2.33903220E-01 -9.50765927E-17  5.94236455E-16  5.07020403E-17
  8.94945676E-16  3.96444463E-01 -2.53888118E-16 -7.04366125E-16 -7.53133832E-18
  2.87055127E-16 -1.10945791E-15 -5.60066273E-16 -2.52908138E-15 -4.37289572E-01
 -2.34196408E-16  1.12780263E-15  1.00510104E-15  8.60335902E-16  2.18488046E-01
 -1.93264559E-16  1.71226314E-15 -1.39644312E-15  2.39329174E-16  2.88634918E-01
  5.92712615E-16 -2.93517006E-15  1.46208857E-15 -1.96559570E-15 -4.37289572E-01
 -7.17053391E-17  2.24537518E-16 -3.69259280E-16  1.30134568E-15  2.18488046E-01
  1.42919117E-16 -1.12713382E-15 -5.69172032E-16  4.70958764E-16  2.88634918E-01
 -5.34317293E-16 -7.16093237E-16  6.56354580E-16  1.00347026E-15 -2.34476301E-17
  3.45170015E-16  5.49524761E-16  3.60450137E-16 -2.77642875E-01  3.37400581E-17
 -2.38874621E-16 -6.36631530E-17  1.58103299E-15  4.54816521E-01  1.68939114E-15
 -1.99166042E-15  1.82153662E-15 -2.96435127E-16  1.69652796E-15 -1.10099554E-17
 -1.33880679E-15 -2.77642875E-01  1.20007204E-16 -8.59249154E-16  9.04217936E-16
  4.40838327E-16  4.54816521E-01 -1.00699570E-16 -3.25709271E-16  5.15377730E-17
 -3.18834570E-17  1.43272776E-16 -1.61393369E-16 -1.12965100E-16  4.13932962E-02
  5.85562210E-17 -1.62553406E-16 -1.76820207E-16 -1.28584853E-15 -5.88709425E-01
  6.65094399E-17 -3.96022189E-16 -2.35529124E-17  6.65916383E-16  5.48649270E-01
 -3.60106179E-18 -1.51454723E-16  2.32534413E-17  7.99017771E-17  4.13932962E-02
 -5.02712266E-17  2.27719585E-16 -2.83949313E-16 -1.14937946E-15 -5.88709425E-01
  2.42088637E-17 -1.17993764E-16 -2.96512969E-16  1.15605502E-15  5.48649270E-01
  3.69304296E-16  3.64325645E-16 -4.99154802E-16  4.84429928E-17  6.73327538E-17
 -5.22080197E-16  7.63322859E-17  6.52531663E-16 -2.64064786E-04  5.80580297E-17
 -5.36375032E-16  5.08279567E-16 -2.33577541E-16 -2.40894576E-02  4.25845856E-16
  1.04901835E-15  6.71536007E-17 -3.48604733E-17  2.90340525E-16 -1.35458724E-16
  2.57009949E-16 -2.64064786E-04 -4.83581388E-17  2.87367621E-16  4.83706163E-16
 -3.48691568E-17 -2.40894576E-02 -2.79875769E-16 -2.95742521E-16 -2.26624014E-17
 -1.38780744E-16 -1.73523028E-16 -4.15894342E-16  4.89650243E-16  1.96920511E-02
 -1.12007312E-16 -5.72082665E-16 -9.88887782E-17 -5.04219997E-16 -2.21752641E-01
 -1.49751448E-16  6.94624761E-16 -2.63216499E-17  7.65421623E-16  2.12411795E-01
 -1.04844422E-16  9.00974461E-17  2.07395281E-16  1.92025082E-16 -1.96920511E-02
  7.85669997E-17  1.91184664E-16  4.23919925E-16  1.63455300E-16  2.21752641E-01
 -1.25542826E-17 -3.05404747E-17  6.66918022E-16 -2.16968394E-16 -2.12411795E-01
  4.04658328E-16 -5.96981269E-16 -1.89671342E-16  4.29055059E-16  4.59514315E-17
  3.16944254E-16 -2.82702255E-16 -1.83359032E-15 -5.35679617E-01 -6.10766659E-17
  1.45697555E-15  8.74102696E-17  1.75849023E-15  5.31943033E-01 -5.22905431E-16
 -1.44396507E-15 -1.35524273E-15 -1.17194223E-16  2.39022151E-16 -4.61438112E-16
  9.22740267E-16  5.35679617E-01  9.57476691E-17 -5.26567958E-16 -6.15148870E-17
 -1.21930869E-15 -5.31943033E-01  8.82505794E-17  8.13724455E-16 -2.13319747E-17
  1.62315822E-17  2.23375777E-16  7.05364512E-18  1.39702452E-15  5.02610601E-01
 -1.21695062E-16  3.97177491E-16 -5.41779329E-19  9.81513034E-16 -1.79013731E-01
 -1.10859833E-16  1.01555202E-15 -4.37007924E-16 -1.93883604E-16 -2.11870055E-01
 -3.30722771E-16  1.78009336E-15 -1.46421287E-15 -8.66765458E-17  5.02610601E-01
  1.44051487E-16 -8.15869783E-16 -2.86858619E-16 -1.22445095E-15 -1.79013731E-01
 -3.59137017E-16  1.89273817E-15 -2.50527084E-16 -8.32855087E-16 -2.11870055E-01
 -1.16216193E-15 -1.44454726E-15 -7.18163270E-16 -1.64870005E-15  1.56583538E-16
 -6.55639851E-16 -2.27287609E-15 -2.53532781E-15 -5.18499824E-01  1.36138884E-16
 -3.12078242E-16 -1.04955644E-15 -9.53043710E-16  3.74741350E-01 -1.70459641E-15
 -1.78100072E-15  1.79599046E-15 -1.18204163E-16  7.60366800E-16  7.27185410E-16
 -3.74996881E-16 -5.18499824E-01 -8.58322474E-17  4.21081019E-16  3.64766591E-16
  4.79005998E-16  3.74741350E-01 -1.18528751E-15 -7.84428673E-16 -6.99730503E-18
  1.84734571E-15 -1.06190958E-14 -8.98250381E-15 -3.46396604E-15 -5.49195644E-01
  1.00599916E-15 -5.57105133E-15 -5.98815233E-16 -5.61081488E-15  4.76199277E-01
  8.59386990E-16 -5.50049224E-15  2.22482047E-15 -4.86854989E-15 -4.78573254E-01
  3.39426085E-15 -1.98093586E-14  1.37555658E-14  6.72875014E-15  5.49195644E-01
  3.59690309E-16 -2.18840656E-15  1.11578171E-15  1.10336421E-14 -4.76199277E-01
  2.05444069E-15 -1.23801603E-14 -3.49003524E-15  8.71263923E-15  4.78573254E-01
  1.04330776E-14  9.60055170E-15  1.38414633E-14  1.62936283E-14 -1.91369793E-15
  1.01521012E-14  1.82218946E-14  1.13154176E-14 -2.63146211E-01  1.04744877E-15
 -5.61924248E-15  8.16223100E-15  7.86353191E-15  1.41658714E-01  9.36163285E-15
  1.57751785E-14 -1.03739860E-14 -2.00347141E-15  1.13138430E-14 -9.80679313E-15
 -3.87129386E-15  2.63146211E-01  1.39254098E-15 -8.08620498E-15 -1.71397334E-15
 -8.68400750E-16 -1.41658714E-01 -5.77427810E-16  8.18892367E-15  1.26289369E-16
  7.04117814E-02 -4.03341763E-01 -3.33000918E-01 -8.77226916E-02  2.08957956E-14
  3.26068610E-02 -1.98370344E-01 -3.64326138E-02 -2.69602701E-01 -1.69423316E-14
  4.25367030E-02 -2.55208688E-01  1.19200195E-01 -1.81953841E-01  1.49477916E-14
  7.04117814E-02 -4.03341763E-01  3.33000918E-01  8.77226916E-02 -1.70995366E-14
  3.26068610E-02 -1.98370344E-01  3.64326138E-02  2.69602701E-01  1.54526813E-14
  4.25367030E-02 -2.55208688E-01 -1.19200195E-01  1.81953841E-01 -1.78605994E-14
  4.07823195E-01  4.05378679E-01  4.07823195E-01  4.05378679E-01 -6.08868580E-02
  3.35148684E-01  3.85533831E-01  1.90133036E-01  6.60559708E-15  3.88469438E-02
 -2.21108652E-01  1.43170006E-01  9.02031723E-02 -4.79519335E-15  6.59640536E-02
  3.39666907E-01 -9.85171210E-02 -6.08868580E-02  3.35148684E-01 -3.85533831E-01
 -1.90133036E-01 -8.72089660E-15  3.88469438E-02 -2.21108652E-01 -1.43170006E-01
 -9.02031723E-02  6.51433180E-15  6.59640536E-02  3.39666907E-01 -9.85171210E-02
 -5.68903257E-02  3.22392239E-01  2.79786437E-01  2.20572860E-01  7.10631876E-15
  1.53449506E-02 -8.24398899E-02  8.04837355E-02  2.91726006E-01 -6.75867922E-15
 -3.16883851E-02  1.85867165E-01  3.78314371E-02  2.16530718E-01  4.27615476E-15
  5.68903257E-02 -3.22392239E-01  2.79786437E-01  2.20572860E-01 -5.99846127E-15
 -1.53449506E-02  8.24398899E-02  8.04837355E-02  2.91726006E-01  4.86550594E-15
  3.16883851E-02 -1.85867165E-01  3.78314371E-02  2.16530718E-01 -6.67444738E-15
 -2.65859493E-01 -2.08187343E-01  2.65859493E-01  2.08187343E-01 -2.15716036E-02
  1.14794892E-01  3.51143922E-01  2.78337264E-01  1.57153325E-15 -5.41500776E-03
  3.28301032E-02  2.06147015E-01  3.12830967E-01 -2.04697198E-15  3.13403283E-01
  2.93346155E-01 -3.81272387E-01  2.15716036E-02 -1.14794892E-01  3.51143922E-01
  2.78337264E-01 -4.07779664E-15  5.41500776E-03 -3.28301032E-02  2.06147015E-01
  3.12830967E-01  1.38755363E-15 -3.13403283E-01 -2.93346155E-01  3.81272387E-01
  4.08494577E-02 -2.26478973E-01 -4.32432896E-01  8.24838225E-02  6.37458308E-16
 -1.60352732E-02  9.67474603E-02 -2.15133473E-01  1.52847236E-01 -9.79890334E-16
 -1.03914005E-02  6.88764416E-02 -3.41312365E-01  2.66365889E-01  3.18633196E-16
 -4.08494577E-02  2.26478973E-01 -4.32432896E-01  8.24838225E-02 -1.07406615E-15
  1.60352732E-02 -9.67474603E-02 -2.15133473E-01  1.52847236E-01  4.10992703E-16
  1.03914005E-02 -6.88764416E-02 -3.41312365E-01  2.66365889E-01 -1.44925791E-15
 -1.11942698E-01 -4.62407945E-01  1.11942698E-01  4.62407945E-01  1.00248883E-01
 -5.77580311E-01 -2.72478439E-01  4.73783341E-02  8.12769379E-16 -5.74414276E-02
  3.33651856E-01 -4.15800181E-02  5.23420734E-02 -1.56090891E-15  3.11134148E-01
 -2.38244484E-01 -1.53379650E-01 -1.00248883E-01  5.77580311E-01 -2.72478439E-01
  4.73783341E-02 -3.46174565E-16  5.74414276E-02 -3.33651856E-01 -4.15800181E-02
  5.23420734E-02 -6.72105329E-17 -3.11134148E-01  2.38244484E-01  1.53379650E-01
  3.56948007E-02 -2.14549443E-01 -1.13021103E-02 -2.58242242E-02  2.96248079E-15
 -3.74050613E-02  2.29719652E-01  1.47600945E-01 -1.17607155E-02 -2.07446049E-15
 -4.42475963E-02  2.73215269E-01 -2.04000183E-01  1.51945115E-01  8.59699525E-16
  3.56948007E-02 -2.14549443E-01  1.13021103E-02  2.58242242E-02 -1.28297600E-15
 -3.74050613E-02  2.29719652E-01 -1.47600945E-01  1.17607155E-02  1.49844739E-15
 -4.42475963E-02  2.73215269E-01  2.04000183E-01 -1.51945115E-01 -1.76928091E-15
 -1.91392909E-01 -3.23607705E-01 -1.91392909E-01 -3.23607705E-01  5.46718968E-02
 -3.30278420E-01  1.51910260E-01  2.82155416E-01 -3.94907838E-16 -4.44206120E-02
  2.60680074E-01  2.67422057E-01  3.33418015E-01 -9.75285009E-16  5.18808103E-01
  1.98622125E-01 -5.05926549E-01  5.46718968E-02 -3.30278420E-01 -1.51910260E-01
 -2.82155416E-01 -1.14256240E-15 -4.44206120E-02  2.60680074E-01 -2.67422057E-01
 -3.33418015E-01  2.27881831E-15  5.18808103E-01  1.98622125E-01 -5.05926549E-01
 -7.06060389E-02  4.10281740E-01  5.11655878E-02 -1.08060494E-01  1.14846192E-15
  6.85671725E-02 -4.08372714E-01  5.35723551E-02 -1.26143130E-01 -2.22147414E-16
 -9.32258096E-02  5.65857595E-01 -1.05135296E-01  1.18683939E-02 -1.50889414E-16
  7.06060389E-02 -4.10281740E-01  5.11655878E-02 -1.08060494E-01  5.07417949E-16
 -6.85671725E-02  4.08372714E-01  5.35723551E-02 -1.26143130E-01 -7.09525337E-16
  9.32258096E-02 -5.65857595E-01 -1.05135296E-01  1.18683939E-02 -3.45397191E-16
  3.10439555E-01 -3.04746135E-01 -3.10439555E-01  3.04746135E-01 -5.77904615E-02
  3.63147348E-01  1.33534334E-01 -2.55466174E-01  7.99445494E-16 -8.01706321E-02
  5.08363987E-01 -2.09231613E-01  1.96836517E-01 -1.22200121E-15 -3.68791356E-01
 -4.05204139E-01 -3.35170104E-01  5.77904615E-02 -3.63147348E-01  1.33534334E-01
 -2.55466174E-01 -6.50567357E-16  8.01706321E-02 -5.08363987E-01 -2.09231613E-01
  1.96836517E-01  2.98054883E-16  3.68791356E-01  4.05204139E-01  3.35170104E-01
 -4.12696724E-02  2.44838315E-01  1.94741515E-01 -2.10876906E-01  1.33843436E-15
 -7.44341142E-02  4.59155948E-01 -1.33745853E-01  4.58083976E-02 -6.70156089E-16
  8.70152007E-02 -5.34330051E-01 -1.90329937E-02  4.00060351E-03  2.20690896E-16
 -4.12696724E-02  2.44838315E-01 -1.94741515E-01  2.10876906E-01 -8.45748118E-16
 -7.44341142E-02  4.59155948E-01  1.33745853E-01 -4.58083976E-02  8.81906106E-16
  8.70152007E-02 -5.34330051E-01  1.90329937E-02 -4.00060350E-03 -5.29973092E-16
 -2.53556630E-01  1.83330798E-01 -2.53556630E-01  1.83330798E-01  4.71058965E-02
 -2.96630145E-01 -1.87281278E-01  2.43600272E-01 -9.77013480E-16  9.67539410E-02
 -6.11139674E-01  1.89121421E-01 -1.73707410E-01  1.17252413E-15  3.48692977E-01
  4.39025698E-01  3.85036710E-01  4.71058965E-02 -2.96630145E-01  1.87281278E-01
 -2.43600272E-01  3.58326634E-16  9.67539410E-02 -6.11139674E-01 -1.89121421E-01
  1.73707410E-01  3.22198452E-16  3.48692977E-01  4.39025698E-01  3.85036710E-01
 -3.71118558E-02  2.29375444E-01 -1.45314327E-01 -1.55501626E-01  1.95922677E-15
  7.00538546E-02 -4.31975758E-01 -2.39124724E-01 -3.72542419E-01 -4.00725589E-16
 -1.96876624E-02  1.11449616E-01 -5.38326680E-02 -2.46397361E-01  1.05647773E-15
  3.71118558E-02 -2.29375444E-01 -1.45314327E-01 -1.55501626E-01 -6.80267461E-16
 -7.00538546E-02  4.31975758E-01 -2.39124724E-01 -3.72542419E-01  2.67259106E-15
  1.96876624E-02 -1.11449616E-01 -5.38326680E-02 -2.46397361E-01 -1.47708230E-15
  6.58457601E-01  7.82581628E-02 -6.58457601E-01 -7.82581628E-02  5.41769937E-02
 -3.43433308E-01  2.56921132E-02  1.95709507E-01  1.72482819E-16  6.95445458E-03
 -5.02941899E-02  2.96750201E-01  8.53472346E-02  3.43968866E-16  3.83729406E-01
  3.14550805E-01 -1.51866726E-01 -5.41769937E-02  3.43433308E-01  2.56921132E-02
  1.95709507E-01 -1.19682470E-15 -6.95445458E-03  5.02941899E-02  2.96750201E-01
  8.53472346E-02  7.59761717E-16 -3.83729406E-01 -3.14550805E-01  1.51866726E-01
  1.16056675E-01 -7.07672766E-01 -3.67672184E-02 -4.45706396E-02  5.34343423E-16
 -9.35815785E-02  5.87497851E-01  2.54731077E-01  9.79787519E-02 -1.12417586E-15
 -4.88135077E-02  3.07964483E-01 -2.59477056E-01 -1.95490279E-01  3.36831673E-16
  1.16056675E-01 -7.07672766E-01  3.67672184E-02  4.45706396E-02 -3.33359928E-16
 -9.35815785E-02  5.87497851E-01 -2.54731077E-01 -9.79787519E-02  2.80291541E-16
 -4.88135077E-02  3.07964483E-01  2.59477056E-01  1.95490279E-01 -9.00806310E-16
 -4.16869797E-01 -1.93890608E-01 -4.16869797E-01 -1.93890608E-01 -9.79264636E-02
  5.94843087E-01  7.84137306E-02 -1.40031770E-01  6.31155359E-16  6.25072010E-02
 -3.77850321E-01  3.45059661E-02  3.50132585E-02 -6.57919923E-17 -3.96853052E-01
  2.32587705E-01  1.71749746E-01 -9.79264636E-02  5.94843087E-01 -7.84137306E-02
  1.40031770E-01  8.30354397E-16  6.25072010E-02 -3.77850321E-01 -3.45059661E-02
 -3.50132585E-02 -4.66903009E-16 -3.96853052E-01  2.32587705E-01  1.71749746E-01
 -5.67349516E-02  3.45791457E-01 -1.39363421E-01  1.37731772E-01 -3.41454469E-16
  5.22771462E-02 -3.20894350E-01 -1.82268169E-01  1.40963280E-01 -1.94872484E-16
 -6.09914756E-02  3.75499375E-01 -1.97661288E-01  1.61553671E-01 -6.42132966E-16
  5.67349516E-02 -3.45791457E-01 -1.39363421E-01  1.37731772E-01 -4.28440676E-16
 -5.22771462E-02  3.20894350E-01 -1.82268169E-01  1.40963280E-01 -8.69750470E-17
  6.09914756E-02 -3.75499375E-01 -1.97661288E-01  1.61553671E-01 -7.00440333E-16
  7.96648288E-02 -5.03634619E-01 -7.96648288E-02  5.03634619E-01 -6.31529566E-02
  3.85984681E-01 -1.56967107E-01 -4.87419910E-02 -4.50114374E-16  1.15092962E-01
 -7.26542040E-01  8.12824249E-02 -9.84923506E-02  5.96924350E-16 -2.70676789E-01
  3.90502060E-01  4.93492572E-01  6.31529566E-02 -3.85984681E-01 -1.56967107E-01
 -4.87419910E-02  3.44250697E-17 -1.15092962E-01  7.26542040E-01  8.12824249E-02
 -9.84923506E-02 -7.30854185E-16  2.70676789E-01 -3.90502060E-01 -4.93492572E-01
  1.51826016E-02 -9.42691536E-02 -1.10403362E-02 -3.61341213E-01  2.40626801E-15
 -1.08728196E-01  6.96750075E-01 -1.76413717E-01 -1.91798843E-02 -1.18354052E-15
  1.13916890E-01 -7.32072061E-01 -1.71197416E-01 -1.01127814E-01  2.06254794E-16
  1.51826016E-02 -9.42691536E-02  1.10403362E-02  3.61341213E-01 -1.29178508E-15
 -1.08728196E-01  6.96750075E-01  1.76413717E-01  1.91798843E-02  4.88179103E-16
  1.13916890E-01 -7.32072061E-01  1.71197416E-01  1.01127814E-01 -1.57452233E-15
 -2.60631495E-01  3.69587702E-01 -2.60631495E-01  3.69587702E-01 -1.53162208E-02
  1.16994266E-01  1.10405483E-01  3.70842951E-03  9.09312550E-16 -6.72899890E-02
  4.34364780E-01 -3.37633085E-01  1.31793012E-01 -1.16261110E-15  9.50595933E-03
 -4.51813721E-01 -3.08308977E-01 -1.53162208E-02  1.16994266E-01 -1.10405483E-01
 -3.70842951E-03 -4.69652960E-16 -6.72899890E-02  4.34364780E-01  3.37633085E-01
 -1.31793012E-01  1.15181419E-15  9.50595933E-03 -4.51813721E-01 -3.08308977E-01
  9.68078214E-02 -6.52881836E-01  5.67434704E-01  1.34148370E-01  2.29049730E-16
 -2.93810816E-02  1.95774013E-01  2.09477226E-01 -4.33728674E-01  7.27649215E-16
 -5.30227926E-02  3.49410512E-01  2.54149461E-02 -4.14391455E-01  5.28803595E-16
  9.68078214E-02 -6.52881836E-01 -5.67434704E-01 -1.34148370E-01  5.51157499E-16
 -2.93810816E-02  1.95774013E-01 -2.09477226E-01  4.33728674E-01 -7.08386509E-16
 -5.30227926E-02  3.49410512E-01 -2.54149461E-02  4.14391455E-01 -9.63305198E-16
  1.80553466E-01  9.01978503E-02  1.80553466E-01  9.01978503E-02  5.74416750E-02
 -3.77782389E-01  8.29706104E-02  1.44338555E-01 -5.05671152E-16 -2.17530238E-02
  1.40454134E-01 -1.61768966E-01 -2.98500233E-01  2.60080690E-16  2.68593333E-01
 -2.47170495E-01  1.83122521E-01  5.74416750E-02 -3.77782389E-01 -8.29706104E-02
 -1.44338555E-01  7.88587595E-16 -2.17530238E-02  1.40454134E-01  1.61768966E-01
  2.98500233E-01 -5.31380547E-16  2.68593333E-01 -2.47170495E-01  1.83122521E-01
  2.26966770E-03 -2.77618478E-04  8.78269585E-02 -5.36146117E-01  1.62817392E-15
 -1.00651044E-01  6.85797501E-01  1.49778380E-02  1.45888183E-04 -5.77381956E-16
 -1.44973066E-02  1.14325550E-01 -4.79295778E-01 -2.92622817E-01  1.88323575E-17
 -2.26966770E-03  2.77618478E-04  8.78269585E-02 -5.36146117E-01  6.11302657E-16
  1.00651044E-01 -6.85797501E-01  1.49778380E-02  1.45888183E-04  4.05112233E-16
  1.44973066E-02 -1.14325550E-01 -4.79295778E-01 -2.92622817E-01 -3.22417313E-16
 -2.78203175E-01 -8.82025539E-02  2.78203175E-01  8.82025539E-02  8.20478191E-03
 -6.83308686E-02 -3.72211816E-02 -3.32138435E-01  1.21994596E-15 -1.23526134E-02
  9.67260921E-02  4.62869287E-01  1.12406098E-01  2.34707782E-18 -2.56811853E-01
  3.42160082E-01 -2.09448411E-01 -8.20478191E-03  6.83308686E-02 -3.72211816E-02
 -3.32138435E-01  1.58242970E-15  1.23526134E-02 -9.67260921E-02  4.62869287E-01
  1.12406098E-01 -5.21295787E-16  2.56811853E-01 -3.42160082E-01  2.09448411E-01
  2.45164290E-03 -1.55573228E-02  6.80745328E-02 -2.00280791E-01  7.11116713E-16
 -2.31164012E-02  1.64308848E-01 -2.67624165E-01 -6.05185880E-01  7.79413874E-16
  1.75989861E-02 -1.28922393E-01 -4.95386102E-01  4.27950116E-01 -7.83825122E-16
  2.45164290E-03 -1.55573228E-02 -6.80745328E-02  2.00280791E-01 -7.24294278E-16
 -2.31164012E-02  1.64308848E-01  2.67624165E-01  6.05185880E-01 -1.12509280E-15
  1.75989861E-02 -1.28922393E-01  4.95386102E-01 -4.27950116E-01  6.75868773E-16
  4.53707476E-01 -4.65875707E-01  4.53707476E-01 -4.65875707E-01 -3.92014517E-02
  2.76060134E-01 -1.84362476E-01  7.80670478E-02 -6.54040523E-17  4.08842540E-02
 -2.79916687E-01 -1.92096692E-01  1.05620882E-01 -4.21531327E-16 -9.60899305E-02
 -1.98277090E-02  1.27260607E-01 -3.92014517E-02  2.76060134E-01  1.84362476E-01
 -7.80670478E-02 -2.34511117E-17  4.08842540E-02 -2.79916687E-01  1.92096692E-01
 -1.05620882E-01 -5.11209909E-18 -9.60899305E-02 -1.98277090E-02  1.27260607E-01
  7.56014927E-02 -5.29645365E-01 -5.64845666E-04 -3.05586972E-01  1.01199261E-15
  2.16727841E-02 -1.47038083E-01  7.69130499E-01 -2.37592857E-01  2.98359140E-16
 -8.33549208E-02  5.82621413E-01  3.52257229E-01  3.72038039E-01 -8.40011880E-16
 -7.56014927E-02  5.29645365E-01 -5.64845666E-04 -3.05586972E-01  7.81509076E-16
 -2.16727841E-02  1.47038083E-01  7.69130499E-01 -2.37592857E-01  5.35688822E-16
  8.33549208E-02 -5.82621413E-01  3.52257229E-01  3.72038039E-01 -5.76570611E-16
  5.02181822E-02 -2.71845090E-01 -5.02181822E-02  2.71845090E-01  4.59787220E-02
 -3.15000224E-01 -7.90294259E-02 -4.40069416E-02  2.39413444E-16  2.88740675E-03
 -2.25711677E-02  2.02783355E-01 -1.06597451E-01 -5.79727581E-16  9.19876718E-02
  1.36904382E-01  1.06064428E-01 -4.59787220E-02  3.15000224E-01 -7.90294259E-02
 -4.40069416E-02  8.43910391E-17 -2.88740675E-03  2.25711677E-02  2.02783355E-01
 -1.06597451E-01  6.21659694E-16 -9.19876718E-02 -1.36904382E-01 -1.06064428E-01
 -7.18294318E-02  4.85515935E-01  8.27367827E-02 -3.26262825E-01  1.80754837E-15
 -1.10016081E-02  9.15939064E-02  5.76181504E-02  1.58712688E-01 -1.47768655E-15
 -5.98815251E-02  4.09634124E-01 -1.89288138E-01 -2.76539754E-01 -5.16885134E-17
  7.18294318E-02 -4.85515935E-01  8.27367827E-02 -3.26262825E-01  3.96046396E-16
  1.10016081E-02 -9.15939064E-02  5.76181504E-02  1.58712688E-01  1.13188380E-17
  5.98815251E-02 -4.09634124E-01 -1.89288138E-01 -2.76539754E-01 -1.34790232E-16
 -1.21107872E-01 -1.54578972E-01  1.21107872E-01  1.54578972E-01  4.25120389E-02
 -3.23088451E-01  5.11836165E-01  2.02759718E-01  9.98839598E-16 -2.20125097E-02
  1.61561976E-01 -1.40540286E-01 -6.01245394E-01  9.26396689E-16  3.37987262E-01
 -2.59833342E-01  4.15073546E-01 -4.25120389E-02  3.23088451E-01  5.11836165E-01
  2.02759718E-01  1.51248692E-15  2.20125097E-02 -1.61561976E-01 -1.40540286E-01
 -6.01245394E-01  1.01979347E-15 -3.37987262E-01  2.59833342E-01 -4.15073546E-01
  8.90586842E-03 -3.79422168E-02 -4.50097907E-01 -1.32042007E-01  1.34936801E-15
  1.88274373E-02 -1.32666099E-01  1.93419021E-01  2.10384046E-01 -1.50672170E-15
 -2.28851309E-02  1.53628911E-01  5.98075095E-02  2.96198557E-01 -1.19867533E-15
  8.90586842E-03 -3.79422168E-02  4.50097907E-01  1.32042007E-01 -2.88187428E-16
  1.88274373E-02 -1.32666099E-01 -1.93419021E-01 -2.10384046E-01  4.99136340E-16
 -2.28851309E-02  1.53628911E-01 -5.98075095E-02 -2.96198557E-01 -1.18374063E-16
 -1.50312572E-01 -2.38660722E-01 -1.50312572E-01 -2.38660722E-01 -1.93753352E-02
  1.19236464E-01  3.68173424E-01  4.61310387E-01  1.49771915E-16  1.95960571E-02
 -1.41353279E-01 -4.48677170E-01 -3.53534213E-01  5.86230203E-16  3.43777810E-01
 -3.24990752E-01  4.22003627E-01 -1.93753352E-02  1.19236464E-01 -3.68173424E-01
 -4.61310387E-01  1.81274809E-15  1.95960571E-02 -1.41353279E-01  4.48677170E-01
  3.53534213E-01 -7.73803152E-16  3.43777810E-01 -3.24990752E-01  4.22003627E-01
 -2.98189827E-03  1.28665659E-02  2.09459715E-01 -2.08892463E-01  7.08306862E-16
  1.87942989E-02 -1.36590812E-01  4.79261086E-01 -4.80950964E-02  2.01925047E-16
 -1.87550049E-02  1.35655282E-01  4.81499751E-01  8.37622824E-02 -3.97839750E-16
 -2.98189827E-03  1.28665659E-02 -2.09459715E-01  2.08892463E-01 -2.25804396E-16
  1.87942989E-02 -1.36590812E-01 -4.79261086E-01  4.80950964E-02 -2.39727379E-16
 -1.87550049E-02  1.35655282E-01 -4.81499751E-01 -8.37622824E-02  1.86464276E-16
 -1.74125761E-02  1.61857453E-01 -1.74125761E-02  1.61857453E-01 -6.16951828E-02
  4.78897920E-01 -5.24116383E-01  3.75414069E-01 -4.73285492E-16  5.89719976E-02
 -4.52114712E-01 -3.83743267E-01  5.41457990E-01 -1.24132902E-15  6.04000540E-04
 -2.63077073E-02 -1.60710924E-01 -6.16951828E-02  4.78897920E-01  5.24116383E-01
 -3.75414069E-01  1.29578752E-15  5.89719976E-02 -4.52114712E-01  3.83743267E-01
 -5.41457990E-01  3.10453230E-16  6.04000540E-04 -2.63077073E-02 -1.60710924E-01
  5.04997076E-03 -3.52607652E-02  1.26824688E-01 -4.59696372E-01  1.13196117E-15
 -4.08332835E-02  3.06211915E-01  1.33037304E-01 -1.26413706E-01 -2.25684933E-16
 -2.53168077E-02  1.92295021E-01 -1.84878785E-01 -1.34594441E-01  1.36925095E-16
 -5.04997076E-03  3.52607652E-02  1.26824688E-01 -4.59696372E-01  1.27796571E-15
  4.08332835E-02 -3.06211915E-01  1.33037304E-01 -1.26413706E-01  2.41951405E-16
  2.53168077E-02 -1.92295021E-01 -1.84878785E-01 -1.34594441E-01  5.27558169E-16
 -4.86040045E-02 -5.87643319E-02  4.86040045E-02  5.87643319E-02 -6.50786237E-02
  5.06336193E-01 -4.16005423E-01  6.63710485E-01 -1.60550953E-15  7.15350737E-02
 -5.58095379E-01 -5.42850407E-01  4.37137744E-01 -7.40651426E-16  1.93587704E-01
 -1.11311209E-01 -1.02130023E-02  6.50786237E-02 -5.06336193E-01 -4.16005423E-01
  6.63710485E-01 -3.42733132E-16 -7.15350737E-02  5.58095379E-01 -5.42850407E-01
  4.37137744E-01 -8.98963197E-16 -1.93587704E-01  1.11311209E-01  1.02130023E-02
  1.11651217E-04 -2.45833253E-03 -1.26499389E-01  7.25561450E-01 -1.52467902E-15
  1.21685204E-02 -9.32179505E-02 -5.33832091E-01  2.59832897E-01 -5.79618543E-16
 -1.29115776E-02  9.74112675E-02 -3.85768737E-01 -4.70349103E-01  8.01971530E-16
  1.11651217E-04 -2.45833253E-03  1.26499389E-01 -7.25561450E-01  1.26492920E-15
  1.21685204E-02 -9.32179505E-02  5.33832091E-01 -2.59832897E-01  5.97312799E-16
 -1.29115776E-02  9.74112675E-02  3.85768737E-01  4.70349103E-01 -8.89286574E-16
 -1.81437070E-02  3.86595370E-02 -1.81437070E-02  3.86595370E-02 -3.20017956E-02
  2.58455288E-01 -2.54691759E-01  4.53705634E-01 -6.60389990E-16  4.03662021E-02
 -3.26540852E-01 -3.14631180E-01  2.65402833E-01 -1.12130613E-15  1.63280511E-01
 -6.00059812E-02 -2.90695404E-02 -3.20017956E-02  2.58455288E-01  2.54691759E-01
 -4.53705634E-01  1.31687419E-15  4.03662021E-02 -3.26540852E-01  3.14631180E-01
 -2.65402833E-01  4.10379354E-16  1.63280511E-01 -6.00059812E-02 -2.90695404E-02
 -6.16188239E-02  4.71864472E-01 -6.40155820E-01 -1.43701744E-01  6.25391443E-17
  6.11649180E-02 -4.54055836E-01  2.06129195E-01  6.19922261E-01 -1.17096121E-15
 -6.08971611E-02  4.53276250E-01  4.35971804E-01 -5.08443537E-01  1.20307004E-15
  6.16188239E-02 -4.71864472E-01 -6.40155820E-01 -1.43701744E-01  2.17521002E-16
 -6.11649180E-02  4.54055836E-01  2.06129195E-01  6.19922261E-01 -1.16972085E-15
  6.08971611E-02 -4.53276250E-01  4.35971804E-01 -5.08443537E-01  1.19070242E-15
 -2.60785851E-01  2.85401505E-01  2.60785851E-01 -2.85401505E-01  1.25729478E-02
 -7.60878327E-02 -2.52404870E-01 -3.30234369E-02  2.06281049E-16  1.67891297E-03
 -2.19048185E-02  2.84131576E-02  1.60421519E-01 -6.80177816E-16 -3.97653462E-02
  4.47042004E-02 -1.31782641E-01 -1.25729478E-02  7.60878327E-02 -2.52404870E-01
 -3.30234369E-02  1.15839072E-17 -1.67891297E-03  2.19048185E-02  2.84131576E-02
  1.60421519E-01 -3.04373969E-16  3.97653462E-02 -4.47042004E-02  1.31782641E-01
Alpha Orbital Energies                     R   N=          60
 -9.74349510E+00 -9.74343385E+00 -9.73224724E+00 -9.73224574E+00 -9.73175186E+00
 -9.73173301E+00 -9.73057155E+00 -9.73045799E+00 -9.71621535E+00 -9.71621532E+00
 -7.43709202E-01 -6.83808736E-01 -6.51309902E-01 -6.36222823E-01 -6.03979875E-01
 -5.26569824E-01 -5.03256206E-01 -4.76365058E-01 -4.58807845E-01 -4.11987572E-01
 -3.89638418E-01 -3.62161484E-01 -3.52352051E-01 -3.49408393E-01 -3.29660698E-01
 -3.11827555E-01 -3.04205032E-01 -2.88527059E-01 -2.63606139E-01 -2.53629337E-01
 -2.40677172E-01 -2.27590076E-01 -1.82502918E-01 -1.68987989E-01 -1.34282883E-01
  1.82096908E-02  5.62368425E-02  7.69271472E-02  1.38909955E-01  2.29811253E-01
  2.72793019E-01  2.82809137E-01  3.16618620E-01  3.22056989E-01  3.61953466E-01
  3.64944294E-01  3.70889975E-01  3.92745960E-01  4.15841557E-01  4.41326742E-01
  4.82791411E-01  5.14081252E-01  5.29881208E-01  5.51802691E-01  5.67703581E-01
  5.85907498E-01  6.32341547E-01  6.81314455E-01  7.41814387E-01  7.50464886E-01
Total SCF Density                          R   N=        1830
  2.06650784E+00 -2.05554177E-01  8.47765463E-01 -1.13661845E-03  3.06956131E-02
  6.02727596E-01 -3.04597210E-04  7.15290892E-03  5.46789167E-04  6.02912507E-01
 -3.87705278E-16 -6.94369958E-18  1.00417970E-16  4.81854483E-16  7.67199960E-01
  2.59519490E-02 -6.76429074E-02  7.57334200E-02 -8.73266041E-02  2.06019061E-16
  2.06678062E+00 -6.82217997E-02  8.70603904E-02 -1.87667143E-01  2.16136313E-01
 -1.19940214E-15 -2.02305473E-01  8.28067111E-01 -7.83900046E-02  1.91941357E-01
 -1.80196376E-01  2.50915827E-01 -5.57734467E-16 -2.25183619E-03  1.20762296E-02
  6.04420264E-01  8.70756267E-02 -2.21839750E-01  2.41768387E-01 -2.49536322E-01
  1.86375058E-15 -5.23019014E-03  3.15344748E-02  8.76267018E-03  6.19264460E-01
 -8.33801356E-17 -1.23932508E-19 -4.36851464E-16  5.53939411E-17  4.73128516E-01
  1.12062314E-16  9.33763988E-16  5.98212570E-16  4.89061329E-16  7.96645531E-01
 -4.78424194E-03  1.41935035E-02 -2.07133752E-02  9.16171765E-03 -2.59434798E-16
  2.54778884E-02 -6.61996985E-02  1.14055501E-01  2.43790897E-02  2.98684357E-17
  2.06670276E+00  1.44234137E-02 -3.15195818E-02  8.08338589E-02 -2.47361644E-02
 -1.15213272E-16 -6.61646923E-02  8.14231480E-02 -2.84538542E-01 -6.78725999E-02
  1.91176007E-16 -2.01820162E-01  8.26086389E-01  2.41406509E-02 -8.54112257E-02
  8.20375340E-02 -4.67322289E-02  5.58418036E-16 -1.14289186E-01  2.87829488E-01
 -4.45554066E-01 -9.04401368E-02  1.44746799E-16  4.06612971E-03 -2.31222652E-02
  6.11972609E-01 -6.11749440E-03  3.34173548E-02 -3.13007624E-03  2.47843320E-02
 -5.48876327E-16 -2.21512374E-02  4.86615570E-02 -1.01915270E-01  6.02440031E-03
  5.23492227E-17 -4.28013288E-03  2.59411311E-02 -1.34367686E-02  6.16163209E-01
  6.40299857E-16 -5.93933828E-16  2.07012091E-16 -1.75515782E-15 -6.08830961E-02
 -7.00137570E-17  1.44711926E-15  9.27017716E-16  7.66835638E-16  5.21382480E-01
  1.36300444E-16  4.47049297E-16 -1.67514061E-16 -6.25937323E-16  7.94712570E-01
 -4.60835617E-03  1.60718182E-02 -1.36376524E-02 -3.09763718E-03  1.21639559E-16
 -4.89102166E-03  1.48734790E-02 -2.03014574E-02 -1.48036924E-02  3.09624215E-16
  2.61772533E-02 -6.90443873E-02  3.89126306E-02  1.09151666E-01 -7.69885288E-17
  2.06650784E+00  1.60718182E-02 -5.50253122E-02  5.14012297E-02  1.20733509E-02
 -3.18609449E-16  1.46065951E-02 -3.32160748E-02  6.74820212E-02  6.26882501E-02
 -1.61094239E-15 -6.83390894E-02  8.94457943E-02 -9.33353292E-02 -2.70851391E-01
 -1.40161910E-15 -2.05554177E-01  8.47765463E-01  1.36376524E-02 -5.14012297E-02
  4.43211218E-02  1.95492003E-02  9.03586462E-16  1.50560542E-02 -6.29400367E-02
  5.34353282E-02  1.55857444E-02  8.40268413E-16 -3.46424622E-02  8.46209266E-02
 -9.00043057E-03 -1.49572331E-01  4.88703314E-16  1.13661845E-03 -3.06956131E-02
  6.02727596E-01  3.09763718E-03 -1.20733509E-02  1.95492003E-02 -5.60089863E-02
 -8.40029262E-16  1.65507168E-02 -5.45133462E-02  5.99208580E-02  5.02846049E-02
 -5.49099121E-16 -1.09987915E-01  2.71928536E-01 -1.49987594E-01 -4.18128639E-01
  1.52350434E-15  3.04597210E-04 -7.15290892E-03  5.46789167E-04  6.02912507E-01
  1.95103657E-16 -5.17741319E-16  3.51246809E-16 -1.34907258E-15 -3.08702467E-01
 -1.80371174E-16  4.85616376E-16  6.00639014E-16  3.90219175E-18 -5.88026919E-02
  2.04868798E-16 -1.03595816E-16  4.59641620E-16  1.41481696E-15  4.75056223E-01
  3.80253394E-16 -1.58374204E-15  1.45398716E-15 -3.94058919E-16  7.67199960E-01
 -4.89102166E-03  1.46065951E-02 -1.50560542E-02 -1.65507168E-02 -2.56890863E-16
 -4.51430452E-03  1.55827743E-02 -3.95948257E-03 -1.24717992E-02  2.85757363E-16
 -5.27646600E-03  1.68805965E-02  2.28459433E-03 -2.44879222E-02  1.85419234E-16
  2.59519490E-02 -6.76429074E-02 -7.57334200E-02  8.73266041E-02 -5.07328438E-16
  2.06678062E+00  1.48734790E-02 -3.32160748E-02  6.29400367E-02  5.45133462E-02
  2.04106270E-16  1.55827743E-02 -5.27609617E-02  1.43140739E-02  4.64928876E-02
 -7.06986144E-17  1.68874399E-02 -4.36969878E-02 -1.74359532E-02  9.13305592E-02
 -4.87994733E-17 -6.82217997E-02  8.70603904E-02  1.87667143E-01 -2.16136313E-01
  6.59286192E-16 -2.02305473E-01  8.28067111E-01  2.03014574E-02 -6.74820212E-02
  5.34353282E-02  5.99208580E-02 -3.13515423E-16  3.95948257E-03 -1.43140739E-02
 -4.26460668E-02  3.07116505E-02 -3.46159945E-16 -7.52835927E-03  1.98731126E-02
  1.47832208E-02 -4.04641799E-02 -4.37367941E-17  7.83900046E-02 -1.91941357E-01
 -1.80196376E-01  2.50915827E-01 -1.13166079E-15  2.25183619E-03 -1.20762296E-02
  6.04420264E-01  1.48036924E-02 -6.26882501E-02  1.55857444E-02  5.02846049E-02
 -3.00120579E-16  1.24717992E-02 -4.64928876E-02  3.07116505E-02  3.28046564E-02
 -1.71386171E-16  2.33769318E-02 -9.04457766E-02  8.58861910E-03  8.97228758E-02
 -3.62162362E-16 -8.70756267E-02  2.21839750E-01  2.41768387E-01 -2.49536322E-01
  1.80326011E-15  5.23019014E-03 -3.15344748E-02  8.76267018E-03  6.19264460E-01
 -1.95890513E-16  3.94676604E-16  3.07696461E-16 -4.28487495E-16 -5.88026919E-02
  4.70823481E-17 -1.34999262E-16  1.77160955E-16 -7.14360859E-16 -3.21842934E-01
  1.53825094E-16  2.04749788E-16  9.33508253E-17 -4.88468939E-16 -5.23361070E-02
  1.97510889E-16 -2.37588756E-16 -9.39142493E-16  1.51890438E-15  4.73128516E-01
  4.15587142E-16 -1.79775683E-16  7.02751702E-17  7.27542393E-16  7.96645531E-01
  2.61772533E-02 -6.83390894E-02  3.46424622E-02  1.09987915E-01 -3.00005095E-16
 -5.27646600E-03  1.68874399E-02  7.52835927E-03 -2.33769318E-02  1.72498534E-16
 -4.48783312E-03  1.54673274E-02  8.50373100E-03 -1.00730168E-02  5.79016862E-16
 -4.78424194E-03  1.41935035E-02  2.07133752E-02 -9.16171765E-03  6.97128312E-18
  2.54778884E-02 -6.61996985E-02 -1.14055501E-01 -2.43790897E-02 -1.61146235E-17
  2.06670276E+00 -6.90443873E-02  8.94457943E-02 -8.46209266E-02 -2.71928536E-01
  1.26011551E-15  1.68805965E-02 -4.36969878E-02 -1.98731126E-02  9.04457766E-02
 -1.11534799E-15  1.54673274E-02 -5.22711839E-02 -3.12070216E-02  3.78054400E-02
 -1.52899644E-15  1.44234137E-02 -3.15195818E-02 -8.08338589E-02  2.47361644E-02
 -1.79985078E-16 -6.61646923E-02  8.14231480E-02  2.84538542E-01  6.78725999E-02
  6.72719191E-17 -2.01820162E-01  8.26086389E-01 -3.89126306E-02  9.33353292E-02
 -9.00043057E-03 -1.49987594E-01  5.71294820E-16 -2.28459433E-03  1.74359532E-02
  1.47832208E-02  8.58861910E-03 -4.80086871E-16 -8.50373100E-03  3.12070216E-02
 -8.36894204E-03 -4.92059746E-02 -9.60701627E-16 -2.41406509E-02  8.54112257E-02
  8.20375340E-02 -4.67322289E-02  2.97473746E-16  1.14289186E-01 -2.87829488E-01
 -4.45554066E-01 -9.04401368E-02 -2.25680838E-16 -4.06612971E-03  2.31222652E-02
  6.11972609E-01 -1.09151666E-01  2.70851391E-01 -1.49572331E-01 -4.18128639E-01
  2.11320617E-15  2.44879222E-02 -9.13305592E-02 -4.04641799E-02  8.97228758E-02
 -2.53618084E-16  1.00730168E-02 -3.78054400E-02 -4.92059746E-02 -1.32808401E-03
 -1.12455037E-15  6.11749440E-03 -3.34173548E-02 -3.13007624E-03  2.47843320E-02
 -4.12478053E-16  2.21512374E-02 -4.86615570E-02 -1.01915270E-01  6.02440031E-03
  1.26430777E-15  4.28013288E-03 -2.59411311E-02 -1.34367686E-02  6.16163209E-01
 -3.22808197E-16 -4.94533395E-16  4.61661284E-16  2.33784221E-15  4.75056223E-01
  3.24371136E-17 -8.34152459E-18 -2.44931814E-16 -3.70189336E-16 -5.23361070E-02
 -4.45952313E-17  2.36348726E-16  8.83226810E-16 -6.91237261E-16 -3.31107959E-01
 -1.52686766E-16  1.89147749E-16 -3.41459834E-16 -6.40214168E-17 -6.08830961E-02
  7.65355671E-17 -1.49894868E-16  1.23455847E-16  7.24647067E-16  5.21382480E-01
 -2.16507325E-16  3.14055498E-16  3.08304331E-16  3.77992229E-16  7.94712570E-01
  2.72587867E-02 -1.04417278E-01  3.25528203E-02 -1.25752181E-01  7.62089757E-16
 -1.14410142E-01  2.90915017E-01  1.73886985E-01  5.17577057E-01 -1.27999962E-15
  2.77572883E-02 -1.03571854E-01 -9.63216107E-02 -8.28103340E-02 -7.34459848E-16
 -1.89740770E-02  7.13348908E-02  3.54270414E-02  9.65430220E-02 -1.80355650E-16
 -2.25744692E-03  7.76348909E-03  4.50837583E-03  6.99684637E-03  7.67021848E-17
 -1.88473685E-02  7.13489859E-02  2.75883454E-02  9.83483763E-02  1.92808460E-16
  5.83957029E-01 -1.93196409E-02  7.33295147E-02 -6.83563235E-02  7.48192048E-02
  6.58635639E-16  2.76288802E-02 -1.03101374E-01  1.20624227E-01 -3.62355580E-02
  3.62269378E-16 -1.14791880E-01  2.91476812E-01 -3.62255585E-01  4.07778845E-01
 -7.01619947E-16  2.66394876E-02 -1.00936447E-01  1.75324954E-02 -1.27639290E-01
  9.74973073E-16 -1.89022661E-02  7.16337288E-02 -6.36448976E-02  7.84648021E-02
 -3.52934691E-16 -2.20336064E-03  7.59723411E-03 -6.78854172E-03  4.98511501E-03
 -5.16547870E-18 -7.77396504E-02  5.83952316E-01 -1.89740770E-02  7.13348908E-02
 -3.54270414E-02 -9.65430220E-02 -8.68256359E-19 -2.25744692E-03  7.76348909E-03
 -4.50837583E-03 -6.99684637E-03 -3.53653061E-16 -1.88473685E-02  7.13489859E-02
 -2.75883454E-02 -9.83483763E-02  1.95074673E-16  2.72587867E-02 -1.04417278E-01
 -3.25528203E-02  1.25752181E-01 -1.51693956E-17 -1.14410142E-01  2.90915017E-01
 -1.73886985E-01 -5.17577057E-01  5.26192095E-16  2.77572883E-02 -1.03571854E-01
  9.63216107E-02  8.28103340E-02 -4.75414697E-17  2.12657222E-02 -4.90141440E-02
  5.83957029E-01  2.66394876E-02 -1.00936447E-01 -1.75324954E-02  1.27639290E-01
 -4.45393677E-16 -1.89022661E-02  7.16337288E-02  6.36448976E-02 -7.84648021E-02
  9.64355023E-16 -2.20336064E-03  7.59723411E-03  6.78854172E-03 -4.98511501E-03
  3.65059626E-16 -1.93196409E-02  7.33295147E-02  6.83563235E-02 -7.48192048E-02
  8.38410157E-16  2.76288802E-02 -1.03101374E-01 -1.20624227E-01  3.62355580E-02
 -8.10247476E-16 -1.14791880E-01  2.91476812E-01  3.62255585E-01 -4.07778845E-01
  7.28393881E-16 -4.90141440E-02  2.07110797E-02 -7.77396504E-02  5.83952316E-01
  7.69053631E-05 -1.26569349E-04  1.17835701E-03 -4.50347555E-04  2.09950249E-16
  3.17195902E-03 -1.16318772E-02  1.58807902E-02  3.97709853E-03 -1.35489445E-16
 -5.09313973E-03  1.72957922E-02 -1.79797113E-02 -1.45733148E-02 -2.26243475E-16
  1.95288668E-02 -5.42568437E-02  9.90395466E-02  2.10901514E-02 -1.96158429E-16
 -5.72422467E-03  2.03641430E-02 -2.34296097E-02  2.87426793E-03  6.40880376E-16
  3.44859124E-03 -1.28539612E-02  1.72658172E-02  3.07860445E-03 -2.60249826E-16
  7.09657329E-03  1.32255780E-02  1.54218092E-02  6.53120717E-03  2.06754160E+00
  5.66301996E-04 -2.53088069E-03 -1.24481073E-03  2.40816178E-03  2.48257820E-16
 -1.23347715E-02  4.24398265E-02 -6.63931390E-02 -1.71783924E-02  7.17780904E-16
  1.82089095E-02 -5.53654754E-02  7.60571001E-02  5.20756192E-02  8.25771852E-16
 -5.44563993E-02  9.41630294E-02 -2.81483223E-01 -5.84078570E-02  2.31337322E-16
  2.24409086E-02 -7.36711038E-02  1.01554098E-01 -9.09013833E-03  3.23989518E-16
 -1.40381024E-02  4.95453694E-02 -7.50090938E-02 -1.26367108E-02  8.24473847E-16
 -2.97579098E-02 -5.28179715E-02 -6.19534490E-02 -2.92573337E-02 -2.07941552E-01
  8.49013660E-01 -2.25578282E-03  9.29545155E-03 -1.03243587E-02 -3.36564777E-03
 -7.08871368E-16 -1.51599078E-02  5.98412341E-02 -7.79721215E-02 -1.64343750E-02
  1.14569130E-15  1.94557126E-02 -7.13805374E-02  6.08775072E-02  7.01091935E-02
  1.76849360E-15 -9.96952720E-02  2.87091092E-01 -4.60349180E-01 -9.47588641E-02
  3.52798925E-16  2.24540556E-02 -8.48619663E-02  8.75204149E-02 -5.06500856E-02
  6.41680417E-16 -1.54757367E-02  6.20447262E-02 -7.78561251E-02 -1.50319709E-02
 -2.97648091E-17 -3.80708840E-02 -6.27743647E-02 -6.03161479E-02 -3.94062855E-02
  1.50124073E-04  3.37830936E-02  5.96239539E-01 -1.44589818E-03  6.27884204E-03
 -4.04608177E-03 -3.40052945E-03 -3.19788734E-16 -5.67589454E-03  2.48796180E-02
 -2.44596886E-02 -1.33587353E-03  1.79634057E-15  1.37426512E-02 -5.65819477E-02
  2.18320000E-02  4.22878797E-02  1.76778498E-15 -2.37359577E-02  7.90789145E-02
 -1.11409538E-01 -1.25422088E-02  4.76276809E-16 -9.04085937E-03  4.17357731E-02
 -9.89374491E-03 -1.15211078E-02  4.03155896E-16  1.82553309E-04 -2.73916395E-03
 -4.92411222E-03  3.28023523E-03 -4.78312672E-16 -1.16632853E-02 -3.05951944E-02
  3.19349509E-03 -8.19844190E-03  5.40553792E-03 -3.78696484E-02  3.40556601E-04
  6.18010759E-01 -2.73865897E-16 -5.88006293E-16 -1.68527134E-16  1.09957344E-15
  1.23679356E-02  2.00350577E-16 -1.58034761E-15  1.99109883E-17 -7.95105838E-17
 -5.25933176E-02 -7.44915176E-16  4.17651606E-16  1.49694500E-15  2.09714201E-17
 -4.36681181E-02  1.50912158E-16 -2.37267939E-17  1.60137385E-15 -2.10482401E-16
  1.81360504E-01  1.58243671E-16 -3.54573816E-16  5.04983897E-16  3.92513287E-16
 -4.12570140E-02  1.54848960E-16  3.95615732E-16  5.90457995E-16  1.24712397E-15
 -3.51975847E-02  6.51294214E-16  9.07620037E-16  1.09416481E-15  8.88625935E-16
  7.65007342E-16  2.13935716E-16 -1.55446476E-15  9.48098717E-16  7.81935848E-01
 -5.02801621E-04  2.05193841E-03 -1.90623314E-03  1.16345775E-03 -3.03159814E-17
  1.03912545E-03 -3.60704547E-03  4.12758016E-03  6.61715658E-04  3.31698392E-16
 -3.76302162E-03  1.29903778E-02 -1.22568597E-02  1.79444670E-03 -3.84053466E-17
 -4.89398705E-03  1.73347242E-02 -2.29754980E-02  4.44613705E-03  6.34060269E-16
  3.22392742E-03 -1.22957793E-02  1.03954810E-02 -5.93921775E-03  2.85385049E-16
 -1.41923829E-03  5.78707663E-03 -6.38310084E-03 -6.88084513E-04  1.50116247E-16
 -3.87895236E-04  7.55968525E-03 -3.38462957E-03 -3.23144581E-03  3.01921161E-02
 -7.70040434E-02  8.58939516E-02 -9.27230064E-02 -4.22423758E-16  2.06728534E+00
  1.92475563E-03 -7.50095481E-03  7.79919275E-03 -5.15585537E-03 -3.57229846E-17
 -4.01701186E-03  1.33724550E-02 -1.72451821E-02 -2.06461121E-03 -1.00216919E-15
  1.25763016E-02 -4.32025008E-02  4.75386023E-02 -6.81812244E-03 -1.16937825E-15
  1.40397130E-02 -4.30670371E-02  7.52105708E-02 -2.41570328E-02  1.12111978E-16
 -1.14113964E-02  3.97539006E-02 -4.15884746E-02  2.00630469E-02  4.76993339E-16
  5.35935676E-03 -2.05048448E-02  2.56408908E-02  1.50939428E-03  3.30540871E-16
  6.08535789E-04 -2.77502935E-02  1.13136230E-02  1.27715670E-02 -7.71374524E-02
  9.03230382E-02 -1.95046178E-01  2.21968510E-01 -5.39364619E-16 -2.02581907E-01
  8.22288457E-01  1.13546522E-03 -5.68741287E-03  3.33144055E-03 -7.87394623E-04
  9.68018546E-16 -1.87858067E-03  6.14858484E-03 -5.54554563E-03 -4.89086655E-03
  2.69947363E-16  1.00209346E-02 -3.90044303E-02  2.85639067E-02  9.87551679E-04
 -6.34437764E-16  2.24832473E-02 -9.47128916E-02  9.23803352E-02 -3.34442686E-04
  5.36901383E-16 -1.02639625E-02  4.26456361E-02 -2.85450691E-02  2.57301755E-02
 -1.17337136E-15  4.64854116E-03 -2.09936803E-02  1.96286927E-02  4.79202106E-03
 -1.19216986E-16  9.14328049E-04  7.28801934E-03  1.36905782E-02  1.18573154E-02
 -9.04683324E-02  2.14523867E-01 -1.85444806E-01  2.42044950E-01  4.74561656E-16
  3.41330319E-03 -3.35393361E-02  6.19723787E-01  2.62735715E-03 -1.08107369E-02
  8.49358207E-03 -1.02006169E-02  9.79516815E-16 -4.05571092E-03  1.63650218E-02
 -2.22831988E-02  6.96519290E-04 -5.93613519E-16  7.73219848E-03 -3.16182045E-02
  3.95700246E-02 -5.40112192E-02 -1.29407258E-15 -3.04547459E-03  4.40766471E-03
 -3.49509689E-02  1.11882316E-02  1.04150860E-15  9.47721528E-03 -3.71765020E-02
  3.55308641E-02 -1.79756769E-02 -1.29930178E-15 -3.38060170E-03  1.31218243E-02
 -1.88233047E-02 -2.78263030E-03 -8.94787728E-17  8.22755668E-03 -3.38253721E-02
 -1.70380010E-03 -1.15225775E-02  8.75583172E-02 -2.01334236E-01  2.51716699E-01
 -2.06570175E-01  2.27680618E-15 -3.78407764E-03  3.51630590E-02  1.33580832E-02
  6.21824756E-01 -3.28234396E-16 -5.57206353E-16 -3.60427192E-16  1.82241563E-15
  1.57343412E-01  1.03962904E-15 -1.67809498E-15  1.06273493E-16  5.97041598E-17
  1.01733387E-02 -2.96983571E-16 -3.66614144E-17  1.12837938E-15 -2.36973769E-16
 -1.82242983E-01 -5.27856050E-17  2.07759276E-15 -7.69407033E-16 -3.66491313E-16
 -6.49276655E-02  1.08235861E-15 -1.42599203E-15  6.56205598E-16 -3.00219151E-16
 -1.94901279E-01 -2.26510998E-16 -1.86575006E-16  6.64990108E-16  1.44583579E-15
  1.24956594E-02  7.12515252E-16  3.81162207E-16  8.14020878E-16  6.46905600E-16
 -7.82756586E-16  6.60935456E-16 -1.23676017E-16  2.87393762E-15  7.60837001E-01
 -5.60794159E-16  3.31564591E-16 -1.09326983E-15  5.43562007E-16  8.25016447E-01
  1.37998151E-03 -7.02515576E-03  4.26270639E-03 -6.03857562E-03 -2.63482260E-16
  7.04358079E-03 -2.89804342E-02  3.22747836E-02  9.53956556E-03  3.66307759E-16
 -1.53728859E-02  5.85484680E-02 -2.85879354E-02 -8.05232553E-02  8.60924056E-16
  2.76899848E-02 -1.13280731E-01  1.19050014E-01  7.13828337E-02  1.07931995E-15
  1.20476605E-02 -4.53984149E-02  3.55414878E-02 -1.41932357E-02 -1.36262588E-15
 -1.29171195E-03  3.19843180E-03 -3.11324124E-03  6.67577870E-03 -8.20403528E-16
  2.64065023E-02  1.41073712E-02  2.07428949E-02 -4.42173390E-03 -1.14525825E-01
  2.85860710E-01 -1.35153494E-01 -5.28748585E-01  1.52911236E-15  2.95618294E-02
 -9.79983809E-02 -2.80531248E-02  1.21999112E-01 -8.16869118E-16  5.85336363E-01
 -2.13540140E-03  9.37682765E-03 -7.11597568E-03  1.89392199E-03 -5.29909747E-16
 -2.25963543E-04  1.82702070E-03 -3.01713076E-03  4.19993034E-04  1.13299739E-15
 -4.70806507E-03  1.81555153E-02 -1.93973846E-02  2.66284622E-02  1.41109606E-15
 -2.33849943E-02  9.85426876E-02 -1.23671413E-01 -1.36374633E-02 -1.15046001E-15
  6.44421370E-03 -2.58272524E-02  2.51460898E-02 -2.60257588E-02  3.14707250E-16
 -4.56701378E-03  1.93175576E-02 -2.25983994E-02 -3.03120319E-03 -3.84815997E-16
 -8.99005153E-03 -7.93311955E-03 -1.33391598E-02 -1.43012223E-02  2.87490370E-02
 -8.99134028E-02  1.08885154E-01 -3.00079503E-02 -7.13756771E-16 -1.12613257E-01
  2.81757293E-01 -5.34575551E-01 -1.32458203E-01  1.90363237E-15 -9.38624294E-02
  5.82866626E-01  1.50038532E-03 -7.94398301E-03  1.93899663E-03 -4.21712978E-05
  7.17981234E-16  4.05873096E-04 -5.75650128E-04  8.06807800E-03 -3.37896876E-03
 -3.18139092E-16  7.31426546E-03 -2.57130664E-02  1.23074618E-02 -3.85791027E-02
 -4.22780583E-16  1.68982828E-02 -7.10500841E-02  8.56166925E-02  2.86361436E-03
  1.72662910E-15 -1.20683170E-03  1.75774199E-03 -9.16309498E-03  1.55830634E-02
 -1.19609519E-15  1.86745792E-03 -7.43930377E-03  9.59832332E-03 -7.53812015E-05
 -6.79175661E-16  9.48652855E-03  1.41450461E-02  5.97130859E-03  8.24420078E-03
  2.50567995E-02 -8.14386408E-02  3.04900366E-02 -1.19532571E-01 -2.39562778E-16
 -1.12843219E-01  2.80476213E-01  1.47770268E-01  5.30193070E-01 -2.57011004E-15
  1.47508747E-01 -1.61993604E-01  5.85970559E-01  1.95288668E-02 -5.42568437E-02
 -9.90395466E-02 -2.10901514E-02 -3.99031964E-16 -5.72422467E-03  2.03641430E-02
  2.34296097E-02 -2.87426793E-03  2.63230184E-16  3.44859124E-03 -1.28539612E-02
 -1.72658172E-02 -3.07860445E-03  6.55455786E-16  7.69053631E-05 -1.26569349E-04
 -1.17835701E-03  4.50347555E-04 -5.77170381E-16  3.17195902E-03 -1.16318772E-02
 -1.58807902E-02 -3.97709853E-03  1.36006041E-16 -5.09313973E-03  1.72957922E-02
  1.79797113E-02  1.45733148E-02  4.00050761E-16  1.54218092E-02  6.53120717E-03
  7.09657329E-03  1.32255780E-02  7.22927016E-04 -3.46148279E-03 -2.85965691E-03
 -2.32627293E-04 -4.05652668E-16  9.88890114E-05 -4.11235406E-04 -7.91460071E-05
 -1.55389435E-03  9.56930189E-18  4.90205151E-04  4.59411071E-05  8.09272302E-05
  2.06754160E+00 -5.44563993E-02  9.41630294E-02  2.81483223E-01  5.84078570E-02
 -6.13369090E-16  2.24409086E-02 -7.36711038E-02 -1.01554098E-01  9.09013833E-03
  5.94508487E-16 -1.40381024E-02  4.95453694E-02  7.50090938E-02  1.26367108E-02
  7.86748896E-16  5.66301996E-04 -2.53088069E-03  1.24481073E-03 -2.40816178E-03
 -5.53345529E-17 -1.23347715E-02  4.24398265E-02  6.63931390E-02  1.71783924E-02
 -2.96668794E-16  1.82089095E-02 -5.53654754E-02 -7.60571001E-02 -5.20756192E-02
 -1.77554677E-16 -6.19534490E-02 -2.92573337E-02 -2.97579098E-02 -5.28179715E-02
 -3.46148279E-03  1.59770026E-02  1.40714888E-02  1.36752918E-03 -3.24526043E-16
 -4.00140220E-04  1.65747787E-03  2.97381669E-04  7.16077254E-03 -1.27810949E-16
 -2.30119367E-03  2.33310394E-05 -1.45555553E-04 -2.07941552E-01  8.49013660E-01
  9.96952720E-02 -2.87091092E-01 -4.60349180E-01 -9.47588641E-02  1.27591439E-16
 -2.24540556E-02  8.48619663E-02  8.75204149E-02 -5.06500856E-02 -1.29732788E-16
  1.54757367E-02 -6.20447262E-02 -7.78561251E-02 -1.50319709E-02  6.85933620E-17
  2.25578282E-03 -9.29545155E-03 -1.03243587E-02 -3.36564777E-03  1.63791605E-16
  1.51599078E-02 -5.98412341E-02 -7.79721215E-02 -1.64343750E-02  7.37597891E-17
 -1.94557126E-02  7.13805374E-02  6.08775072E-02  7.01091935E-02 -2.08065640E-16
  6.03161479E-02  3.94062855E-02  3.80708840E-02  6.27743647E-02  2.85965691E-03
 -1.40714888E-02 -9.78304598E-03  3.03685587E-04 -7.65909663E-16  6.49232931E-04
 -2.76459240E-03 -6.10851510E-04 -8.47482912E-03 -6.76839853E-16  5.61299979E-04
  1.48490747E-03  2.43064459E-05 -1.50124073E-04 -3.37830936E-02  5.96239539E-01
  2.37359577E-02 -7.90789145E-02 -1.11409538E-01 -1.25422088E-02  4.98926677E-16
  9.04085937E-03 -4.17357731E-02 -9.89374491E-03 -1.15211078E-02 -6.83138254E-16
 -1.82553309E-04  2.73916395E-03 -4.92411222E-03  3.28023523E-03 -9.27134450E-16
  1.44589818E-03 -6.27884204E-03 -4.04608177E-03 -3.40052945E-03 -2.07613930E-16
  5.67589454E-03 -2.48796180E-02 -2.44596886E-02 -1.33587353E-03  1.37970267E-16
 -1.37426512E-02  5.65819477E-02  2.18320000E-02  4.22878797E-02 -2.27975328E-16
 -3.19349509E-03  8.19844190E-03  1.16632853E-02  3.05951944E-02  2.32627293E-04
 -1.36752918E-03  3.03685587E-04  7.08864057E-04  1.07013701E-16  5.31417267E-05
  1.13371447E-05 -2.04534694E-04 -1.72803940E-03  1.68756200E-17 -9.00190277E-04
  6.98843012E-04 -1.07222790E-03 -5.40553792E-03  3.78696484E-02  3.40556601E-04
  6.18010759E-01 -2.99200407E-17  4.84268723E-16  4.98020789E-16  1.57672195E-15
  1.81360504E-01  9.04154756E-16 -1.53294867E-15 -7.31870765E-16  1.18519798E-15
 -4.12570140E-02 -2.41760635E-16 -7.49962683E-16  4.82435180E-16  3.06902175E-16
 -3.51975847E-02 -1.69005319E-16  1.99475922E-15  1.10715757E-17 -1.06113301E-15
  1.23679356E-02 -3.37783826E-17  3.84539574E-16 -2.60187208E-16 -8.66267211E-16
 -5.25933176E-02 -3.34159367E-16  2.44253499E-15  7.36411894E-16 -2.75379385E-16
 -4.36681181E-02  8.88867499E-16  9.31905532E-16 -1.35734730E-15 -2.44923905E-15
  2.92480446E-16 -6.95344853E-16 -1.89805100E-15 -1.93344500E-15  2.02421561E-02
  7.44934078E-16  7.01422610E-17  4.43501004E-16 -3.06664842E-16 -3.27357799E-03
 -1.85053564E-15 -9.15172200E-16  7.13041579E-16  5.18973930E-16 -1.86054570E-15
  1.00294067E-15  1.89886858E-15  7.81935848E-01 -4.89398705E-03  1.73347242E-02
  2.29754980E-02 -4.44613705E-03 -1.52953902E-16  3.22392742E-03 -1.22957793E-02
 -1.03954810E-02  5.93921775E-03  8.81814831E-17 -1.41923829E-03  5.78707663E-03
  6.38310084E-03  6.88084513E-04  7.70430925E-17 -5.02801621E-04  2.05193841E-03
  1.90623314E-03 -1.16345775E-03 -3.22124673E-16  1.03912545E-03 -3.60704547E-03
 -4.12758016E-03 -6.61715658E-04 -1.41932719E-16 -3.76302162E-03  1.29903778E-02
  1.22568597E-02 -1.79444670E-03 -1.06252358E-16 -3.38462957E-03 -3.23144581E-03
 -3.87895236E-04  7.55968525E-03  9.88890114E-05 -4.00140220E-04 -6.49232931E-04
 -5.31417267E-05  6.56302109E-16 -1.96423993E-04  8.27382308E-04  4.89213974E-04
  2.40407310E-04 -2.02274541E-16 -2.15248524E-04 -5.98510107E-04  1.49996476E-04
  3.01921161E-02 -7.70040434E-02 -8.58939516E-02  9.27230064E-02 -2.67651941E-16
  2.06728534E+00  1.40397130E-02 -4.30670371E-02 -7.52105708E-02  2.41570328E-02
 -1.96549828E-16 -1.14113964E-02  3.97539006E-02  4.15884746E-02 -2.00630469E-02
 -4.92375563E-16  5.35935676E-03 -2.05048448E-02 -2.56408908E-02 -1.50939428E-03
 -1.66918344E-16  1.92475563E-03 -7.50095481E-03 -7.79919275E-03  5.15585537E-03
 -6.98180281E-17 -4.01701186E-03  1.33724550E-02  1.72451821E-02  2.06461121E-03
  3.46719548E-16  1.25763016E-02 -4.32025008E-02 -4.75386023E-02  6.81812244E-03
 -6.71626653E-17  1.13136230E-02  1.27715670E-02  6.08535789E-04 -2.77502935E-02
 -4.11235406E-04  1.65747787E-03  2.76459240E-03 -1.13371447E-05 -8.81965806E-16
  8.27382308E-04 -3.37313889E-03 -2.26369821E-03 -8.98768805E-04 -4.88973971E-16
  9.32430027E-04  2.54663748E-03 -8.51699261E-04 -7.71374524E-02  9.03230382E-02
  1.95046178E-01 -2.21968510E-01  1.49175991E-15 -2.02581907E-01  8.22288457E-01
 -2.24832473E-02  9.47128916E-02  9.23803352E-02 -3.34442686E-04 -4.45179084E-16
  1.02639625E-02 -4.26456361E-02 -2.85450691E-02  2.57301755E-02  7.15280551E-16
 -4.64854116E-03  2.09936803E-02  1.96286927E-02  4.79202106E-03  7.39390337E-16
 -1.13546522E-03  5.68741287E-03  3.33144055E-03 -7.87394623E-04 -1.19022661E-16
  1.87858067E-03 -6.14858484E-03 -5.54554563E-03 -4.89086655E-03 -6.11011133E-17
 -1.00209346E-02  3.90044303E-02  2.85639067E-02  9.87551679E-04 -7.90815044E-16
 -1.36905782E-02 -1.18573154E-02 -9.14328049E-04 -7.28801934E-03  7.91460071E-05
 -2.97381669E-04 -6.10851510E-04 -2.04534694E-04 -8.25288165E-16 -4.89213974E-04
  2.26369821E-03  7.10373716E-04  1.29412213E-03 -6.98820488E-16 -5.82302213E-04
 -1.30761671E-03 -2.02023925E-04  9.04683324E-02 -2.14523867E-01 -1.85444806E-01
  2.42044950E-01 -1.75528126E-15 -3.41330319E-03  3.35393361E-02  6.19723787E-01
  3.04547459E-03 -4.40766471E-03 -3.49509689E-02  1.11882316E-02 -2.15657893E-16
 -9.47721528E-03  3.71765020E-02  3.55308641E-02 -1.79756769E-02 -7.21935988E-16
  3.38060170E-03 -1.31218243E-02 -1.88233047E-02 -2.78263030E-03 -1.70125241E-16
 -2.62735715E-03  1.08107369E-02  8.49358207E-03 -1.02006169E-02  3.98495206E-16
  4.05571092E-03 -1.63650218E-02 -2.22831988E-02  6.96519290E-04  8.47316561E-17
 -7.73219848E-03  3.16182045E-02  3.95700246E-02 -5.40112192E-02 -1.61279657E-16
  1.70380010E-03  1.15225775E-02 -8.22755668E-03  3.38253721E-02  1.55389435E-03
 -7.16077254E-03 -8.47482912E-03 -1.72803940E-03  3.13780319E-16 -2.40407310E-04
  8.98768805E-04  1.29412213E-03 -3.43757679E-03  2.04053608E-16 -8.34675000E-05
 -1.84223482E-03  1.22953211E-03 -8.75583172E-02  2.01334236E-01  2.51716699E-01
 -2.06570175E-01  2.17850108E-15  3.78407764E-03 -3.51630590E-02  1.33580832E-02
  6.21824756E-01 -6.33357591E-16  1.58303718E-15  1.18257333E-15  1.36898011E-15
 -6.49276655E-02  4.77831999E-16 -1.26121506E-15 -1.30091676E-15 -9.35339514E-17
 -1.94901279E-01  2.13103307E-16 -1.78705740E-16  1.14233185E-15 -3.61031271E-16
  1.24956594E-02 -3.64601857E-16  2.76042768E-15 -1.27712015E-15  5.22915422E-17
  1.57343412E-01  2.18561509E-16 -8.70898103E-16 -4.92798772E-17 -1.47921532E-15
  1.01733387E-02 -4.32192455E-16  2.51606507E-15  1.30271414E-15 -1.13554249E-15
 -1.82242983E-01 -1.34932084E-16 -3.55917943E-16 -1.32587037E-15 -1.88249494E-15
 -2.40660771E-16 -4.22331281E-16 -9.71163379E-16 -1.33945826E-15 -3.27357799E-03
  4.26659414E-17  1.88174910E-16 -6.80526511E-16 -1.44036057E-15 -8.96763373E-02
 -2.52797256E-15  2.26456592E-16 -4.37692237E-16  7.71126591E-16 -1.52503196E-15
 -6.62553189E-16  3.99407935E-15  7.60837001E-01  4.33651266E-16  9.29472676E-16
 -3.88943090E-16  3.64247450E-16  8.25016447E-01  2.76899848E-02 -1.13280731E-01
 -1.19050014E-01 -7.13828337E-02  6.24430050E-17  1.20476605E-02 -4.53984149E-02
 -3.55414878E-02  1.41932357E-02  2.24854252E-16 -1.29171195E-03  3.19843180E-03
  3.11324124E-03 -6.67577870E-03  3.60210533E-17  1.37998151E-03 -7.02515576E-03
 -4.26270639E-03  6.03857562E-03  7.65943157E-17  7.04358079E-03 -2.89804342E-02
 -3.22747836E-02 -9.53956556E-03 -6.26699113E-17 -1.53728859E-02  5.85484680E-02
  2.85879354E-02  8.05232553E-02 -3.84738803E-16  2.07428949E-02 -4.42173390E-03
  2.64065023E-02  1.41073712E-02  4.90205151E-04 -2.30119367E-03 -5.61299979E-04
  9.00190277E-04  5.49778863E-16 -2.15248524E-04  9.32430027E-04  5.82302213E-04
  8.34675000E-05  5.85613201E-16  6.06028888E-04 -2.44884824E-04 -1.12924045E-05
 -1.14525825E-01  2.85860710E-01  1.35153494E-01  5.28748585E-01 -1.49438289E-15
  2.95618294E-02 -9.79983809E-02  2.80531248E-02 -1.21999112E-01 -2.01477374E-17
  5.85336363E-01 -2.33849943E-02  9.85426876E-02  1.23671413E-01  1.36374633E-02
  3.45664789E-16  6.44421370E-03 -2.58272524E-02 -2.51460898E-02  2.60257588E-02
 -1.36639643E-16 -4.56701378E-03  1.93175576E-02  2.25983994E-02  3.03120319E-03
 -5.80160978E-16 -2.13540140E-03  9.37682765E-03  7.11597568E-03 -1.89392199E-03
 -2.94184548E-16 -2.25963543E-04  1.82702070E-03  3.01713076E-03 -4.19993034E-04
  2.51340719E-16 -4.70806507E-03  1.81555153E-02  1.93973846E-02 -2.66284622E-02
  2.84963059E-16 -1.33391598E-02 -1.43012223E-02 -8.99005153E-03 -7.93311955E-03
  4.59411071E-05  2.33310394E-05 -1.48490747E-03 -6.98843012E-04  9.36428917E-16
 -5.98510107E-04  2.54663748E-03  1.30761671E-03  1.84223482E-03  1.33406655E-15
 -2.44884824E-04 -2.08527453E-03  6.64364289E-04  2.87490370E-02 -8.99134028E-02
 -1.08885154E-01  3.00079503E-02 -1.68389841E-16 -1.12613257E-01  2.81757293E-01
  5.34575551E-01  1.32458203E-01  8.61208063E-17 -9.38624294E-02  5.82866626E-01
  1.68982828E-02 -7.10500841E-02 -8.56166925E-02 -2.86361436E-03 -5.25068594E-17
 -1.20683170E-03  1.75774199E-03  9.16309498E-03 -1.55830634E-02 -5.62790904E-19
  1.86745792E-03 -7.43930377E-03 -9.59832332E-03  7.53812015E-05 -4.59506437E-17
  1.50038532E-03 -7.94398301E-03 -1.93899663E-03  4.21712978E-05  9.22558440E-17
  4.05873096E-04 -5.75650128E-04 -8.06807800E-03  3.37896876E-03 -7.16054018E-17
  7.31426546E-03 -2.57130664E-02 -1.23074618E-02  3.85791027E-02 -1.64237178E-16
  5.97130859E-03  8.24420078E-03  9.48652855E-03  1.41450461E-02  8.09272302E-05
 -1.45555553E-04 -2.43064459E-05  1.07222790E-03 -1.89912097E-17  1.49996476E-04
 -8.51699261E-04  2.02023925E-04 -1.22953211E-03  2.55608570E-17 -1.12924045E-05
  6.64364289E-04 -4.94181136E-04  2.50567995E-02 -8.14386408E-02 -3.04900366E-02
  1.19532571E-01 -1.06857025E-16 -1.12843219E-01  2.80476213E-01 -1.47770268E-01
 -5.30193070E-01  1.13063777E-15  1.47508747E-01 -1.61993604E-01  5.85970559E-01
Pure Switching                             I                1
Dipole_Data                                R   N=           3
  1.72982805E-13 -6.25545892E-13  3.69022713E-15
Quadrupole_Data                            R   N=           6
 -5.05043385E+01 -1.29235303E-01 -4.98254256E+01  1.63468166E-14 -1.89879422E-14
 -5.85982786E+01
Octapole_Data                              R   N=          10
  2.12173252E-11 -5.90416300E-12 -3.85229330E-13  3.66659301E-14 -5.45235508E-14
  9.33131752E-15  4.46380781E-15  7.97622267E-14 -2.17580489E-13  2.40407421E-15
Hexadecapole_Data                          R   N=          15
 -1.79698499E+03  1.50304255E-01 -3.56481381E+02  3.63811842E+00 -3.27531466E+02
  2.24307037E-13  2.50070501E-14 -4.45589650E-14  2.07459615E-13 -3.56717691E+02
 -7.73882686E-02 -7.21028269E+01 -9.70274657E-14  3.28962463E-13 -4.75658729E+01
