Jobname.Temp
FREQ      R                             STO-3G              
Number of atoms                            I               20
Charge                                     I                0
Multiplicity                               I                1
Number of electrons                        I               70
Number of alpha electrons                  I               35
Number of beta electrons                   I               35
Atomic numbers                             I   N=          20
           6           6           6           6           6           6
           1           1           1           1           6           6
           1           1           1           6           6           1
           1           1
Current cartesian coordinates              R   N=          60
  2.58290277E+00  5.26797819E-01 -7.59359635E-16  8.34595104E-01  2.50022004E+00
 -4.80205391E-15 -1.74784262E+00  1.97341116E+00 -4.04262387E-15 -2.58290277E+00
 -5.26797819E-01  7.59359635E-16 -8.34595104E-01 -2.50022004E+00  4.80205391E-15
  1.74784262E+00 -1.97341116E+00  4.04262387E-15  1.49330241E+00  4.47110415E+00
 -8.58735257E-15 -3.12599029E+00  3.52878408E+00 -7.22893583E-15 -1.49330241E+00
 -4.47110415E+00  8.58735257E-15  3.12599029E+00 -3.52878408E+00  7.22893583E-15
 -5.43458912E+00 -1.10885517E+00  1.59859989E-15 -7.18244858E+00  6.86446481E-01
 -2.09570409E-15 -5.90319098E+00 -3.13067751E+00  5.50345343E-15 -9.21608439E+00
  2.72072857E-01 -1.49860446E-15 -6.71384672E+00  2.70826884E+00 -6.00055767E-15
  5.43458912E+00  1.10885517E+00 -1.59859989E-15  7.18244858E+00 -6.86446481E-01
  2.09570409E-15  5.90319098E+00  3.13067751E+00 -5.50345343E-15  9.21608439E+00
 -2.72072857E-01  1.49860446E-15  6.71384672E+00 -2.70826884E+00  6.00055767E-15
Nuclear charges                            R   N=          20
  6.00000000E+00  6.00000000E+00  6.00000000E+00  6.00000000E+00  6.00000000E+00
  6.00000000E+00  1.00000000E+00  1.00000000E+00  1.00000000E+00  1.00000000E+00
  6.00000000E+00  6.00000000E+00  1.00000000E+00  1.00000000E+00  1.00000000E+00
  6.00000000E+00  6.00000000E+00  1.00000000E+00  1.00000000E+00  1.00000000E+00
Number of basis functions                  I               60
Number of contracted shells                I               30
Number of primitive shells                 I               90
Highest angular momentum                   I                1
Largest degree of contraction              I                3
Shell types                                I   N=          30
           0          -1           0          -1           0          -1
           0          -1           0          -1           0          -1
           0           0           0           0           0          -1
           0          -1           0           0           0           0
          -1           0          -1           0           0           0
Number of primitives per shell             I   N=          30
           3           3           3           3           3           3
           3           3           3           3           3           3
           3           3           3           3           3           3
           3           3           3           3           3           3
           3           3           3           3           3           3
Shell to atom map                          I   N=          30
           1           1           2           2           3           3
           4           4           5           5           6           6
           7           8           9          10          11          11
          12          12          13          14          15          16
          16          17          17          18          19          20
Primitive exponents                        R   N=          90
  7.16168370E+01  1.30450960E+01  3.53051220E+00  2.94124940E+00  6.83483100E-01
  2.22289900E-01  7.16168370E+01  1.30450960E+01  3.53051220E+00  2.94124940E+00
  6.83483100E-01  2.22289900E-01  7.16168370E+01  1.30450960E+01  3.53051220E+00
  2.94124940E+00  6.83483100E-01  2.22289900E-01  7.16168370E+01  1.30450960E+01
  3.53051220E+00  2.94124940E+00  6.83483100E-01  2.22289900E-01  7.16168370E+01
  1.30450960E+01  3.53051220E+00  2.94124940E+00  6.83483100E-01  2.22289900E-01
  7.16168370E+01  1.30450960E+01  3.53051220E+00  2.94124940E+00  6.83483100E-01
  2.22289900E-01  3.42525091E+00  6.23913730E-01  1.68855400E-01  3.42525091E+00
  6.23913730E-01  1.68855400E-01  3.42525091E+00  6.23913730E-01  1.68855400E-01
  3.42525091E+00  6.23913730E-01  1.68855400E-01  7.16168370E+01  1.30450960E+01
  3.53051220E+00  2.94124940E+00  6.83483100E-01  2.22289900E-01  7.16168370E+01
  1.30450960E+01  3.53051220E+00  2.94124940E+00  6.83483100E-01  2.22289900E-01
  3.42525091E+00  6.23913730E-01  1.68855400E-01  3.42525091E+00  6.23913730E-01
  1.68855400E-01  3.42525091E+00  6.23913730E-01  1.68855400E-01  7.16168370E+01
  1.30450960E+01  3.53051220E+00  2.94124940E+00  6.83483100E-01  2.22289900E-01
  7.16168370E+01  1.30450960E+01  3.53051220E+00  2.94124940E+00  6.83483100E-01
  2.22289900E-01  3.42525091E+00  6.23913730E-01  1.68855400E-01  3.42525091E+00
  6.23913730E-01  1.68855400E-01  3.42525091E+00  6.23913730E-01  1.68855400E-01
Contraction coefficients                   R   N=          90
  1.54328970E-01  5.35328140E-01  4.44634540E-01 -9.99672301E-02  3.99512830E-01
  7.00115471E-01  1.54328970E-01  5.35328140E-01  4.44634540E-01 -9.99672301E-02
  3.99512830E-01  7.00115471E-01  1.54328970E-01  5.35328140E-01  4.44634540E-01
 -9.99672301E-02  3.99512830E-01  7.00115471E-01  1.54328970E-01  5.35328140E-01
  4.44634540E-01 -9.99672301E-02  3.99512830E-01  7.00115471E-01  1.54328970E-01
  5.35328140E-01  4.44634540E-01 -9.99672301E-02  3.99512830E-01  7.00115471E-01
  1.54328970E-01  5.35328140E-01  4.44634540E-01 -9.99672301E-02  3.99512830E-01
  7.00115471E-01  1.54328971E-01  5.35328142E-01  4.44634542E-01  1.54328971E-01
  5.35328142E-01  4.44634542E-01  1.54328971E-01  5.35328142E-01  4.44634542E-01
  1.54328971E-01  5.35328142E-01  4.44634542E-01  1.54328970E-01  5.35328140E-01
  4.44634540E-01 -9.99672301E-02  3.99512830E-01  7.00115471E-01  1.54328970E-01
  5.35328140E-01  4.44634540E-01 -9.99672301E-02  3.99512830E-01  7.00115471E-01
  1.54328971E-01  5.35328142E-01  4.44634542E-01  1.54328971E-01  5.35328142E-01
  4.44634542E-01  1.54328971E-01  5.35328142E-01  4.44634542E-01  1.54328970E-01
  5.35328140E-01  4.44634540E-01 -9.99672301E-02  3.99512830E-01  7.00115471E-01
  1.54328970E-01  5.35328140E-01  4.44634540E-01 -9.99672301E-02  3.99512830E-01
  7.00115471E-01  1.54328971E-01  5.35328142E-01  4.44634542E-01  1.54328971E-01
  5.35328142E-01  4.44634542E-01  1.54328971E-01  5.35328142E-01  4.44634542E-01
P(S=P) Contraction coefficients            R   N=          90
  0.00000000E+00  0.00000000E+00  0.00000000E+00  1.55916272E-01  6.07683728E-01
  3.91957395E-01  0.00000000E+00  0.00000000E+00  0.00000000E+00  1.55916272E-01
  6.07683728E-01  3.91957395E-01  0.00000000E+00  0.00000000E+00  0.00000000E+00
  1.55916272E-01  6.07683728E-01  3.91957395E-01  0.00000000E+00  0.00000000E+00
  0.00000000E+00  1.55916272E-01  6.07683728E-01  3.91957395E-01  0.00000000E+00
  0.00000000E+00  0.00000000E+00  1.55916272E-01  6.07683728E-01  3.91957395E-01
  0.00000000E+00  0.00000000E+00  0.00000000E+00  1.55916272E-01  6.07683728E-01
  3.91957395E-01  0.00000000E+00  0.00000000E+00  0.00000000E+00  0.00000000E+00
  0.00000000E+00  0.00000000E+00  0.00000000E+00  0.00000000E+00  0.00000000E+00
  0.00000000E+00  0.00000000E+00  0.00000000E+00  0.00000000E+00  0.00000000E+00
  0.00000000E+00  1.55916272E-01  6.07683728E-01  3.91957395E-01  0.00000000E+00
  0.00000000E+00  0.00000000E+00  1.55916272E-01  6.07683728E-01  3.91957395E-01
  0.00000000E+00  0.00000000E+00  0.00000000E+00  0.00000000E+00  0.00000000E+00
  0.00000000E+00  0.00000000E+00  0.00000000E+00  0.00000000E+00  0.00000000E+00
  0.00000000E+00  0.00000000E+00  1.55916272E-01  6.07683728E-01  3.91957395E-01
  0.00000000E+00  0.00000000E+00  0.00000000E+00  1.55916272E-01  6.07683728E-01
  3.91957395E-01  0.00000000E+00  0.00000000E+00  0.00000000E+00  0.00000000E+00
  0.00000000E+00  0.00000000E+00  0.00000000E+00  0.00000000E+00  0.00000000E+00
Coordinates of each shell                  R   N=          90
  2.58290277E+00  5.26797819E-01 -7.59359635E-16  2.58290277E+00  5.26797819E-01
 -7.59359635E-16  8.34595104E-01  2.50022004E+00 -4.80205391E-15  8.34595104E-01
  2.50022004E+00 -4.80205391E-15 -1.74784262E+00  1.97341116E+00 -4.04262387E-15
 -1.74784262E+00  1.97341116E+00 -4.04262387E-15 -2.58290277E+00 -5.26797819E-01
  7.59359635E-16 -2.58290277E+00 -5.26797819E-01  7.59359635E-16 -8.34595104E-01
 -2.50022004E+00  4.80205391E-15 -8.34595104E-01 -2.50022004E+00  4.80205391E-15
  1.74784262E+00 -1.97341116E+00  4.04262387E-15  1.74784262E+00 -1.97341116E+00
  4.04262387E-15  1.49330241E+00  4.47110415E+00 -8.58735257E-15 -3.12599029E+00
  3.52878408E+00 -7.22893583E-15 -1.49330241E+00 -4.47110415E+00  8.58735257E-15
  3.12599029E+00 -3.52878408E+00  7.22893583E-15 -5.43458912E+00 -1.10885517E+00
  1.59859989E-15 -5.43458912E+00 -1.10885517E+00  1.59859989E-15 -7.18244858E+00
  6.86446481E-01 -2.09570409E-15 -7.18244858E+00  6.86446481E-01 -2.09570409E-15
 -5.90319098E+00 -3.13067751E+00  5.50345343E-15 -9.21608439E+00  2.72072857E-01
 -1.49860446E-15 -6.71384672E+00  2.70826884E+00 -6.00055767E-15  5.43458912E+00
  1.10885517E+00 -1.59859989E-15  5.43458912E+00  1.10885517E+00 -1.59859989E-15
  7.18244858E+00 -6.86446481E-01  2.09570409E-15  7.18244858E+00 -6.86446481E-01
  2.09570409E-15  5.90319098E+00  3.13067751E+00 -5.50345343E-15  9.21608439E+00
 -2.72072857E-01  1.49860446E-15  6.71384672E+00 -2.70826884E+00  6.00055767E-15
Orthonormalization Matrix                  R   N=        1830
 -1.42430198E-02  9.73836206E-03  1.25062734E-16 -1.00087134E-02 -4.40474891E-04
  1.10967790E-16 -5.25422233E-16  1.75600054E-17 -3.68396994E-05 -3.61631840E-03
  1.64983988E-17  6.55189307E-06 -1.77704424E-02  6.14887082E-03  5.17433867E-17
  4.97382653E-04 -2.12431275E-02 -1.36533925E-03 -8.59079505E-17  2.72274583E-02
 -9.26306782E-04 -3.14429833E-04 -8.59751749E-18  8.03071696E-18 -5.13295342E-17
 -7.42767498E-04  2.55566903E-03  4.04416578E-03  1.98038558E-03  3.47294378E-17
  5.80673067E-17  1.12607073E-02 -1.37876067E-16  3.78375334E-03  1.75896798E-04
  1.98778423E-02  2.18938432E-18  9.78802397E-18 -5.31954735E-03  7.44423363E-17
 -4.31784225E-16  1.01831245E-16 -1.82191071E-02  4.73609548E-18 -2.33650948E-03
 -1.22453170E-03  1.92669305E-02  6.24452569E-03  1.03671375E+00 -5.00120427E-17
  6.84550704E-17 -1.09888083E-16 -7.97931253E-04 -9.86286965E-17  4.10805287E-04
  0.00000000E+00 -6.97001263E-04  1.29631121E-03  1.45506106E-17 -5.95740671E-17
 -3.04961374E-03  3.57678062E-17 -7.30543415E-03  1.31298446E-18  2.23968379E-17
  1.09356009E-16 -1.00293999E-03  3.85274528E-04 -1.22889901E-02  1.05520839E-04
 -6.85579264E-06 -1.34484000E-03 -5.24085932E-18  2.70506041E-02  2.70351666E-02
  4.21193180E-05 -8.80327922E-04  9.77655875E-17  4.20173105E-04 -5.95740671E-17
 -3.02719877E-01 -2.89115854E-16  1.05981640E-03  1.92669305E-02 -3.04757699E-01
 -3.02719877E-01 -7.05824208E-04 -9.30336937E-02 -6.95660658E-04  2.78746179E-04
  7.00469140E-03  6.45205842E-03  5.15382366E-02 -6.88658386E-04  1.20026796E-17
  9.58476679E-03 -2.26853487E-17  3.07286916E-01  5.87280091E-04 -2.99977798E-01
  5.68233839E-02  4.30193011E-17  4.18894771E-03 -1.34484000E-03 -3.31767937E-03
  6.54870827E-17  3.29940236E-03 -1.93551865E-04 -1.55898106E-04  4.68780493E-16
 -8.00828938E-04  2.20618014E-06  5.11767196E-16 -1.79207098E-16 -3.10883500E-17
 -5.55500239E-17  4.41777969E-04 -8.83193013E-04 -1.79145688E-18  2.27915121E-16
  0.00000000E+00  3.05011237E-01  1.05672187E-01 -1.93551865E-04  1.01669357E-16
  0.00000000E+00 -4.32087810E-03  1.32847503E-04  2.44978733E-03 -3.70704004E-03
 -2.04673209E-02  5.87280091E-04  1.25909466E-03  5.96755777E-18 -5.19568080E-03
  3.95947114E-03 -1.61158148E-02 -8.82366454E-04 -1.21887545E-03 -1.01883302E-04
 -8.73744395E-06  4.67492296E-04 -2.94372010E-04  1.35826852E-16  1.34417171E-04
  3.02867977E-05 -8.36379649E-04  3.40169819E-04 -1.55651790E-02  3.29940236E-03
 -7.93304108E-17  3.51233042E-16  5.39613573E-17 -2.08352131E-01 -3.04764220E-01
 -1.50296451E-02  2.40506066E-03 -6.57933246E-03 -1.39177609E-04  2.72274583E-02
 -3.40361146E-01 -4.29817525E-05 -1.57749434E-03 -9.43580567E-05  2.96552575E-01
 -6.81520192E-02  1.39945884E-16  1.30547032E-01 -7.56861666E-17  7.39088371E-18
 -3.04961374E-03 -7.55618606E-05  5.23795377E-17  2.66209317E-03 -5.05946579E-04
  1.23870375E-02  2.02178382E-02 -7.56180560E-03  2.49548871E-03 -7.02932935E-04
  1.31298446E-18  7.22101116E-17  8.11020756E-02  7.89645463E-17  2.50077900E-01
 -1.19558721E-01  4.91096553E-17  6.43872407E-03  1.98035856E-03  2.72702729E-16
  2.45373132E-18  3.34230014E-01  1.32946292E-03  3.46208952E-17 -3.74238495E-16
  5.62927703E-17 -2.72107082E-03 -2.12205387E-03 -5.37351051E-17  5.23795377E-17
  2.72357876E-02 -1.10094281E-16 -7.83888161E-16  1.00666911E-16 -1.20644455E-04
 -1.20644455E-04 -1.36533925E-03 -1.47388276E-16 -1.47371463E-17 -8.23994801E-17
  0.00000000E+00  3.66497244E-03  1.63337237E-03  2.72107082E-03  8.03071696E-18
  0.00000000E+00  8.68662787E-02  4.00950720E-03  6.52854143E-03  1.13175918E-16
  0.00000000E+00  1.54282361E-04  8.00525226E-04 -1.92523678E-17  2.22618434E-17
 -2.74812247E-17 -2.04673209E-02 -4.72787286E-05 -1.13661452E-16  3.27521738E-17
  1.06957709E-02 -2.41864667E-03  4.85454834E-04 -4.00950720E-03  2.26239833E-04
  4.10742509E-05  2.74855981E-01  3.82945798E-04 -3.27818454E-03  3.81888626E-05
 -1.42430198E-02  1.85104266E-04  3.09094555E-17  2.70357797E-02  7.95247205E-04
 -3.79330937E-05 -3.19107488E-04  6.53968284E-17 -1.30267361E-03 -3.14873706E-03
  1.04898595E-04  7.20583123E-03 -4.21223788E-17  4.67536216E-17  4.44263061E-18
  1.61428040E-04  6.10941874E-04  2.94372010E-04 -4.17237247E-16 -3.95347871E-16
 -3.66497244E-03  1.54282361E-04 -3.83447021E-04  1.82401123E-02  1.57749434E-03
 -2.06381851E-16 -1.55776724E-03 -6.97001263E-04  1.77704424E-02 -4.01305520E-03
  3.98292790E-02 -2.48401589E-03  2.63853033E-03  6.45205842E-03 -2.93798266E-04
  3.29359122E-04 -3.34230014E-01  1.27515990E+00 -9.23012535E-05  7.56312213E-17
  6.45205842E-03 -3.11315884E-17  2.74855981E-01  1.23309252E-02  1.62915553E-02
  1.05672187E-01  9.58476679E-03 -1.09216829E-02  1.11350764E-01  4.20173105E-04
 -4.78617724E-03 -3.47146439E-17  1.26132628E-02  1.09977004E-02  6.45205842E-03
  1.26390212E+00 -1.13275912E-01 -1.28555169E-03  3.09698548E-04  3.67450530E-03
 -1.08016280E-16 -2.44978733E-03  1.12240334E-04  6.15315027E-03 -2.06381851E-16
 -1.37281232E-16 -1.46570724E-02  5.70635837E-05 -3.70704004E-03  1.48048780E-16
  2.23968379E-17  1.25466983E+00  1.38956909E-03 -3.42727726E-04  6.24452569E-03
 -7.61425173E-04 -1.02604641E-02  1.45506106E-17 -4.31784225E-16 -5.55187711E-17
  1.58499337E-17 -1.98038558E-03 -6.09484550E-03 -3.55761164E-17  7.20354069E-17
 -6.43872407E-03 -3.17320074E-04  5.26618865E-03  4.63443297E-17 -1.56631445E-02
  0.00000000E+00 -2.20063229E-03  1.33211311E-03 -1.30267361E-03 -8.88480884E-17
  0.00000000E+00 -6.41496437E-03 -3.59632100E-16 -5.02606718E-16 -9.11681957E-18
  0.00000000E+00 -8.14023598E-17 -2.10116690E-04  2.63853033E-03  6.15315027E-03
  3.79494874E-04  1.98035856E-03  1.02604641E-02  4.44263061E-18 -1.05981640E-03
  5.19364053E-03  3.68396994E-05 -7.86066353E-18 -5.19092173E-03  1.61158148E-02
 -2.41516969E-05 -1.17046685E-16  1.83628814E-17 -1.22453170E-03  2.58960926E-02
 -1.68592897E-04  1.40075944E-02  6.01899668E-17  3.10163712E-04  1.90016618E-04
  4.85454834E-04 -3.77240609E-04 -2.57454879E-04  1.08892439E-02 -1.80989852E-04
  6.90266010E-17 -3.09698548E-04 -3.23895897E-17 -1.22275698E-03 -1.21887545E-03
  5.13973888E-05 -5.31954735E-03  7.60075749E-17 -8.82483787E-18  1.01013387E-01
 -3.05011237E-01  3.80985449E-04 -9.29956075E-02 -1.11350764E-01 -1.06014817E-02
  5.10530629E-02  1.42716552E-03 -1.00293999E-03  1.25466983E+00  1.71674480E-02
  2.23441197E-04  1.16154526E-16 -1.52153217E-02 -1.35488529E-04  4.78617724E-03
  2.70351666E-02 -1.53937994E-03 -2.41864667E-03 -1.01756054E-03  2.72357876E-02
  2.70332976E-02 -1.02541820E-03  5.19568080E-03 -1.52153217E-02 -7.24710979E-04
  5.96755777E-18  6.24452569E-03  2.74855981E-01 -3.17320074E-04  1.24005910E-01
  8.68662787E-02  6.03486543E-03 -2.26853487E-17 -1.33211311E-03  2.10116690E-04
  8.82366454E-04  3.73549334E-17 -8.00525226E-04  1.35488529E-04 -2.96003238E-17
  5.10530629E-02 -4.01305520E-03  2.02830112E-01 -1.82401123E-02  1.29631121E-03
  6.03486543E-03  6.01899668E-17 -1.61161955E-02  8.36379649E-04  1.56631445E-02
 -3.27818454E-03  5.71583350E-17  4.63443297E-17 -1.33162400E-04  9.73836206E-03
 -1.22275698E-03  1.82356175E-04 -1.10327174E-16 -1.06683380E-16  6.65544785E-18
 -1.13275912E-01 -7.56180560E-03  1.48430797E-04 -2.28410246E-16 -7.56861666E-17
  1.42999321E-18  2.97015520E-17  2.25670853E-04 -3.44135820E-17 -1.13275912E-01
 -2.38310126E-17 -3.74238495E-16 -7.55618606E-05 -1.56904849E-04 -1.35298434E-18
  3.33215152E-04 -1.31844132E-04 -1.57158882E-16  7.49065583E-18 -1.03673198E-16
 -1.03176098E-16  4.72787286E-05  5.26618865E-03 -3.70303746E-03 -1.37014002E-17
  5.11767196E-16 -1.75526832E-01  1.75896798E-04  7.26358767E-16 -1.02541820E-03
  6.80991116E-17  2.70612225E-16 -1.56631445E-02 -2.74812247E-17  1.80451296E-16
  2.70506041E-02  3.14873706E-03 -1.01397222E-05 -4.18522099E-03 -3.80985449E-04
 -1.90842720E-02 -1.83982598E-04  6.81520192E-02 -6.98656970E-04  9.30336937E-02
  2.72274583E-02  5.15382366E-02  2.66209317E-03  1.55898106E-04  3.12833205E-04
 -9.07380373E-03  6.95660658E-04 -7.00469140E-03 -1.12607073E-02 -2.77700184E-03
  2.99461024E-03 -6.54520101E-02  2.37836976E-04  3.05011237E-01 -2.00136904E-03
 -5.19568080E-03 -9.30336937E-02  1.55167823E-17 -1.06195679E-16 -1.01013387E-01
  8.32050801E-17 -1.16478419E-05  2.33164222E-01  1.24005910E-01  1.97845713E-17
 -2.82300352E-18  1.62915553E-02  2.70351666E-02  4.64979917E-04  4.30193011E-17
  1.07191510E-03 -5.09318740E-03  8.01089411E-04 -1.30710722E-17 -1.60450226E-16
  1.26667953E+00 -1.23870375E-02 -1.71674480E-02 -4.95643845E-04 -1.62418228E-02
  3.28797141E-17  5.15382366E-02  2.53981189E-02 -6.44360310E-03  1.04898595E-04
 -1.10127923E-16  9.36263173E-17 -9.29956075E-02 -1.22453170E-03 -2.15228404E-01
 -1.93530304E-04 -8.47018577E-04  4.00078485E-17 -2.91686736E-17  4.15535048E-18
 -1.98778423E-02  1.27806953E-02  3.57755952E-02 -2.99977798E-01  1.02941817E+00
  2.78746179E-04 -2.96552575E-01  3.32326615E-05 -7.77131493E-05 -1.00087134E-02
 -5.25422233E-16  1.40118171E-16 -5.42994654E-17 -4.18889713E-17 -2.77700184E-03
 -4.40474891E-04  3.82945798E-04  7.05824208E-04  1.78917245E-04  2.28421707E-01
 -1.10327174E-16 -1.40075944E-02 -1.61158148E-02  7.24710979E-04  2.72357876E-02
  1.50199273E-03  6.01300569E-04  2.59783931E-02  2.70332976E-02  3.33022880E-04
  1.26132628E-02  1.09216829E-02  1.27515990E+00 -3.91265795E-04  2.03221678E-16
  3.53272295E-04  3.74955776E-03  3.14795600E-04 -3.02719877E-01 -8.42560439E-03
  1.01831245E-16 -3.04757699E-01 -3.29940236E-03  2.93798266E-04 -3.04757699E-01
 -2.24264252E-03 -4.23565949E-05 -2.48977939E-02  2.99977798E-01  1.06304454E-17
  1.05875916E-17 -2.10155142E-01  6.59586660E-04  2.09026718E-01  1.24005910E-01
  0.00000000E+00 -1.55651790E-02  6.57886807E-03 -1.13995253E-01  2.70357797E-02
  0.00000000E+00  1.54933750E-02 -1.90795139E-02  4.69115990E-17 -5.69609999E-17
  0.00000000E+00 -2.02830112E-01 -2.49548871E-03  1.56904849E-04  4.46612178E-17
 -1.26977775E-05 -5.68233839E-02 -6.55189307E-06  4.65039958E-03 -1.35298434E-18
  0.00000000E+00  1.23124075E-16  6.89867743E-03 -8.52856058E-05 -6.18929977E-17
  0.00000000E+00  1.05964545E-03 -4.14868628E-02 -8.06217335E-17 -3.74787405E-17
 -2.81112574E-17  5.62955405E-19 -2.75766836E-06  2.72357876E-02 -9.05398144E-04
 -1.06631495E-02  1.22930373E-03  2.30229203E-01  1.40237216E-03 -7.77131493E-05
 -5.51259813E-17 -2.08352131E-01 -2.99461024E-03  2.24346400E-16 -1.24591401E-04
 -1.14328495E-03 -2.60401721E-04 -1.61161955E-02  5.10484726E-04 -3.14082265E-03
  3.27818454E-03  9.92194275E-17  3.83447021E-04  2.77700184E-03 -1.83982598E-04
  1.53937994E-03 -1.24604362E-04 -1.32327368E-03 -1.19675891E-06 -5.77841233E-18
 -1.85431376E-04  6.46008247E-17 -1.79145688E-18 -9.42028751E-04  1.50216665E-03
  3.02867977E-05  1.30267361E-03 -1.24480514E-04  1.49167058E-16 -1.09977004E-02
 -5.66162885E-17 -1.74194257E-02  9.62791154E-04 -7.61425173E-04 -5.23203530E-04
  4.14868628E-02 -2.46620385E-16 -7.86852761E-03  2.50077900E-01  1.05672187E-01
 -8.58419946E-04  4.32773296E-17  2.33027213E-01 -4.32087810E-03  1.85104266E-04
 -1.08016280E-16 -3.23767909E-16 -2.11306804E-02 -3.57755952E-02  3.12203508E-04
 -2.30776107E-02  6.88658386E-04  4.49363575E-03 -3.49979152E-04  1.78555308E-04
 -7.90025723E-17  3.01684858E-03  1.26168786E-04 -2.38310126E-17 -5.92431463E-16
 -9.86286965E-17  3.20487351E-05  5.07839095E-05 -1.84362001E-06  5.10484726E-04
  4.49363575E-03  4.64979917E-04  3.78375334E-03 -2.52840187E-16 -2.01174641E-03
  1.04506449E-05 -7.29703987E-19  3.27521738E-17 -2.96003238E-17 -1.41449552E-16
  4.02198905E-05 -5.51259813E-17 -7.89125045E-16  1.01523103E-16 -3.05011237E-01
 -1.86768100E-16  8.00828938E-04 -2.08352131E-01  1.28475717E-16  1.26667953E+00
  4.26076877E-04 -1.52153217E-02  1.26132628E-02 -5.70635837E-05  1.71674480E-02
  1.41446710E-16  2.52384708E-04  2.63853033E-03 -3.79160195E-03  6.03543825E-04
  2.74970105E-04  1.17557073E-04  6.15315027E-03 -5.68233839E-02 -3.42505638E-01
 -3.44322219E-04 -3.02719877E-01 -8.87996795E-17 -1.00087134E-02 -2.33164222E-01
 -2.55566903E-03 -1.52105180E-17 -2.18023280E-17 -7.31122590E-17  6.41415237E-18
  7.17455092E-17  2.99819897E-18 -5.26646335E-16 -7.79294289E-18  5.78411311E-03
  3.73444237E-17 -5.22383076E-17  8.47018577E-04 -8.95571189E-17 -1.92523678E-17
 -2.71720827E-17  1.23870375E-02  1.01756054E-03  1.87944228E-16  9.78802397E-18
  8.53231382E-17  8.20595439E-17  1.00666911E-16 -9.62690058E-04 -2.79185231E-17
  1.35826852E-16 -8.68376393E-02  1.04762744E+00  6.14887082E-03  1.83565948E-16
 -3.05918304E-17 -2.09682703E-02  1.61161955E-02  2.74855981E-01  3.81347082E-04
  6.13542869E-18  2.65949432E-01 -1.25909466E-03 -1.69662038E-16 -6.78484800E-16
  0.00000000E+00 -9.67333652E-05  5.70965948E-17 -3.66291578E-17  9.26306782E-04
  0.00000000E+00 -7.83888161E-16  2.99226841E-17 -1.90061094E-17  1.02941441E+00
  0.00000000E+00  3.83447021E-04  6.63838960E-03  1.03668302E+00  3.79494874E-04
  0.00000000E+00  2.23441197E-04  7.02932935E-04  1.32946292E-03  7.44423363E-17
  0.00000000E+00 -1.82191071E-02  1.22130205E-04 -9.18225579E-18 -3.51148202E-17
  0.00000000E+00  2.74970105E-04 -4.17237247E-16  1.25471700E-17  1.61161955E-02
  1.47050232E-04 -2.03537730E-04  1.40118171E-16  2.45431750E-06  2.70357797E-02
  3.92382632E-05  7.97931253E-04  6.46553275E-16 -3.74955776E-03  1.06304454E-17
  6.94029312E-06  6.54520101E-02 -3.04764220E-01  3.79494874E-04 -1.47371463E-17
  1.30547032E-01  4.18894771E-03  6.61515887E-02  1.06297950E-04  4.23565949E-05
  6.03486543E-03 -1.34534233E-03  2.38107321E-04 -1.22333258E-05  6.47300405E-17
  1.39354748E-16 -9.62791154E-04  1.02941441E+00 -3.46889200E-04 -6.26500231E-05
 -1.98778423E-02 -2.09026718E-01 -2.18771951E-02  3.67168890E-03  3.04693787E-16
  3.71848636E-04 -1.75299185E-01 -1.41736028E-16 -2.39411715E-01  6.43872407E-03
 -1.02082339E-03  3.81347082E-04  1.27468445E-16 -7.29703987E-19 -3.33261641E-05
 -4.47746040E-17 -2.60401721E-04  1.02941817E+00  3.15365731E-06 -4.26076877E-04
 -6.14706342E-16 -1.30710722E-17 -2.20476446E-04 -4.81440323E-02  6.44360310E-03
  6.01300569E-04  6.06154766E-04  2.45096803E-02 -9.18955590E-03 -1.82191071E-02
 -8.95345647E-02 -8.00828938E-04  1.54849808E+00 -1.79869423E-17  3.77240609E-04
 -2.30776107E-02 -5.78281885E-17 -4.18522099E-03  5.68233839E-02 -8.95410240E-04
 -6.41496437E-03  2.54411008E-17 -1.05964545E-03 -2.96552575E-01  2.33027213E-01
 -1.41042865E-02  4.45034693E-16 -1.75587651E-02 -2.10155142E-01 -3.25682510E-05
  1.48153200E-17 -2.33027213E-01  2.41516969E-05  6.81520192E-02 -2.60401721E-04
  8.83193013E-04  3.82945798E-04 -1.75526832E-01 -3.08074223E-05 -1.55078837E-04
 -1.34534233E-03 -9.72348704E-05 -3.32276443E-03 -3.99382194E-05  3.23957482E-04
 -8.99559571E-05 -7.23389576E-05 -5.19364053E-03  2.19933771E-18  2.24515049E-05
 -1.22130205E-04  1.27468445E-16  6.46008247E-17  1.61300449E-16 -1.06683380E-16
  3.91265795E-04 -1.06631495E-02 -4.00950720E-03  2.12205387E-03  2.92941107E-16
  5.28790273E-03 -1.32847503E-04  1.30267361E-03  2.14534965E-17  6.15260451E-04
 -4.46306405E-16 -1.07241934E-16  7.26358767E-16 -1.66887117E-17  2.86797268E-05
 -3.55689943E-17  1.08017415E-07  5.89434474E-05  1.42430198E-02  1.13739982E-17
 -5.21003455E-16  7.95247205E-04 -5.26494253E-17  2.77700184E-03  3.33261641E-05
  1.34534233E-03 -3.14873706E-03  9.56003635E-17  2.34456611E-04  2.48977939E-02
  8.80327922E-04 -2.57454879E-04  9.26306782E-04 -8.88480884E-17  1.24005910E-01
  1.24534895E+00  1.22889901E-02  1.75600054E-17  1.57915578E-16 -1.37931742E-16
 -3.83992950E-17 -5.90371895E-17 -1.62418228E-02  4.16454517E-04  1.41788671E-17
 -1.43782694E-17 -1.37876067E-16  8.11020756E-02 -6.52854143E-03 -4.18889713E-17
 -5.31518278E-16 -1.10978418E-16 -3.95347871E-16  1.28352838E-16 -4.91970867E-17
  3.07600953E-04  2.70332976E-02  3.95947114E-03 -6.41496437E-03 -1.01013387E-01
 -3.74955776E-03 -1.50296451E-02 -1.82191071E-02 -9.49847338E-17  3.79330937E-05
 -1.75299185E-01  2.18450307E-05  4.84199678E-17 -5.13295342E-17 -6.89206882E-17
  1.54470257E-17 -1.14115066E-02  9.43580567E-05  2.70612225E-16  4.10185098E-17
  3.16442564E-04 -1.80989852E-04 -3.04764220E-01  3.33215152E-04 -5.57998418E-17
 -2.57454879E-04  1.87944228E-16  4.78617724E-03 -9.20194819E-17 -1.21887545E-03
 -9.18955590E-03 -9.72348704E-05 -3.98292790E-02  1.29021550E-04  2.09682703E-02
 -2.20476446E-04  4.91096553E-17  1.73064936E-04  2.11306804E-02 -1.58376680E-16
 -5.18404858E-05  1.55651790E-02 -6.30731832E-06 -1.06374554E-02  1.28555169E-03
  4.97382653E-04 -8.87996795E-17 -5.10530629E-02  3.31654987E-04 -1.43840286E-16
 -1.32196747E-02 -6.17170095E-05 -1.08892439E-02  1.08422279E-03  2.54957542E-04
  6.14733748E-04 -3.98292790E-02 -4.78633542E-04 -2.89939646E-03 -1.07241934E-16
  2.91205162E-17 -1.69662038E-16 -1.76017648E-17  4.97382653E-04 -9.29956075E-02
  5.58469731E-04  8.82366454E-04  4.84199678E-17  1.90016618E-04  6.26500231E-05
 -4.96577291E-17  1.01883302E-04  1.31674698E-16 -4.78617724E-03 -2.40506066E-03
  1.28555169E-03  1.61300449E-16  2.39411715E-01 -1.38956909E-03  4.77404348E-17
  1.53145777E+00  7.42767498E-04 -1.75526832E-01 -4.43269035E-04  1.30547032E-01
  1.05981640E-03 -2.11306804E-02 -1.06631495E-02  1.55167823E-17 -1.22930373E-03
 -1.72904712E-03 -1.24604362E-04  3.82945798E-04  2.38107321E-04  4.63777773E-17
 -2.02830112E-01 -1.75587651E-02  8.50645601E-04  8.46818617E-04 -5.19364053E-03
  1.33162400E-04  1.94641610E-03 -1.13995253E-01 -2.57454879E-04  2.06396348E-06
  2.63853033E-03 -9.20194819E-17  1.82356175E-04  1.80585542E-17  5.91782021E-16
  1.01013387E-01 -2.22719242E-06  1.33024053E-16 -1.75486101E-01 -3.80086422E-17
  1.61428040E-04 -2.56749890E-04  1.32327368E-03 -1.23309252E-02 -1.34683647E-02
  1.08783142E-16  4.57328717E-06  5.19092173E-03 -9.24207444E-17  4.85554752E-04
 -1.52199097E-05  2.17954933E-02  4.85554752E-04  3.29359122E-04  3.12203508E-04
  8.11020756E-02  1.85431376E-04 -2.94372010E-04  8.11020756E-02 -1.13903761E-01
  3.40169819E-04  1.34547577E-05 -1.19675891E-06  1.54849808E+00  4.85454834E-04
  1.78555308E-04 -3.13531479E-16  1.76634745E-03 -5.03138237E-03 -5.02606718E-16
 -3.14082265E-03  2.33650948E-03 -2.65949432E-01 -3.47706690E-16 -1.85431376E-04
 -9.40169691E-06  2.34456611E-04  1.26390212E+00 -2.39373876E-05 -2.32613151E-17
 -7.00469140E-03  2.18771951E-02 -5.19092173E-03  8.12632423E-04  8.68662787E-02
  1.31844132E-04 -3.43347060E-17 -2.56749890E-04  0.00000000E+00 -2.08572720E-03
  5.28790273E-03  4.16454517E-04  8.60941226E-17  0.00000000E+00  3.95947114E-03
  7.17255833E-02  6.47300405E-17 -4.58024611E-17  0.00000000E+00 -2.79185231E-17
 -1.14005483E-16 -6.80326607E-16 -1.22453170E-03  0.00000000E+00 -9.62791154E-04
 -6.03543825E-04  6.15315027E-03  5.78411311E-03  0.00000000E+00  1.09216829E-02
  9.23012535E-05  3.42727726E-04 -9.08610313E-17 -7.23389576E-05 -1.22275698E-03
  8.00828938E-04 -1.08017416E-07  0.00000000E+00  0.00000000E+00  0.00000000E+00
  0.00000000E+00  0.00000000E+00  0.00000000E+00  0.00000000E+00  0.00000000E+00
  0.00000000E+00  0.00000000E+00 -1.85805311E-04  0.00000000E+00  1.14130354E-16
 -3.14429833E-04  5.70965948E-17  2.90935828E-17  3.81347082E-04 -1.75526832E-01
 -1.84362001E-06  1.55776724E-03 -8.06217335E-17 -1.75486101E-01 -3.15856844E-18
 -6.25880922E-07  1.97845713E-17 -9.18955590E-03 -3.14429833E-04  1.56639603E-16
 -1.76634745E-03  2.45096803E-02  3.63509406E-16 -1.70590945E-02  1.72082982E-02
  2.06396348E-06 -7.86852761E-03  5.15382366E-02 -2.53981189E-02 -1.76646299E-02
  9.40169691E-06 -8.95410240E-04  6.54870827E-17  2.70332976E-02  1.45492379E-16
  3.33215152E-04  5.83886807E-17  6.25880922E-07  4.10742509E-05 -3.83447021E-04
  0.00000000E+00  2.45431750E-06 -7.96625330E-07  4.97382653E-04 -1.08323139E-02
  0.00000000E+00 -1.28555169E-03 -3.55761164E-17  8.12632423E-04  3.16390990E-04
 -5.03076910E-03 -2.30229203E-01  3.99036934E-04 -1.70420569E-03  2.99639414E-18
  4.41777969E-04 -4.18522099E-03  1.54926463E+00 -1.52199097E-05 -2.09682703E-02
  1.28441504E-03  2.09682703E-02 -1.79207098E-16 -1.14328495E-03  2.45096803E-02
 -1.17557073E-04  1.16478419E-05 -1.06631495E-02  1.28995489E+00 -2.12431275E-02
  6.15260451E-04 -6.10082895E-18 -7.26754903E-16 -5.31518278E-16 -3.01684858E-03
 -8.95345647E-02  3.95947114E-03  1.30547032E-01 -2.15228404E-01  5.03076910E-03
 -2.49210030E-03 -2.09026718E-01  4.67492296E-04 -1.71546101E-16  6.03486543E-03
  3.15365731E-06  2.93556532E-17  3.81888626E-05  1.08972960E-16  0.00000000E+00
  5.19364053E-03  1.05964545E-03 -9.18225579E-18  3.85274528E-04  0.00000000E+00
  2.19155710E-02  3.32936630E-03 -1.85805311E-04  7.13690916E-04  1.11747824E-16
  9.42028751E-04  1.04762744E+00 -7.89125045E-16 -8.28117606E-17 -1.06374554E-02
 -1.41085626E-16 -3.57755952E-02 -3.92382632E-05 -4.49363575E-03  3.98292790E-02
  7.98887627E-17 -1.32327368E-03 -2.49210030E-03  1.63337237E-03  4.01305520E-03
 -6.10082895E-18 -1.68736160E-16 -3.71848636E-04  1.47264269E-05  3.01178552E-17
 -5.34684955E-16 -6.57886807E-03 -9.67333652E-05 -3.79160195E-03 -1.13995253E-01
 -7.90025723E-17 -1.74194257E-02 -6.94029312E-06  1.09356009E-16 -1.93231484E-17
  2.25670853E-04  1.61158148E-02 -1.93530304E-04 -1.28441504E-03 -2.39411715E-01
 -4.67106144E-05  2.70351666E-02 -3.07286916E-01 -1.53437252E-02  0.00000000E+00
 -3.14082265E-03  1.40075944E-02 -1.62915553E-02  2.22618434E-17  0.00000000E+00
  1.18204189E-17  1.78917245E-04 -1.26977775E-05 -1.47050232E-04  5.29410535E-17
  2.30663144E-16 -6.71400914E-18  1.83516737E-17  3.32276443E-03  1.70420569E-03
 -2.21098378E-17 -1.09216829E-02  2.39373876E-05 -5.57998418E-17  5.80673067E-17
  5.94931284E-17  5.97200506E-16 -1.19558721E-01 -3.31654987E-04  7.77112915E-18
 -1.13903761E-01  4.16283192E-18 -5.92431463E-16  5.44019416E-17 -8.68376393E-02
 -6.18959920E-17  8.36729838E-17 -1.13903761E-01  2.09866016E-17  4.09714343E-17
 -1.40450568E-16 -1.11682952E-16  2.92941107E-16 -1.69538529E-16 -2.26763237E-17
 -8.18818989E-17  2.72671244E-18 -2.02178382E-02  1.52573890E-03 -1.72651227E-17
  1.03668302E+00 -3.07286916E-01  3.46208952E-17 -4.18522099E-03  1.80005347E-16
  0.00000000E+00  2.70506041E-02 -3.04757699E-01  9.30336937E-02  2.99977798E-01
  0.00000000E+00  4.56866065E-17  1.50726514E-05  6.03957389E-06  1.28088556E-05
 -1.75486101E-01  7.61425173E-04  4.00950720E-03  4.10805287E-04 -1.94641610E-03
 -3.17907657E-17  1.13739982E-17  1.75162887E-16  0.00000000E+00  1.42716552E-03
  5.05946579E-04  1.52573890E-03  6.24452569E-03  0.00000000E+00 -2.12431275E-02
 -1.47264269E-05  1.47569323E-16 -8.73582272E-17  0.00000000E+00  2.07205712E-04
 -1.13903761E-01  7.43569548E-20  3.27818454E-03  0.00000000E+00 -4.02198905E-05
  1.80005347E-16 -6.17637641E-17  3.85274528E-04  0.00000000E+00  2.50077900E-01
 -1.06075501E-16 -1.10148476E-16 -1.33162070E-17  0.00000000E+00 -1.72651227E-17
 -1.62915553E-02 -3.59632100E-16 -2.56749890E-04 -3.19107488E-04  1.28088556E-05
  1.63180721E-04  2.86797268E-05  0.00000000E+00  0.00000000E+00  0.00000000E+00
  0.00000000E+00  0.00000000E+00  0.00000000E+00  0.00000000E+00  0.00000000E+00
  0.00000000E+00  0.00000000E+00  0.00000000E+00  0.00000000E+00  0.00000000E+00
  2.99226841E-17 -1.53146074E-03 -5.47799367E-17 -3.70303746E-03  1.02955122E+00
  4.18894771E-03  1.54607871E-02 -9.26306782E-04 -2.72371000E-17  1.02082339E-03
  1.70135980E-05  5.23203530E-04  1.08892439E-02 -3.05864637E-03  6.83568565E-03
  2.54957542E-04 -2.24515049E-05 -5.24116312E-16  1.32196747E-02  2.02830112E-01
 -3.04961374E-03 -5.74133133E-17  1.53145777E+00  2.70357797E-02  4.68780493E-16
  2.04673209E-02  2.96552575E-01  7.00469140E-03  2.24072391E-01  1.05917503E-02
  1.24924269E-16 -6.57933246E-03  1.55078837E-04  7.49065583E-18  3.20487351E-05
  1.54933750E-02  2.45096803E-02  9.62791154E-04  1.05520839E-04 -2.60401721E-04
  0.00000000E+00  3.29359122E-04  3.19107488E-04  3.16442564E-04  8.46818617E-04
  0.00000000E+00  0.00000000E+00  0.00000000E+00  0.00000000E+00  0.00000000E+00
 -9.18955590E-03  0.00000000E+00 -1.26168786E-04  8.94071743E-17  5.15568547E-17
  4.69115990E-17 -2.71720827E-17  5.07839095E-05 -2.26598547E-03  8.52358588E-17
  2.52384708E-04  3.81347082E-04  3.07286916E-01 -2.08572720E-03 -1.40075944E-02
  1.04506449E-05  1.85431376E-04  1.55651790E-02 -1.22889901E-02 -3.99036934E-04
  3.73121229E-16 -2.06457750E-04  2.17954933E-02  3.78759381E-16  1.90842720E-02
 -7.41474428E-17 -1.70948732E-02 -2.28421707E-01 -5.03138237E-03 -9.07380373E-03
  2.01174641E-03 -1.54933750E-02  1.32196747E-02  1.98778423E-02  7.17255833E-02
  5.71583350E-17 -1.75486101E-01 -1.54607871E-02  2.20063229E-03  2.11306804E-02
 -3.29940236E-03 -5.37351051E-17  2.09026718E-01 -4.21193180E-05  0.00000000E+00
 -1.72904712E-03  1.69793845E-02 -3.55217179E-17  5.58469731E-04  0.00000000E+00
  0.00000000E+00  0.00000000E+00  0.00000000E+00  0.00000000E+00 -5.78626786E-16
  0.00000000E+00  6.61515887E-02 -6.09484550E-03 -5.34684955E-16  1.48048780E-16
 -2.10925500E-03 -2.52840187E-16  2.50077900E-01 -6.37226306E-04  4.85554752E-04
 -1.12240334E-04 -2.15228404E-01 -6.89867743E-03  1.39177609E-04  5.62927703E-17
  6.14887082E-03  1.90795139E-02  2.07205712E-04  2.84942594E-17 -5.28739500E-17
  3.07600953E-04 -5.09318740E-03  6.17170095E-05  5.18404858E-05 -2.75766836E-06
 -1.55278893E-16 -2.03537730E-04  4.57328717E-06  9.95637581E-17  9.05398144E-04
  1.53110748E-16 -6.06154766E-04 -3.35056176E-16 -3.80086422E-17 -1.41736028E-16
  1.31674698E-16  8.68662787E-02  4.95643845E-04  6.63838960E-03 -5.26646335E-16
  5.91782021E-16  2.58960926E-02 -3.14082265E-03 -3.78375334E-03  0.00000000E+00
 -1.08422279E-03  8.50645601E-04  6.59586660E-04  1.63180721E-04  0.00000000E+00
  0.00000000E+00  0.00000000E+00  0.00000000E+00  0.00000000E+00 -2.33027213E-01
  0.00000000E+00  3.67168890E-03 -4.15220927E-17 -1.29813584E-16  1.53146074E-03
 -6.80326607E-16 -1.43782694E-17  6.14887082E-03 -6.14733748E-04  2.26598547E-03
  7.20583123E-03  3.47294378E-17 -6.81520192E-02 -1.38522737E-16 -2.81112574E-17
  3.63509406E-16 -3.10967086E-17 -2.72371000E-17  3.80471525E-17 -2.71909533E-17
  7.42362402E-17 -1.21887545E-03  1.06957709E-02  1.42430198E-02  5.19092173E-03
 -3.47706690E-16  1.83516737E-17  1.47569323E-16  6.63838960E-03 -9.29956075E-02
  6.54520101E-02 -1.08892439E-02  1.10967790E-16 -1.61878386E-16 -1.16861242E-16
 -3.99382194E-05 -9.61178328E-17 -1.34683647E-02  8.52856058E-05  5.83886807E-17
 -1.29813584E-16  1.16056412E-16  1.68592897E-04 -3.40361146E-01  4.18894771E-03
  0.00000000E+00 -2.66733569E-05 -2.22719242E-06 -1.34547577E-05 -1.80866557E-17
  0.00000000E+00  0.00000000E+00  0.00000000E+00  0.00000000E+00  0.00000000E+00
  1.05672187E-01  0.00000000E+00 -1.40237216E-03 -1.76017648E-17  4.78633542E-04
 -1.13995253E-01 -1.13275912E-01 -1.09649186E-17  6.17740837E-17 -2.12821077E-03
 -7.30543415E-03  4.15535048E-18  6.97380172E-17 -1.70948732E-02 -1.22275698E-03
 -1.93020349E-04  4.01305520E-03 -2.10925500E-03 -8.99559571E-05 -5.28739500E-17
  5.13973888E-05  3.32276443E-03 -6.43872407E-03 -1.23959854E-04 -1.05981640E-03
 -7.56180560E-03  9.62690058E-04  4.04416578E-03  3.16390990E-04 -8.73744395E-06
  2.72274583E-02  9.56003635E-17 -4.49363575E-03  2.84942594E-17 -1.52153217E-02
 -8.82366454E-04  2.46370302E-17 -7.41474428E-17  1.24534895E+00 -8.74282512E-17
  3.57755952E-02  1.57992509E-02  1.55078837E-04  1.11747824E-16 -7.13690916E-04
 -6.54520101E-02 -3.23957482E-04 -3.32936630E-03  8.58419946E-04 -5.78626786E-16
  4.76107187E-17  1.32327368E-03  0.00000000E+00  1.28995489E+00  1.22889901E-02
 -2.15228404E-01 -5.21003455E-16  2.66733569E-05  3.74955776E-03  1.56631445E-02
  1.50216665E-03 -3.44135820E-17  3.14873706E-03 -1.54984234E-16  6.65599802E-17
 -1.05964545E-03  3.67450530E-03  2.74420410E-03  1.03671375E+00 -1.23959854E-04
  7.77112915E-18 -1.75299185E-01  6.37226306E-04  1.54926463E+00  1.21567745E-04
 -1.93231484E-17  3.33215152E-04 -2.30776107E-02  3.01178552E-17 -1.10127923E-16
  5.23203530E-04 -7.96625330E-07  4.85454834E-04 -1.55078837E-04  3.10163712E-04
 -6.85579264E-06 -1.69793845E-02  2.94372010E-04  1.34534233E-03 -1.22333258E-05
  1.70135980E-05 -6.03957389E-06 -1.34417171E-04 -5.10530629E-02 -1.57749434E-03
  4.29817525E-05  3.29359122E-04 -7.56180560E-03 -1.23870375E-02 -1.48430797E-04
 -3.53790997E-17 -1.14201114E-16 -1.57158882E-16 -3.04764220E-01 -2.06457750E-04
  0.00000000E+00  2.24072391E-01 -6.83568565E-03 -1.72082982E-02 -1.32196747E-02
  0.00000000E+00  0.00000000E+00  0.00000000E+00  0.00000000E+00  0.00000000E+00
 -1.75299185E-01  0.00000000E+00 -1.06075501E-16 -1.08323139E-02  3.61631840E-03
  2.12821077E-03 -7.26754903E-16  2.14534965E-17  1.24591401E-04 -2.30776107E-02
 -1.19558721E-01  2.20618014E-06 -2.04851671E-17 -2.08352131E-01  6.63838960E-03
  5.89434474E-05 -6.14733748E-04 -3.04961374E-03 -2.48401589E-03  2.46370302E-17
  9.05398144E-04  1.57749434E-03 -1.19558721E-01  4.96911586E-17  1.29524183E-16
  1.50726514E-05  2.26239833E-04 -1.71674480E-02 -1.06014817E-02  6.10941874E-04
 -1.30782448E-16  3.46889200E-04  3.73121229E-16 -1.54933750E-02 -3.49979152E-04
  3.73549334E-17  4.45034693E-16 -8.42318688E-17  1.46570724E-02 -3.16898565E-17
  1.81196673E-16  2.70506041E-02 -1.79956643E-05  1.41788671E-17 -3.08074223E-05
 -3.25682510E-05  2.39411715E-01  4.81440323E-02 -1.06297950E-04  2.19155710E-02
  1.41042865E-02 -1.33162070E-17  1.10183959E-16  4.96911586E-17  0.00000000E+00
  1.70590945E-02 -3.13031158E-17 -1.76646299E-02 -1.05917503E-02  5.19568080E-03
  7.61425173E-04  1.02955122E+00  3.85274528E-04  3.31767937E-03  1.14115066E-02
 -5.24116312E-16 -9.05398144E-04 -1.06318012E-17 -3.32276443E-03  1.26132628E-02
 -2.18450307E-05  3.90615053E-17 -1.22930373E-03  3.05864637E-03 -6.41496437E-03
Overlap Matrix                             R   N=        1830
  1.00000000E+00  2.48362390E-01  1.00000000E+00  0.00000000E+00 -2.47021272E-16
  1.00000000E+00 -3.92614542E-18 -7.54489951E-17  2.92389811E-32  1.00000000E+00
  6.79642237E-33 -1.98870957E-32 -6.32704000E-48  0.00000000E+00  1.00000000E+00
  9.28499138E-07  3.79483092E-02 -4.17199964E-02  4.70919219E-02 -9.64711155E-17
  1.00000000E+00  3.79483092E-02  3.67071367E-01 -2.58382267E-01  2.91651932E-01
 -5.97469503E-16  2.48362390E-01  1.00000000E+00  4.17199964E-02  2.58382267E-01
 -2.38697895E-02  2.69517708E-01 -5.52125989E-16 -1.70023257E-18  0.00000000E+00
  1.00000000E+00 -4.70919219E-02 -2.91651932E-01  2.69517708E-01 -8.93180125E-02
  6.23218509E-16 -2.87661866E-16 -2.81810080E-16  0.00000000E+00  1.00000000E+00
  9.64711155E-17  5.97469503E-16 -5.52125989E-16  6.23218509E-16  2.14903175E-01
 -1.32042995E-31  5.55720627E-31  0.00000000E+00 -4.68271985E-46  1.00000000E+00
  2.05608027E-17  1.84257566E-03 -4.02361919E-03  1.34402295E-03 -3.05042292E-18
  9.35849271E-07  3.79890711E-02 -6.17105198E-02 -1.25887450E-02  1.81475131E-17
  1.00000000E+00  1.84257566E-03  6.12758481E-02 -8.54995256E-02  2.85596920E-02
 -6.48196810E-17  3.79890711E-02  3.67296441E-01 -3.81939539E-01 -7.79144214E-02
  1.12318820E-16  2.48362390E-01  1.00000000E+00  4.02361919E-03  8.54995256E-02
 -1.06061995E-01  4.40001101E-02 -9.98635807E-17  6.17105198E-02  3.81939539E-01
 -3.06403838E-01 -1.06380508E-01  1.53354578E-16 -8.66565768E-17 -2.73873542E-17
  1.00000000E+00 -1.34402295E-03 -2.85596920E-02  4.40001101E-02  1.09642096E-02
  3.33577653E-17  1.25887450E-02  7.79144214E-02 -1.06380508E-01  1.93376294E-01
  3.12838342E-17  7.46348625E-17 -1.40905040E-16 -7.12361375E-33  1.00000000E+00
  3.05042292E-18  6.48196810E-17 -9.98635807E-17  3.33577653E-17  2.56617133E-02
 -1.81475131E-17 -1.12318820E-16  1.53354578E-16  3.12838342E-17  2.15077572E-01
 -2.47674403E-31 -9.72994279E-32  2.53081600E-47 -2.53081600E-47  1.00000000E+00
  9.69956219E-23  4.22422022E-04 -1.09814248E-03 -2.23972451E-04  3.22848032E-19
  2.07766845E-17  1.84489037E-03 -3.17913752E-03 -2.81589233E-03  5.17352143E-18
  9.32781801E-07  3.79720926E-02 -1.99432541E-02 -5.97110317E-02  1.14682969E-16
  1.00000000E+00  4.22422022E-04  2.63846609E-02 -4.15260030E-02 -8.46946625E-03
  1.22084234E-17  1.84489037E-03  6.13204775E-02 -6.75227108E-02 -5.98076309E-02
  1.09882064E-16  3.79720926E-02  3.67202707E-01 -1.23466549E-01 -3.69664598E-01
  7.09989972E-16  2.48362390E-01  1.00000000E+00  1.09814248E-03  4.15260030E-02
 -6.02962948E-02 -1.43755942E-02  2.07218891E-17  3.17913752E-03  6.75227108E-02
 -5.64152786E-02 -7.27173659E-02  1.33600581E-16  1.99432541E-02  1.23466549E-01
  1.60500016E-01 -1.63190270E-01  3.13428594E-16  0.00000000E+00  2.47021272E-16
  1.00000000E+00  2.23972451E-04  8.46946625E-03 -1.43755942E-02  7.25561534E-03
  4.22634801E-18  2.81589233E-03  5.98076309E-02 -7.27173659E-02 -3.87262493E-02
  1.18335507E-16  5.97110317E-02  3.69664598E-01 -1.63190270E-01 -2.73594333E-01
  9.38419809E-16  3.92614542E-18  7.54489951E-17  2.92389811E-32  1.00000000E+00
 -3.22848032E-19 -1.22084234E-17  2.07218891E-17  4.22634801E-18  1.01876002E-02
 -5.17352143E-18 -1.09882064E-16  1.33600581E-16  1.18335507E-16  2.56825005E-02
 -1.14682969E-16 -7.09989972E-16  3.13428594E-16  9.38419809E-16  2.15004936E-01
 -6.79642237E-33  1.98870957E-32 -6.32704000E-48  0.00000000E+00  1.00000000E+00
  2.07766845E-17  1.84489037E-03 -3.17913752E-03 -2.81589233E-03  5.17352143E-18
  9.78578800E-23  4.22871019E-04 -3.55212406E-04 -1.06411980E-03  2.04380438E-18
  2.05843586E-17  1.84282927E-03  8.48599293E-04 -4.15694563E-03  8.21856855E-18
  9.28499138E-07  3.79483092E-02  4.17199964E-02 -4.70919219E-02  9.64711155E-17
  1.00000000E+00  1.84489037E-03  6.13204775E-02 -6.75227108E-02 -5.98076309E-02
  1.09882064E-16  4.22871019E-04  2.64005007E-02 -1.34265195E-02 -4.02222024E-02
  7.72528742E-17  1.84282927E-03  6.12807389E-02  1.80312937E-02 -8.83280342E-02
  1.74630623E-16  3.79483092E-02  3.67071367E-01  2.58382267E-01 -2.91651932E-01
  5.97469503E-16  2.48362390E-01  1.00000000E+00  3.17913752E-03  6.75227108E-02
 -5.64152786E-02 -7.27173659E-02  1.33600581E-16  3.55212406E-04  1.34265195E-02
  2.83008715E-03 -2.20609509E-02  4.23714209E-17 -8.48599293E-04 -1.80312937E-02
  1.98058897E-02  2.86964762E-02 -5.67349148E-17 -4.17199964E-02 -2.58382267E-01
 -2.38697895E-02  2.69517708E-01 -5.52125989E-16  2.58437827E-17  1.14080426E-16
  1.00000000E+00  2.81589233E-03  5.98076309E-02 -7.27173659E-02 -3.87262493E-02
  1.18335507E-16  1.06411980E-03  4.02222024E-02 -2.20609509E-02 -5.58943879E-02
  1.26933258E-16  4.15694563E-03  8.83280342E-02  2.86964762E-02 -1.14908470E-01
  2.77921462E-16  4.70919219E-02  2.91651932E-01  2.69517708E-01 -8.93180125E-02
  6.23218509E-16  2.87661866E-16  2.81810080E-16  2.92389811E-32  1.00000000E+00
 -5.17352143E-18 -1.09882064E-16  1.33600581E-16  1.18335507E-16  2.56825005E-02
 -2.04380438E-18 -7.72528742E-17  4.23714209E-17  1.26933258E-16  1.01942236E-02
 -8.21856855E-18 -1.74630623E-16 -5.67349148E-17  2.77921462E-16  2.56639912E-02
 -9.64711155E-17 -5.97469503E-16 -5.52125989E-16  6.23218509E-16  2.14903175E-01
  1.32042995E-31 -5.55720627E-31 -7.69875756E-47 -4.68271985E-46  1.00000000E+00
  9.32781801E-07  3.79720926E-02 -1.99432541E-02 -5.97110317E-02  1.14682969E-16
  2.05843586E-17  1.84282927E-03  8.48599293E-04 -4.15694563E-03  8.21856855E-18
  9.67201544E-23  4.22277839E-04  7.42855953E-04 -8.38725530E-04  1.71816797E-18
  2.05608027E-17  1.84257566E-03  4.02361919E-03 -1.34402295E-03  3.05042292E-18
  9.35849271E-07  3.79890711E-02  6.17105198E-02  1.25887450E-02 -1.81475131E-17
  1.00000000E+00  3.79720926E-02  3.67202707E-01 -1.23466549E-01 -3.69664598E-01
  7.09989972E-16  1.84282927E-03  6.12807389E-02  1.80312937E-02 -8.83280342E-02
  1.74630623E-16  4.22277839E-04  2.63795729E-02  2.80947942E-02 -3.17205793E-02
  6.49810713E-17  1.84257566E-03  6.12758481E-02  8.54995256E-02 -2.85596920E-02
  6.48196810E-17  3.79890711E-02  3.67296441E-01  3.81939539E-01  7.79144214E-02
 -1.12318820E-16  2.48362390E-01  1.00000000E+00  1.99432541E-02  1.23466549E-01
  1.60500016E-01 -1.63190270E-01  3.13428594E-16 -8.48599293E-04 -1.80312937E-02
  1.98058897E-02  2.86964762E-02 -5.67349148E-17 -7.42855953E-04 -2.80947942E-02
 -2.20833552E-02  3.64332946E-02 -7.46352861E-17 -4.02361919E-03 -8.54995256E-02
 -1.06061995E-01  4.40001101E-02 -9.98635807E-17 -6.17105198E-02 -3.81939539E-01
 -3.06403838E-01 -1.06380508E-01  1.53354578E-16  4.90705165E-17 -1.50897990E-16
  1.00000000E+00  5.97110317E-02  3.69664598E-01 -1.63190270E-01 -2.73594333E-01
  9.38419809E-16  4.15694563E-03  8.83280342E-02  2.86964762E-02 -1.14908470E-01
  2.77921462E-16  8.38725530E-04  3.17205793E-02  3.64332946E-02 -3.09497356E-02
  8.42673733E-17  1.34402295E-03  2.85596920E-02  4.40001101E-02  1.09642096E-02
  3.33577653E-17 -1.25887450E-02 -7.79144214E-02 -1.06380508E-01  1.93376294E-01
  3.12838342E-17 -7.46348625E-17  1.40905040E-16 -2.92389811E-32  1.00000000E+00
 -1.14682969E-16 -7.09989972E-16  3.13428594E-16  9.38419809E-16  2.15004936E-01
 -8.21856855E-18 -1.74630623E-16 -5.67349148E-17  2.77921462E-16  2.56639912E-02
 -1.71816797E-18 -6.49810713E-17 -7.46352861E-17  8.42673733E-17  1.01854727E-02
 -3.05042292E-18 -6.48196810E-17 -9.98635807E-17  3.33577653E-17  2.56617133E-02
  1.81475131E-17  1.12318820E-16  1.53354578E-16  3.12838342E-17  2.15077572E-01
  2.47674403E-31  9.72994279E-32  0.00000000E+00 -2.53081600E-47  1.00000000E+00
  5.29064196E-03  9.55903187E-02 -3.29116238E-02  1.19138660E-01 -2.36446288E-16
  6.08874056E-02  4.85212737E-01  1.47061368E-01  4.40014721E-01 -8.45096437E-16
  5.29176584E-03  9.56049109E-02  9.79163065E-02  7.54563185E-02 -1.37298098E-16
  9.20087291E-05  6.45003131E-03  6.75860783E-03  8.28683980E-03 -1.54974442E-17
  1.21817086E-05  1.84747902E-03  1.05294511E-03  3.15324093E-03 -6.05624175E-18
  9.19773484E-05  6.44864959E-03 -4.21949098E-04  1.06830173E-02 -2.09366027E-17
  1.00000000E+00  9.18753931E-05  6.44415922E-03 -9.45667472E-03  4.97273417E-03
 -1.07167321E-17  5.29116530E-03  9.55971136E-02 -1.19639927E-01  3.10704895E-02
 -7.33103689E-17  6.08838509E-02  4.85198418E-01 -3.07669085E-01  3.47234316E-01
 -7.11338637E-16  5.29246541E-03  9.56139937E-02 -1.64086457E-02  1.22533853E-01
 -2.41355408E-16  9.19352201E-05  6.44679436E-03 -3.79728042E-03  9.99121385E-03
 -1.99376529E-17  1.21620393E-05  1.84565734E-03 -2.20227216E-03  2.48620164E-03
 -5.09312538E-18  5.00066312E-02  1.00000000E+00  9.20087291E-05  6.45003131E-03
 -6.75860783E-03 -8.28683980E-03  1.54974442E-17  1.21817086E-05  1.84747902E-03
 -1.05294511E-03 -3.15324093E-03  6.05624175E-18  9.19773484E-05  6.44864959E-03
  4.21949098E-04 -1.06830173E-02  2.09366027E-17  5.29064196E-03  9.55903187E-02
  3.29116238E-02 -1.19138660E-01  2.36446288E-16  6.08874056E-02  4.85212737E-01
 -1.47061368E-01 -4.40014721E-01  8.45096437E-16  5.29176584E-03  9.56049109E-02
 -9.79163065E-02 -7.54563185E-02  1.37298098E-16  1.11528442E-04  7.61637368E-04
  1.00000000E+00  5.29246541E-03  9.56139937E-02  1.64086457E-02 -1.22533853E-01
  2.41355408E-16  9.19352201E-05  6.44679436E-03  3.79728042E-03 -9.99121385E-03
  1.99376529E-17  1.21620393E-05  1.84565734E-03  2.20227216E-03 -2.48620164E-03
  5.09312538E-18  9.18753931E-05  6.44415922E-03  9.45667472E-03 -4.97273417E-03
  1.07167321E-17  5.29116530E-03  9.55971136E-02  1.19639927E-01 -3.10704895E-02
  7.33103689E-17  6.08838509E-02  4.85198418E-01  3.07669085E-01 -3.47234316E-01
  7.11338637E-16  7.61637368E-04  1.11398407E-04  5.00066312E-02  1.00000000E+00
  9.22885316E-53  1.06745412E-07 -4.29246199E-07 -8.75707565E-08  1.26242119E-22
  1.51058224E-41  2.34817295E-06 -7.39185638E-06 -4.25538071E-06  7.54686924E-21
  3.91179358E-19  1.14467049E-03 -2.12573746E-03 -1.77720085E-03  3.25266754E-18
  6.33881341E-08  2.65883850E-02 -4.36861748E-02 -8.91677985E-03  1.28566721E-17
  3.88855306E-19  1.14385146E-03 -2.65040526E-03  8.01670772E-04 -1.84575270E-18
  1.49285306E-41  2.34485482E-06 -8.45667496E-06  1.01793783E-06 -2.87762100E-21
  2.05131401E-07  1.01737671E-03  1.01718898E-03  2.04866536E-07  1.00000000E+00
  1.06745412E-07  2.93227593E-04 -6.32203684E-04 -1.28976226E-04  1.85932299E-19
  2.34817295E-06  1.52827565E-03 -2.63558426E-03 -1.51726628E-03  2.69085447E-18
  1.14467049E-03  4.65534822E-02 -5.41969969E-02 -4.53108396E-02  8.29287794E-17
  2.65883850E-02  2.98493812E-01 -3.29566904E-01 -6.72678609E-02  9.69902640E-17
  1.14385146E-03  4.65343398E-02 -6.75924490E-02  2.04447568E-02 -4.70716488E-17
  2.34485482E-06  1.52711465E-03 -3.01717788E-03  3.63180506E-04 -1.02667945E-18
  1.58079961E-04  3.04893695E-02  3.04856017E-02  1.57958181E-04  2.48362390E-01
  1.00000000E+00  4.29246199E-07  6.32203684E-04 -1.28669150E-03 -2.81762970E-04
  4.06189871E-19  7.39185638E-06  2.63558426E-03 -4.16355691E-03 -2.68973754E-03
  4.77021890E-18  2.12573746E-03  5.41969969E-02 -5.01125605E-02 -5.77259802E-02
  1.05651211E-16  4.36861748E-02  3.29566904E-01 -2.94979322E-01 -9.37446014E-02
  1.35165791E-16  2.65040526E-03  6.75924490E-02 -8.85136172E-02  3.24973117E-02
 -7.48212396E-17  8.45667496E-06  3.01717788E-03 -5.61944053E-03  7.37599924E-04
 -2.08513033E-18  2.55811836E-04  1.99234120E-02  3.40091238E-02  3.15852575E-04
 -3.07793116E-16  6.95776166E-17  1.00000000E+00  8.75707565E-08  1.28976226E-04
 -2.81762970E-04  3.69454331E-05  8.28670222E-20  4.25538071E-06  1.51726628E-03
 -2.68973754E-03 -1.03975993E-03  2.74614339E-18  1.77720085E-03  4.53108396E-02
 -5.77259802E-02 -2.93268311E-02  8.83286039E-17  8.91677985E-03  6.72678609E-02
 -9.37446014E-02  1.45171458E-01  2.75886733E-17 -8.01670772E-04 -2.04447568E-02
  3.24973117E-02  9.09631159E-03  2.26312564E-17 -1.01793783E-06 -3.63180506E-04
  7.37599924E-04  4.19498624E-04  2.50989076E-19  2.06039548E-04  4.00232367E-02
 -2.90126424E-02 -8.92861032E-05 -5.75170757E-17  1.50897990E-16  0.00000000E+00
  1.00000000E+00 -1.26242119E-22 -1.85932299E-19  4.06189871E-19  8.28670222E-20
  9.44280538E-05 -7.54686924E-21 -2.69085447E-18  4.77021890E-18  2.74614339E-18
  5.08681585E-04 -3.25266754E-18 -8.29287794E-17  1.05651211E-16  8.83286039E-17
  1.89343784E-02 -1.28566721E-17 -9.69902640E-17  1.35165791E-16  2.75886733E-17
  1.64305657E-01  1.84575270E-18  4.70716488E-17 -7.48212396E-17  2.26312564E-17
  1.89258065E-02  2.87762100E-21  1.02667945E-18 -2.08513033E-18  2.50989076E-19
  5.08284213E-04 -3.76115472E-19 -7.61824135E-17  6.03055229E-17  2.07737820E-19
  7.28799087E-32 -2.04315539E-31 -1.30258264E-46 -2.59694320E-47  1.00000000E+00
  1.47225279E-74  2.64963546E-10 -1.29521865E-09  2.11748576E-11 -1.77244852E-25
  3.15953097E-53  9.38978532E-08 -3.77545207E-07 -8.54157144E-08  1.27449649E-22
  2.41845956E-25  2.05744451E-04 -5.62474885E-04 -1.33199226E-04  2.01503751E-19
  8.88424017E-19  1.26320676E-03 -2.92715020E-03  7.72108474E-04 -1.81696208E-18
  4.15816668E-40  3.49292959E-06 -1.11351303E-05  5.58991274E-06 -1.20997491E-20
  5.40065296E-68  1.61150042E-09 -7.20785179E-09  2.14683477E-09 -4.95439143E-24
  3.74728463E-08  1.48084008E-03  5.44616205E-06  1.39591865E-10  3.04987038E-06
  4.47243006E-02 -5.17653303E-02  5.31703981E-02 -1.09412038E-16  1.00000000E+00
  2.64963546E-10  1.22404593E-05 -3.16710808E-05  5.17774068E-07 -4.33404510E-21
  9.38978532E-08  2.73906286E-04 -5.90151022E-04 -1.33515590E-04  1.99219959E-19
  2.05744451E-04  1.76113287E-02 -2.85372124E-02 -6.75787439E-03  1.02233104E-17
  1.26320676E-03  4.92679015E-02 -7.18434953E-02  1.89505040E-02 -4.45952199E-17
  3.49292959E-06  1.89227713E-03 -3.31868299E-03  1.66600191E-03 -3.60617526E-18
  1.61150042E-09  3.17846220E-05 -7.53841746E-05  2.24529266E-05 -5.18160916E-20
  5.74574690E-05  3.92739296E-02  1.13225154E-03  2.08624942E-06  4.47243006E-02
  4.02773183E-01 -2.88955938E-01  2.96799077E-01 -6.10741936E-16  2.48362390E-01
  1.00000000E+00  1.29521865E-09  3.16710808E-05 -7.83167081E-05  1.34342676E-06
 -1.12451985E-20  3.77545207E-07  5.90151022E-04 -1.19972541E-03 -2.91363378E-04
  4.34746236E-19  5.62474885E-04  2.85372124E-02 -4.28466297E-02 -1.17070996E-02
  1.77104968E-17  2.92715020E-03  7.18434953E-02 -9.46869801E-02  3.02923286E-02
 -7.12853366E-17  1.11351303E-05  3.31868299E-03 -5.36450788E-03  3.01121358E-03
 -6.51797809E-18  7.20785179E-09  7.53841746E-05 -1.69541690E-04  5.34912347E-05
 -1.23445231E-19  1.15420705E-04  4.60238929E-02  1.55580819E-03  4.91997829E-06
  5.17653303E-02  2.88955938E-01 -3.45116016E-02  2.85322875E-01 -5.87126641E-16
 -2.00098325E-16  9.60127184E-16  1.00000000E+00 -2.11748576E-11 -5.17774068E-07
  1.34342676E-06  3.83573700E-06  1.83841915E-22  8.54157144E-08  1.33515590E-04
 -2.91363378E-04  2.22091918E-05  9.83568582E-20  1.33199226E-04  6.75787439E-03
 -1.17070996E-02  3.81786616E-03  4.19400854E-18 -7.72108474E-04 -1.89505040E-02
  3.02923286E-02  1.21642968E-02  1.88032758E-17 -5.58991274E-06 -1.66600191E-03
  3.01121358E-03 -8.77807551E-04  3.27207026E-18 -2.14683477E-09 -2.24529266E-05
  5.34912347E-05 -5.88069319E-06  3.67677531E-20  5.03504374E-05  3.22486839E-02
 -1.41043300E-03 -2.01183158E-06 -5.31703981E-02 -2.96799077E-01  2.85322875E-01
 -4.97960002E-02  6.03063036E-16 -2.62354908E-17 -7.54489951E-17 -5.84779622E-32
  1.00000000E+00  1.77244852E-25  4.33404510E-21 -1.12451985E-20  1.83841915E-22
  3.85769998E-06 -1.27449649E-22 -1.99219959E-19  4.34746236E-19  9.83568582E-20
  8.81271552E-05 -2.01503751E-19 -1.02233104E-17  1.77104968E-17  4.19400854E-18
  6.59021502E-03  1.81696208E-18  4.45952199E-17 -7.12853366E-17  1.88032758E-17
  2.01546499E-02  1.20997491E-20  3.60617526E-18 -6.51797809E-18  3.27207026E-18
  6.33842577E-04  4.95439143E-24  5.18160916E-20 -1.23445231E-19  3.67677531E-20
  1.00514938E-05 -8.63637798E-20 -5.82407833E-17  2.92149060E-18  4.45043392E-21
  1.09412038E-16  6.10741936E-16 -5.87126641E-16  6.03063036E-16  2.43271401E-01
 -1.49867846E-32  3.08986688E-32  0.00000000E+00  0.00000000E+00  1.00000000E+00
  7.41680361E-08  8.62330313E-05 -1.69957607E-04 -7.32511064E-05  1.25430234E-19
  2.85181282E-07  1.92426968E-04 -3.03518210E-04 -2.53656012E-04  4.64233965E-19
  6.94927243E-05  5.41006775E-03 -5.73149530E-03 -7.04009814E-03  1.31669580E-17
  4.44493833E-03  8.43832651E-02 -8.72231161E-02 -6.84032489E-02  1.24626122E-16
  1.14946288E-03  3.30926736E-02 -4.77834330E-02 -5.94354396E-03  6.61233956E-18
  4.69613642E-06  1.03505424E-03 -1.90849174E-03 -2.88671229E-04  3.64392747E-19
  1.49461234E-05  2.79609580E-03  5.54692998E-02  2.06833017E-04  6.10855877E-02
  4.86010001E-01 -1.04860636E-01 -4.52430081E-01  8.73802397E-16  5.78115105E-03
  1.01890938E-01  4.15192821E-02 -1.23887673E-01  2.46636459E-16  1.00000000E+00
  1.17574263E-11  4.82167356E-07 -1.29920889E-06 -2.80482495E-08 -8.13996524E-23
  2.61557141E-09  1.18376124E-05 -2.73329062E-05 -6.05946473E-06  8.98375816E-21
  5.71623743E-06  1.16596450E-03 -2.10470388E-03 -4.79472069E-04  7.16956910E-19
  5.60690731E-05  4.73213080E-03 -7.95518537E-03  9.58086885E-04 -2.70797997E-18
  2.49178440E-07  1.77533321E-04 -3.48016438E-04  1.15111225E-04 -2.61616117E-19
  1.14557941E-10  1.85585227E-06 -4.65407222E-06  9.53184455E-07 -2.35219341E-21
  2.78911361E-06  4.16626666E-03  1.98901713E-04  1.51794016E-07  5.78140573E-03
  1.01894175E-01 -1.22735715E-01  4.48206800E-02 -1.00525735E-16  6.10850997E-02
  4.86008040E-01 -4.55071040E-01 -9.27252732E-02  1.33614262E-16  4.83128210E-02
  1.00000000E+00  2.89127764E-08  4.92515142E-05 -1.05909652E-04  2.48515718E-05
 -5.97083380E-20  7.47252902E-06  1.37187357E-03 -2.51368675E-03  6.92817825E-05
 -3.99110582E-19  1.32819924E-03  3.64817255E-02 -5.20184038E-02  7.69756180E-03
 -2.05091636E-17  9.08755529E-04  2.82732793E-02 -3.28687591E-02  2.57405154E-02
 -5.37867606E-17  3.49483384E-06  8.65694395E-04 -1.22148400E-03  1.08212511E-03
 -2.24437021E-18  1.98010906E-08  3.93342514E-05 -7.68802784E-05  4.25362888E-05
 -9.12492248E-20  5.46289496E-04  1.29837666E-01  2.65253358E-04  2.09214798E-06
  5.78115091E-03  1.01890936E-01 -4.15192813E-02  1.23887672E-01 -2.46636455E-16
  6.10855863E-02  4.86009995E-01  1.04860634E-01  4.52430078E-01 -8.73802391E-16
  1.41444010E-02  1.52206714E-01  1.00000000E+00  6.33881341E-08  2.65883850E-02
  4.36861748E-02  8.91677985E-03 -1.28566721E-17  3.88855306E-19  1.14385146E-03
  2.65040526E-03 -8.01670772E-04  1.84575270E-18  1.49285306E-41  2.34485482E-06
  8.45667496E-06 -1.01793783E-06  2.87762100E-21  9.22885316E-53  1.06745412E-07
  4.29246199E-07  8.75707565E-08 -1.26242119E-22  1.51058224E-41  2.34817295E-06
  7.39185638E-06  4.25538071E-06 -7.54686924E-21  3.91179358E-19  1.14467049E-03
  2.12573746E-03  1.77720085E-03 -3.25266754E-18  1.01718898E-03  2.04866536E-07
  2.05131401E-07  1.01737671E-03  9.02103186E-96  7.80481257E-13  4.23971132E-12
  8.65056351E-13 -1.24712317E-27  0.00000000E+00  3.77253247E-16  2.37488320E-15
  7.95092581E-17  9.35690641E-32  3.63456936E-12  5.21668335E-17  2.01943028E-12
  1.00000000E+00  2.65883850E-02  2.98493812E-01  3.29566904E-01  6.72678609E-02
 -9.69902640E-17  1.14385146E-03  4.65343398E-02  6.75924490E-02 -2.04447568E-02
  4.70716488E-17  2.34485482E-06  1.52711465E-03  3.01717788E-03 -3.63180506E-04
  1.02667945E-18  1.06745412E-07  2.93227593E-04  6.32203684E-04  1.28976226E-04
 -1.85932299E-19  2.34817295E-06  1.52827565E-03  2.63558426E-03  1.51726628E-03
 -2.69085447E-18  1.14467049E-03  4.65534822E-02  5.41969969E-02  4.53108396E-02
 -8.29287794E-17  3.04856017E-02  1.57958181E-04  1.58079961E-04  3.04893695E-02
  7.80481257E-13  5.63355794E-07  1.61753600E-06  3.30036571E-07 -4.75802826E-22
  3.77253247E-16  9.94828380E-09  3.31343834E-08  1.10931361E-09  1.30547610E-24
  2.40635379E-07  3.25513079E-10  1.69926554E-07  2.48362390E-01  1.00000000E+00
 -4.36861748E-02 -3.29566904E-01 -2.94979322E-01 -9.37446014E-02  1.35165791E-16
 -2.65040526E-03 -6.75924490E-02 -8.85136172E-02  3.24973117E-02 -7.48212396E-17
 -8.45667496E-06 -3.01717788E-03 -5.61944053E-03  7.37599924E-04 -2.08513033E-18
 -4.29246199E-07 -6.32203684E-04 -1.28669150E-03 -2.81762970E-04  4.06189871E-19
 -7.39185638E-06 -2.63558426E-03 -4.16355691E-03 -2.68973754E-03  4.77021890E-18
 -2.12573746E-03 -5.41969969E-02 -5.01125605E-02 -5.77259802E-02  1.05651211E-16
 -3.40091238E-02 -3.15852575E-04 -2.55811836E-04 -1.99234120E-02 -4.23971132E-12
 -1.61753600E-06 -4.47030127E-06 -9.48173809E-07  1.36695087E-21 -2.37488320E-15
 -3.31343834E-08 -1.07249239E-07 -3.69502799E-09 -4.34842834E-24 -6.22725543E-07
 -1.08693996E-09 -4.71085513E-07  3.07793116E-16 -6.95776166E-17  1.00000000E+00
 -8.91677985E-03 -6.72678609E-02 -9.37446014E-02  1.45171458E-01  2.75886733E-17
  8.01670772E-04  2.04447568E-02  3.24973117E-02  9.09631159E-03  2.26312564E-17
  1.01793783E-06  3.63180506E-04  7.37599924E-04  4.19498624E-04  2.50989076E-19
 -8.75707565E-08 -1.28976226E-04 -2.81762970E-04  3.69454331E-05  8.28670222E-20
 -4.25538071E-06 -1.51726628E-03 -2.68973754E-03 -1.03975993E-03  2.74614339E-18
 -1.77720085E-03 -4.53108396E-02 -5.77259802E-02 -2.93268311E-02  8.83286039E-17
  2.90126424E-02  8.92861032E-05 -2.06039548E-04 -4.00232367E-02 -8.65056351E-13
 -3.30036571E-07 -9.48173809E-07 -1.66867195E-08  2.78908030E-22 -7.95092581E-17
 -1.10931361E-09 -3.69502799E-09  2.99482886E-09 -1.45582028E-25 -2.32855574E-07
 -6.20812511E-11  6.20212030E-08  5.75170757E-17 -1.50897990E-16  0.00000000E+00
  1.00000000E+00  1.28566721E-17  9.69902640E-17  1.35165791E-16  2.75886733E-17
  1.64305657E-01 -1.84575270E-18 -4.70716488E-17 -7.48212396E-17  2.26312564E-17
  1.89258065E-02 -2.87762100E-21 -1.02667945E-18 -2.08513033E-18  2.50989076E-19
  5.08284213E-04  1.26242119E-22  1.85932299E-19  4.06189871E-19  8.28670222E-20
  9.44280538E-05  7.54686924E-21  2.69085447E-18  4.77021890E-18  2.74614339E-18
  5.08681585E-04  3.25266754E-18  8.29287794E-17  1.05651211E-16  8.83286039E-17
  1.89343784E-02 -6.03055229E-17 -2.07737820E-19  3.76115472E-19  7.61824135E-17
  1.24712317E-27  4.75802826E-22  1.36695087E-21  2.78908030E-22  1.76775456E-07
 -9.35690641E-32 -1.30547610E-24 -4.34842834E-24 -1.45582028E-25  3.11853555E-09
  3.90079008E-22  7.41870502E-27 -1.70696752E-22 -7.28799087E-32  2.04315539E-31
 -1.30258264E-46 -2.59694320E-47  1.00000000E+00  8.88424017E-19  1.26320676E-03
  2.92715020E-03 -7.72108474E-04  1.81696208E-18  4.15816668E-40  3.49292959E-06
  1.11351303E-05 -5.58991274E-06  1.20997491E-20  5.40065296E-68  1.61150042E-09
  7.20785179E-09 -2.14683477E-09  4.95439143E-24  1.47225279E-74  2.64963546E-10
  1.29521865E-09 -2.11748576E-11  1.77244852E-25  3.15953097E-53  9.38978532E-08
  3.77545207E-07  8.54157144E-08 -1.27449649E-22  2.41845956E-25  2.05744451E-04
  5.62474885E-04  1.33199226E-04 -2.01503751E-19  5.44616205E-06  1.39591865E-10
  3.74728463E-08  1.48084008E-03  0.00000000E+00  3.77253247E-16  2.37488320E-15
  7.95092581E-17  9.35690641E-32  0.00000000E+00  1.32352584E-20  9.47072263E-20
 -9.05143163E-21  2.76337963E-35  2.51067327E-14  7.73708215E-21  2.95521187E-16
  3.04987038E-06  4.47243006E-02  5.17653303E-02 -5.31703981E-02  1.09412038E-16
  1.00000000E+00  1.26320676E-03  4.92679015E-02  7.18434953E-02 -1.89505040E-02
  4.45952199E-17  3.49292959E-06  1.89227713E-03  3.31868299E-03 -1.66600191E-03
  3.60617526E-18  1.61150042E-09  3.17846220E-05  7.53841746E-05 -2.24529266E-05
  5.18160916E-20  2.64963546E-10  1.22404593E-05  3.16710808E-05 -5.17774068E-07
  4.33404510E-21  9.38978532E-08  2.73906286E-04  5.90151022E-04  1.33515590E-04
 -1.99219959E-19  2.05744451E-04  1.76113287E-02  2.85372124E-02  6.75787439E-03
 -1.02233104E-17  1.13225154E-03  2.08624942E-06  5.74574690E-05  3.92739296E-02
  3.77253247E-16  9.94828380E-09  3.31343834E-08  1.10931361E-09  1.30547610E-24
  1.32352584E-20  4.35420739E-11  1.65098631E-10 -1.57789329E-11  4.81726910E-26
  1.26462377E-08  1.74466664E-12  9.09887554E-10  4.47243006E-02  4.02773183E-01
  2.88955938E-01 -2.96799077E-01  6.10741936E-16  2.48362390E-01  1.00000000E+00
 -2.92715020E-03 -7.18434953E-02 -9.46869801E-02  3.02923286E-02 -7.12853366E-17
 -1.11351303E-05 -3.31868299E-03 -5.36450788E-03  3.01121358E-03 -6.51797809E-18
 -7.20785179E-09 -7.53841746E-05 -1.69541690E-04  5.34912347E-05 -1.23445231E-19
 -1.29521865E-09 -3.16710808E-05 -7.83167081E-05  1.34342676E-06 -1.12451985E-20
 -3.77545207E-07 -5.90151022E-04 -1.19972541E-03 -2.91363378E-04  4.34746236E-19
 -5.62474885E-04 -2.85372124E-02 -4.28466297E-02 -1.17070996E-02  1.77104968E-17
 -1.55580819E-03 -4.91997829E-06 -1.15420705E-04 -4.60238929E-02 -2.37488320E-15
 -3.31343834E-08 -1.07249239E-07 -3.69502799E-09 -4.34842834E-24 -9.47072263E-20
 -1.65098631E-10 -6.12360559E-10  5.98293174E-11 -1.82657422E-25 -3.77302771E-08
 -6.52016240E-12 -2.88196906E-09 -5.17653303E-02 -2.88955938E-01 -3.45116016E-02
  2.85322875E-01 -5.87126641E-16  2.00098325E-16 -9.60127184E-16  1.00000000E+00
  7.72108474E-04  1.89505040E-02  3.02923286E-02  1.21642968E-02  1.88032758E-17
  5.58991274E-06  1.66600191E-03  3.01121358E-03 -8.77807551E-04  3.27207026E-18
  2.14683477E-09  2.24529266E-05  5.34912347E-05 -5.88069319E-06  3.67677531E-20
  2.11748576E-11  5.17774068E-07  1.34342676E-06  3.83573700E-06  1.83841915E-22
 -8.54157144E-08 -1.33515590E-04 -2.91363378E-04  2.22091918E-05  9.83568582E-20
 -1.33199226E-04 -6.75787439E-03 -1.17070996E-02  3.81786616E-03  4.19400854E-18
  1.41043300E-03  2.01183158E-06 -5.03504374E-05 -3.22486839E-02 -7.95092581E-17
 -1.10931361E-09 -3.69502799E-09  2.99482886E-09 -1.45582028E-25  9.05143163E-21
  1.57789329E-11  5.98293174E-11  7.92939705E-12  1.74570752E-26 -7.04753586E-09
  3.81113467E-13  7.04034012E-10  5.31703981E-02  2.96799077E-01  2.85322875E-01
 -4.97960002E-02  6.03063036E-16  2.62354908E-17  7.54489951E-17 -5.84779622E-32
  1.00000000E+00 -1.81696208E-18 -4.45952199E-17 -7.12853366E-17  1.88032758E-17
  2.01546499E-02 -1.20997491E-20 -3.60617526E-18 -6.51797809E-18  3.27207026E-18
  6.33842577E-04 -4.95439143E-24 -5.18160916E-20 -1.23445231E-19  3.67677531E-20
  1.00514938E-05 -1.77244852E-25 -4.33404510E-21 -1.12451985E-20  1.83841915E-22
  3.85769998E-06  1.27449649E-22  1.99219959E-19  4.34746236E-19  9.83568582E-20
  8.81271552E-05  2.01503751E-19  1.02233104E-17  1.77104968E-17  4.19400854E-18
  6.59021502E-03 -2.92149060E-18 -4.45043392E-21  8.63637798E-20  5.82407833E-17
 -9.35690641E-32 -1.30547610E-24 -4.34842834E-24 -1.45582028E-25  3.11853555E-09
 -2.76337963E-35 -4.81726910E-26 -1.82657422E-25  1.74570752E-26  1.36474504E-11
  9.82568154E-24 -1.42912024E-27 -1.67909327E-24 -1.09412038E-16 -6.10741936E-16
 -5.87126641E-16  6.03063036E-16  2.43271401E-01  1.49867846E-32 -3.08986688E-32
  0.00000000E+00  0.00000000E+00  1.00000000E+00  4.44493833E-03  8.43832651E-02
  8.72231161E-02  6.84032489E-02 -1.24626122E-16  1.14946288E-03  3.30926736E-02
  4.77834330E-02  5.94354396E-03 -6.61233956E-18  4.69613642E-06  1.03505424E-03
  1.90849174E-03  2.88671229E-04 -3.64392747E-19  7.41680361E-08  8.62330313E-05
  1.69957607E-04  7.32511064E-05 -1.25430234E-19  2.85181282E-07  1.92426968E-04
  3.03518210E-04  2.53656012E-04 -4.64233965E-19  6.94927243E-05  5.41006775E-03
  5.73149530E-03  7.04009814E-03 -1.31669580E-17  5.54692998E-02  2.06833017E-04
  1.49461234E-05  2.79609580E-03  3.63456936E-12  2.40635379E-07  6.22725543E-07
  2.32855574E-07 -3.90079008E-22  2.51067327E-14  1.26462377E-08  3.77302771E-08
  7.04753586E-09 -9.82568154E-24  5.59348657E-08  4.11819602E-10  2.83715240E-07
  6.10855877E-02  4.86010001E-01  1.04860636E-01  4.52430081E-01 -8.73802397E-16
  5.78115105E-03  1.01890938E-01 -4.15192821E-02  1.23887673E-01 -2.46636459E-16
  1.00000000E+00  5.60690731E-05  4.73213080E-03  7.95518537E-03 -9.58086885E-04
  2.70797997E-18  2.49178440E-07  1.77533321E-04  3.48016438E-04 -1.15111225E-04
  2.61616117E-19  1.14557941E-10  1.85585227E-06  4.65407222E-06 -9.53184455E-07
  2.35219341E-21  1.17574263E-11  4.82167356E-07  1.29920889E-06  2.80482495E-08
  8.13996524E-23  2.61557141E-09  1.18376124E-05  2.73329062E-05  6.05946473E-06
 -8.98375816E-21  5.71623743E-06  1.16596450E-03  2.10470388E-03  4.79472069E-04
 -7.16956910E-19  1.98901713E-04  1.51794016E-07  2.78911361E-06  4.16626666E-03
  5.21668335E-17  3.25513079E-10  1.08693996E-09  6.20812511E-11 -7.41870502E-27
  7.73708215E-21  1.74466664E-12  6.52016240E-12 -3.81113467E-13  1.42912024E-27
  4.11819602E-10  6.72822756E-14  4.63163947E-11  5.78140573E-03  1.01894175E-01
  1.22735715E-01 -4.48206800E-02  1.00525735E-16  6.10850997E-02  4.86008040E-01
  4.55071040E-01  9.27252732E-02 -1.33614262E-16  4.83128210E-02  1.00000000E+00
  9.08755529E-04  2.82732793E-02  3.28687591E-02 -2.57405154E-02  5.37867606E-17
  3.49483384E-06  8.65694395E-04  1.22148400E-03 -1.08212511E-03  2.24437021E-18
  1.98010906E-08  3.93342514E-05  7.68802784E-05 -4.25362888E-05  9.12492248E-20
  2.89127764E-08  4.92515142E-05  1.05909652E-04 -2.48515718E-05  5.97083380E-20
  7.47252902E-06  1.37187357E-03  2.51368675E-03 -6.92817825E-05  3.99110582E-19
  1.32819924E-03  3.64817255E-02  5.20184038E-02 -7.69756180E-03  2.05091636E-17
  2.65253358E-04  2.09214798E-06  5.46289496E-04  1.29837666E-01  2.01943028E-12
  1.69926554E-07  4.71085513E-07 -6.20212030E-08  1.70696752E-22  2.95521187E-16
  9.09887554E-10  2.88196906E-09 -7.04034012E-10  1.67909327E-24  2.83715240E-07
  4.63163947E-11  4.06637549E-09  5.78115091E-03  1.01890936E-01  4.15192813E-02
 -1.23887672E-01  2.46636455E-16  6.10855863E-02  4.86009995E-01 -1.04860634E-01
 -4.52430078E-01  8.73802391E-16  1.41444010E-02  1.52206714E-01  1.00000000E+00
Kinetic Energy Matrix                      R   N=        1830
  1.58911217E+01 -8.58900137E-02  4.72249973E-01  0.00000000E+00  0.00000000E+00
  1.47772808E+00  0.00000000E+00  0.00000000E+00  0.00000000E+00  1.47772808E+00
  0.00000000E+00  0.00000000E+00  0.00000000E+00  0.00000000E+00  1.47772808E+00
 -3.53940688E-05 -8.43110030E-03  7.71716965E-03 -8.71084328E-03  1.78447754E-17
  1.58911217E+01 -8.43110030E-03  4.60533250E-02 -9.92832755E-02  1.12067130E-01
 -2.29577401E-16 -8.58900137E-02  4.72249973E-01 -7.71716965E-03  9.92832755E-02
 -9.41345093E-02  1.90829709E-01 -3.90928086E-16  0.00000000E+00  0.00000000E+00
  1.47772808E+00  8.71084328E-03 -1.12067130E-01  1.90829709E-01 -1.40474564E-01
  4.41264537E-16  0.00000000E+00  0.00000000E+00  0.00000000E+00  1.47772808E+00
 -1.78447754E-17  2.29577401E-16 -3.90928086E-16  4.41264537E-16  7.49266469E-02
  0.00000000E+00  0.00000000E+00  0.00000000E+00  0.00000000E+00  1.47772808E+00
  0.00000000E+00 -2.29206936E-03  3.36295826E-03 -1.12334018E-03  2.54955662E-18
 -3.56485680E-05 -8.43112877E-03  1.13960470E-02  2.32475645E-03 -3.35129104E-18
  1.58911217E+01 -2.29206936E-03 -1.75273954E-02  9.77820148E-03 -3.26624528E-03
  7.41313939E-18 -8.43112877E-03  4.61444255E-02 -1.46862493E-01 -2.99594701E-02
  4.31885687E-17 -8.58900137E-02  4.72249973E-01 -3.36295826E-03 -9.77820148E-03
 -1.01223126E-02  2.08512477E-03 -4.73244329E-18 -1.13960470E-02  1.46862493E-01
 -2.94440655E-01 -7.53749244E-02  1.08657967E-16  0.00000000E+00  0.00000000E+00
  1.47772808E+00  1.12334018E-03  3.26624528E-03  2.08512477E-03 -4.57654834E-03
  1.58079383E-18 -2.32475645E-03  2.99594701E-02 -7.53749244E-02  5.96739312E-02
  2.21658711E-17  0.00000000E+00  0.00000000E+00  0.00000000E+00  1.47772808E+00
 -2.54955662E-18 -7.41313939E-18 -4.73244329E-18  1.58079383E-18 -3.88004715E-03
  3.35129104E-18 -4.31885687E-17  1.08657967E-16  2.21658711E-17  7.50501702E-02
  0.00000000E+00  0.00000000E+00  0.00000000E+00  0.00000000E+00  1.47772808E+00
  0.00000000E+00 -7.86369097E-04  1.58252465E-03  3.22764969E-04 -4.65253804E-19
  0.00000000E+00 -2.29398733E-03  2.65556483E-03  2.35214255E-03 -4.32149332E-18
 -3.55423808E-05 -8.43111840E-03  3.68545215E-03  1.10344154E-02 -2.11930607E-17
  1.58911217E+01 -7.86369097E-04 -1.21380658E-02  1.23197389E-02  2.51268134E-03
 -3.62193752E-18 -2.29398733E-03 -1.75307675E-02  7.71133828E-03  6.83024820E-03
 -1.25489299E-17 -8.43111840E-03  4.61064794E-02 -4.74612832E-02 -1.42101293E-01
  2.72924411E-16 -8.58900137E-02  4.72249973E-01 -1.58252465E-03 -1.23197389E-02
  6.44032044E-03  2.00491653E-03 -2.89001327E-18 -2.65556483E-03 -7.71133828E-03
 -7.78297102E-03 -3.45785358E-03  6.35297003E-18 -3.68545215E-03  4.74612832E-02
  3.63910900E-02 -1.15593020E-01  2.22011753E-16  0.00000000E+00  0.00000000E+00
  1.47772808E+00 -3.22764969E-04 -2.51268134E-03  2.00491653E-03 -2.98092081E-03
 -5.89434765E-19 -2.35214255E-03 -6.83024820E-03 -3.45785358E-03 -6.94182293E-03
  5.62708579E-18 -1.10344154E-02  1.42101293E-01 -1.15593020E-01 -2.71092175E-01
  6.64713529E-16  0.00000000E+00  0.00000000E+00  0.00000000E+00  1.47772808E+00
  4.65253804E-19  3.62193752E-18 -2.89001327E-18 -5.89434765E-19 -3.38983503E-03
  4.32149332E-18  1.25489299E-17  6.35297003E-18  5.62708579E-18 -3.87906037E-03
  2.11930607E-17 -2.72924411E-16  2.22011753E-16  6.64713529E-16  7.49987126E-02
  0.00000000E+00  0.00000000E+00  0.00000000E+00  0.00000000E+00  1.47772808E+00
  0.00000000E+00 -2.29398733E-03  2.65556483E-03  2.35214255E-03 -4.32149332E-18
  0.00000000E+00 -7.87015709E-04  5.11735627E-04  1.53302082E-03 -2.94440029E-18
  0.00000000E+00 -2.29227956E-03 -7.09216945E-04  3.47416773E-03 -6.86866949E-18
 -3.53940688E-05 -8.43110030E-03 -7.71716965E-03  8.71084328E-03 -1.78447754E-17
  1.58911217E+01 -2.29398733E-03 -1.75307675E-02  7.71133828E-03  6.83024820E-03
 -1.25489299E-17 -7.87015709E-04 -1.21421388E-02  3.98162305E-03  1.19278602E-02
 -2.29092747E-17 -2.29227956E-03 -1.75277652E-02 -2.06183898E-03  1.01001175E-02
 -1.99686296E-17 -8.43110030E-03  4.60533250E-02  9.92832755E-02 -1.12067130E-01
  2.29577401E-16 -8.58900137E-02  4.72249973E-01 -2.65556483E-03 -7.71133828E-03
 -7.78297102E-03 -3.45785358E-03  6.35297003E-18 -5.11735627E-04 -3.98162305E-03
 -2.36467689E-03  3.07386110E-03 -5.90381906E-18  7.09216945E-04  2.06183898E-03
 -4.15765383E-03  1.36041201E-03 -2.68962849E-18  7.71716965E-03 -9.92832755E-02
 -9.41345093E-02  1.90829709E-01 -3.90928086E-16  0.00000000E+00  0.00000000E+00
  1.47772808E+00 -2.35214255E-03 -6.83024820E-03 -3.45785358E-03 -6.94182293E-03
  5.62708579E-18 -1.53302082E-03 -1.19278602E-02  3.07386110E-03  5.81769386E-03
 -1.76862369E-17 -3.47416773E-03 -1.01001175E-02  1.36041201E-03 -1.05440489E-02
  1.31754050E-17 -8.71084328E-03  1.12067130E-01  1.90829709E-01 -1.40474564E-01
  4.41264537E-16  0.00000000E+00  0.00000000E+00  0.00000000E+00  1.47772808E+00
  4.32149332E-18  1.25489299E-17  6.35297003E-18  5.62708579E-18 -3.87906037E-03
  2.94440029E-18  2.29092747E-17 -5.90381906E-18 -1.76862369E-17 -3.39075835E-03
  6.86866949E-18  1.99686296E-17 -2.68962849E-18  1.31754050E-17 -3.87993918E-03
  1.78447754E-17 -2.29577401E-16 -3.90928086E-16  4.41264537E-16  7.49266469E-02
  0.00000000E+00  0.00000000E+00  0.00000000E+00  0.00000000E+00  1.47772808E+00
 -3.55423808E-05 -8.43111840E-03  3.68545215E-03  1.10344154E-02 -2.11930607E-17
  0.00000000E+00 -2.29227956E-03 -7.09216945E-04  3.47416773E-03 -6.86866949E-18
  0.00000000E+00 -7.86161413E-04 -1.07063031E-03  1.20880094E-03 -2.47628454E-18
  0.00000000E+00 -2.29206936E-03 -3.36295826E-03  1.12334018E-03 -2.54955662E-18
 -3.56485680E-05 -8.43112877E-03 -1.13960470E-02 -2.32475645E-03  3.35129104E-18
  1.58911217E+01 -8.43111840E-03  4.61064794E-02 -4.74612832E-02 -1.42101293E-01
  2.72924411E-16 -2.29227956E-03 -1.75277652E-02 -2.06183898E-03  1.01001175E-02
 -1.99686296E-17 -7.86161413E-04 -1.21367570E-02 -8.33616988E-03  9.41199767E-03
 -1.92809118E-17 -2.29206936E-03 -1.75273954E-02 -9.77820148E-03  3.26624528E-03
 -7.41313939E-18 -8.43112877E-03  4.61444255E-02  1.46862493E-01  2.99594701E-02
 -4.31885687E-17 -8.58900137E-02  4.72249973E-01 -3.68545215E-03  4.74612832E-02
  3.63910900E-02 -1.15593020E-01  2.22011753E-16  7.09216945E-04  2.06183898E-03
 -4.15765383E-03  1.36041201E-03 -2.68962849E-18  1.07063031E-03  8.33616988E-03
  1.11225453E-03 -5.08277350E-03  1.04122962E-17  3.36295826E-03  9.77820148E-03
 -1.01223126E-02  2.08512477E-03 -4.73244329E-18  1.13960470E-02 -1.46862493E-01
 -2.94440655E-01 -7.53749244E-02  1.08657967E-16  0.00000000E+00  0.00000000E+00
  1.47772808E+00 -1.10344154E-02  1.42101293E-01 -1.15593020E-01 -2.71092175E-01
  6.64713529E-16 -3.47416773E-03 -1.01001175E-02  1.36041201E-03 -1.05440489E-02
  1.31754050E-17 -1.20880094E-03 -9.41199767E-03 -5.08277350E-03  2.34919463E-03
 -1.17560593E-17 -1.12334018E-03 -3.26624528E-03  2.08512477E-03 -4.57654834E-03
  1.58079383E-18  2.32475645E-03 -2.99594701E-02 -7.53749244E-02  5.96739312E-02
  2.21658711E-17  0.00000000E+00  0.00000000E+00  0.00000000E+00  1.47772808E+00
  2.11930607E-17 -2.72924411E-16  2.22011753E-16  6.64713529E-16  7.49987126E-02
  6.86866949E-18  1.99686296E-17 -2.68962849E-18  1.31754050E-17 -3.87993918E-03
  2.47628454E-18  1.92809118E-17  1.04122962E-17 -1.17560593E-17 -3.38953827E-03
  2.54955662E-18  7.41313939E-18 -4.73244329E-18  1.58079383E-18 -3.88004715E-03
 -3.35129104E-18  4.31885687E-17  1.08657967E-16  2.21658711E-17  7.50501702E-02
  0.00000000E+00  0.00000000E+00  0.00000000E+00  0.00000000E+00  1.47772808E+00
 -2.30581547E-03 -1.49750251E-02  2.52716651E-04 -9.14823385E-04  1.81558692E-18
 -1.08452365E-02  1.03737710E-01  8.09145154E-02  2.42100140E-01 -4.64979820E-16
 -2.30601755E-03 -1.49747496E-02 -7.49159323E-04 -5.77317574E-04  1.05047008E-18
 -1.57947840E-04 -3.79960836E-03 -3.11734586E-03 -3.82222884E-03  7.14805396E-18
 -2.89026746E-05 -1.45227396E-03 -6.86304281E-04 -2.05526643E-03  3.94742763E-18
 -1.57904156E-04 -3.79900803E-03  1.94634147E-04 -4.92779808E-03  9.65751041E-18
  7.60031884E-01 -1.57762202E-04 -3.79705678E-03  4.36313802E-03 -2.29432926E-03
  4.94450563E-18 -2.30590957E-03 -1.49748969E-02  9.17133244E-04 -2.38179506E-04
  5.61981087E-19 -1.08460159E-02  1.03729691E-01 -1.69275433E-01  1.91043697E-01
 -3.91369045E-16 -2.30614332E-03 -1.49745779E-02  1.25260686E-04 -9.35401666E-04
  1.84246431E-18 -1.57845504E-04 -3.79820192E-03  1.75175588E-03 -4.60913225E-03
  9.19760904E-18 -2.88623782E-05 -1.45113596E-03  1.43576078E-03 -1.62086725E-03
  3.32043870E-18 -1.06935353E-02  7.60031884E-01 -1.57947840E-04 -3.79960836E-03
  3.11734586E-03  3.82222884E-03 -7.14805396E-18 -2.89026746E-05 -1.45227396E-03
  6.86304281E-04  2.05526643E-03 -3.94742763E-18 -1.57904156E-04 -3.79900803E-03
 -1.94634147E-04  4.92779808E-03 -9.65751041E-18 -2.30581547E-03 -1.49750251E-02
 -2.52716651E-04  9.14823385E-04 -1.81558692E-18 -1.08452365E-02  1.03737710E-01
 -8.09145154E-02 -2.42100140E-01  4.64979820E-16 -2.30601755E-03 -1.49747496E-02
  7.49159323E-04  5.77317574E-04 -1.05047008E-18 -1.17661992E-04 -5.95906669E-04
  7.60031884E-01 -2.30614332E-03 -1.49745779E-02 -1.25260686E-04  9.35401666E-04
 -1.84246431E-18 -1.57845504E-04 -3.79820192E-03 -1.75175588E-03  4.60913225E-03
 -9.19760904E-18 -2.88623782E-05 -1.45113596E-03 -1.43576078E-03  1.62086725E-03
 -3.32043870E-18 -1.57762202E-04 -3.79705678E-03 -4.36313802E-03  2.29432926E-03
 -4.94450563E-18 -2.30590957E-03 -1.49748969E-02 -9.17133244E-04  2.38179506E-04
 -5.61981087E-19 -1.08460159E-02  1.03729691E-01  1.69275433E-01 -1.91043697E-01
  3.91369045E-16 -5.95906669E-04 -1.17544232E-04 -1.06935353E-02  7.60031884E-01
  0.00000000E+00 -5.70158853E-07  2.11310060E-06  4.31094832E-07 -6.21466881E-22
  0.00000000E+00 -9.50078999E-06  2.68056939E-05  1.54316355E-05 -2.73678298E-20
  0.00000000E+00 -1.65122841E-03  2.18349576E-03  1.82548908E-03 -3.34104560E-18
 -3.01233856E-06 -8.00057657E-03  1.05502055E-02  2.15340117E-03 -3.10488464E-18
  0.00000000E+00 -1.65038980E-03  2.72319414E-03 -8.23687301E-04  1.89644317E-18
  0.00000000E+00 -9.48875619E-06  3.06721560E-05 -3.69203593E-06  1.04370619E-20
 -7.57944004E-07 -9.53415941E-04 -9.53300544E-04 -7.57050941E-07  1.58911217E+01
 -5.70158853E-07 -3.98615065E-04  7.38530389E-04  1.50667997E-04 -2.17203184E-19
 -9.50078999E-06 -1.56535083E-03  2.24202773E-03  1.29070170E-03 -2.28904476E-18
 -1.65122841E-03 -1.59908938E-02  9.48108168E-03  7.92656042E-03 -1.45073450E-17
 -8.00057657E-03  2.08886897E-02 -9.92240102E-02 -2.02526007E-02  2.92012420E-17
 -1.65038980E-03 -1.59882954E-02  1.18305211E-02 -3.57838974E-03  8.23882168E-18
 -9.48875619E-06 -1.56439302E-03  2.56707267E-03 -3.09000924E-04  8.73518525E-19
 -1.90373351E-04 -1.05867082E-02 -1.05860028E-02 -1.90248327E-04 -8.58900137E-02
  4.72249973E-01 -2.11310060E-06 -7.38530389E-04  1.26117122E-03  2.80091471E-04
 -4.03780236E-19 -2.68056939E-05 -2.24202773E-03  2.81594160E-03  1.87747473E-03
 -3.32968006E-18 -2.18349576E-03 -9.48108168E-03 -3.04792336E-03  7.98855182E-04
 -1.46208028E-18 -1.05502055E-02  9.92240102E-02 -2.14550844E-01 -5.25307866E-02
  7.57415918E-17 -2.72319414E-03 -1.18305211E-02 -2.50667934E-03 -4.52692660E-04
  1.04227163E-18 -3.06721560E-05 -2.56707267E-03  3.83299804E-03 -5.14954950E-04
  1.45573250E-18 -2.67179198E-04 -4.13484276E-03 -7.05886988E-03 -3.29928926E-04
  0.00000000E+00  0.00000000E+00  1.47772808E+00 -4.31094832E-07 -1.50667997E-04
  2.80091471E-04 -5.46135205E-05 -8.23754313E-20 -1.54316355E-05 -1.29070170E-03
  1.87747473E-03  6.35487251E-04 -1.91684681E-18 -1.82548908E-03 -7.92656042E-03
  7.98855182E-04 -3.33557179E-03 -1.22235712E-18 -2.15340117E-03  2.02526007E-02
 -5.25307866E-02  3.20923365E-02  1.54596071E-17  8.23687301E-04  3.57838974E-03
 -4.52692660E-04 -3.86640099E-03 -3.15256959E-19  3.69203593E-06  3.09000924E-04
 -5.14954950E-04 -3.83083755E-04 -1.75227875E-19 -2.15195208E-04 -8.30629767E-03
  6.02180957E-03  9.32652460E-05  0.00000000E+00  0.00000000E+00  0.00000000E+00
  1.47772808E+00  6.21466881E-22  2.17203184E-19 -4.03780236E-19 -8.23754313E-20
 -1.11755138E-04  2.73678298E-20  2.28904476E-18 -3.32968006E-18 -1.91684681E-18
 -4.45346759E-04  3.34104560E-18  1.45073450E-17 -1.46208028E-18 -1.22235712E-18
 -4.00344641E-03  3.10488464E-18 -2.92012420E-17  7.57415918E-17  1.54596071E-17
  4.28143890E-02 -1.89644317E-18 -8.23882168E-18  1.04227163E-18 -3.15256959E-19
 -4.00332740E-03 -1.04370619E-20 -8.73518525E-19  1.45573250E-18 -1.75227875E-19
 -4.45069361E-04  3.92828698E-19  1.58106604E-17 -1.25169011E-17 -2.16995906E-19
  0.00000000E+00  0.00000000E+00  0.00000000E+00  0.00000000E+00  1.47772808E+00
  0.00000000E+00 -2.07890539E-09  9.62253436E-09 -1.57313822E-10  1.31680059E-24
  0.00000000E+00 -5.06575030E-07  1.87886292E-06  4.25073385E-07 -6.34256286E-22
  0.00000000E+00 -4.45373554E-04  9.80685250E-04  2.32235288E-04 -3.51325475E-19
  0.00000000E+00 -1.77012919E-03  2.88919301E-03 -7.62096324E-04  1.79340102E-18
  0.00000000E+00 -1.35503201E-05  3.85224158E-05 -1.93385202E-05  4.18595518E-20
  0.00000000E+00 -1.14308024E-08  4.81201999E-08 -1.43324421E-08  3.30759168E-23
 -1.59048531E-07 -1.20924694E-03 -1.43427284E-05 -8.44307500E-10 -1.03696043E-04
 -8.25343488E-03  6.48506318E-03 -6.66108743E-03  1.37069343E-17  1.58911217E+01
 -2.07890539E-09 -2.49075308E-05  5.77178384E-05 -9.43598993E-07  7.89842684E-21
 -5.06575030E-07 -3.76213325E-04  6.97339027E-04  1.57765772E-04 -2.35403901E-19
 -4.45373554E-04 -9.53538616E-03  1.08548009E-02  2.57051670E-03 -3.88867691E-18
 -1.77012919E-03 -1.63423713E-02  1.16769127E-02 -3.08007537E-03  7.24817866E-18
 -1.35503201E-05 -1.85775885E-03  2.68955896E-03 -1.35017727E-03  2.92255121E-18
 -1.14308024E-08 -5.81233805E-05  1.22169711E-04 -3.63878437E-05  8.39746138E-20
 -7.96626457E-05 -1.20333193E-02 -9.80548577E-04 -4.18064458E-06 -8.25343488E-03
  6.11697558E-02 -1.23228592E-01  1.26573389E-01 -2.60457942E-16 -8.58900137E-02
  4.72249973E-01 -9.62253436E-09 -5.77178384E-05  1.25772111E-04 -2.17141344E-06
  1.81758886E-20 -1.87886292E-06 -6.97339027E-04  1.19088879E-03  2.93283897E-04
 -4.37611861E-19 -9.80685250E-04 -1.08548009E-02  8.49239578E-03  2.66024103E-03
 -4.02441185E-18 -2.88919301E-03 -1.16769127E-02 -3.87033595E-03 -3.75161763E-05
  8.82848360E-20 -3.85224158E-05 -2.68955896E-03  3.42800109E-03 -1.98706377E-03
  4.30113567E-18 -4.81201999E-08 -1.22169711E-04  2.38939016E-04 -7.60394886E-05
  1.75481316E-19 -1.40603058E-04 -7.53934180E-03 -1.13086745E-03 -8.95422572E-06
 -6.48506318E-03  1.23228592E-01 -1.22823892E-01  2.24923322E-01 -4.62838721E-16
  0.00000000E+00  0.00000000E+00  1.47772808E+00  1.57313822E-10  9.43598993E-07
 -2.17141344E-06 -7.01288986E-06 -2.97148172E-22 -4.25073385E-07 -1.57765772E-04
  2.93283897E-04 -3.91001767E-05 -9.90051763E-20 -2.32235288E-04 -2.57051670E-03
  2.66024103E-03 -2.11132429E-03 -9.53017743E-19  7.62096324E-04  3.08007537E-03
 -3.75161763E-05 -4.00266818E-03 -2.32873154E-20  1.93385202E-05  1.35017727E-03
 -1.98706377E-03  4.67281282E-04 -2.15919997E-18  1.43324421E-08  3.63878437E-05
 -7.60394886E-05  6.28971222E-06 -5.22665285E-20 -6.13358360E-05 -5.28277456E-03
  1.02519885E-03  3.66147836E-06  6.66108743E-03 -1.26573389E-01  2.24923322E-01
 -1.34872760E-01  4.75401565E-16  0.00000000E+00  0.00000000E+00  0.00000000E+00
  1.47772808E+00 -1.31680059E-24 -7.89842684E-21  1.81758886E-20 -2.97148172E-22
 -7.04838917E-06  6.34256286E-22  2.35403901E-19 -4.37611861E-19 -9.90051763E-20
 -1.05452638E-04  3.51325475E-19  3.88867691E-18 -4.02441185E-18 -9.53017743E-19
 -2.74129384E-03 -1.79340102E-18 -7.24817866E-18  8.82848360E-20 -2.32873154E-20
 -4.01256400E-03 -4.18595518E-20 -2.92255121E-18  4.30113567E-18 -2.15919997E-18
 -5.30238530E-04 -3.30759168E-23 -8.39746138E-20  1.75481316E-19 -5.22665285E-20
 -1.63583975E-05  1.05206527E-19  9.54063518E-18 -2.12353852E-18 -8.09966782E-21
 -1.37069343E-17  2.60457942E-16 -4.62838721E-16  4.75401565E-16  9.61556614E-02
  0.00000000E+00  0.00000000E+00  0.00000000E+00  0.00000000E+00  1.47772808E+00
 -2.98435808E-07 -1.13211648E-04  1.95063141E-04  8.40714994E-05 -1.43958342E-19
 -1.02333615E-06 -2.25032256E-04  3.06996985E-04  2.56563291E-04 -4.69554783E-19
 -1.25626701E-04 -3.33431397E-03  2.79897747E-03  3.43803407E-03 -6.43008793E-18
 -2.14310794E-03 -1.50529255E-02  2.62074167E-03  2.05527219E-03 -3.74456780E-18
 -1.03200554E-03 -1.10557063E-02  9.24273628E-03  1.14965807E-03 -1.27902302E-18
 -1.25929563E-05 -9.11739917E-04  1.41373547E-03  2.13836271E-04 -2.69927787E-19
 -2.04385924E-05 -1.71419908E-03 -1.09932119E-02 -1.99406863E-04 -1.08014555E-02
  1.04184621E-01 -5.78266795E-02 -2.49498098E-01  4.81869013E-16 -2.39134083E-03
 -1.48158827E-02  1.63626521E-04 -4.88238429E-04  9.71988527E-19  7.60031884E-01
 -8.04799161E-11 -1.10017088E-06  2.72139033E-06  5.87513180E-08  1.70503933E-22
 -1.33491668E-08 -1.98614947E-05  4.10036348E-05  9.09014495E-06 -1.34770425E-20
 -1.49643371E-05 -1.00410132E-03  1.52030482E-03  3.46340264E-04 -5.17884276E-19
 -1.05265799E-04 -3.01497200E-03  4.04809761E-03 -4.87534740E-04  1.37799017E-18
 -9.05020232E-07 -2.10145158E-04  3.56695846E-04 -1.17982059E-04  2.68140731E-19
 -7.00185681E-10 -3.76001123E-06  8.57181401E-06 -1.75556362E-06  4.33224142E-21
 -4.57656618E-06 -2.34144484E-03 -1.92887487E-04 -3.22729832E-07 -2.39138399E-03
 -1.48157805E-02 -4.84412796E-04  1.76898068E-04 -3.96754540E-19 -1.08015641E-02
  1.04183521E-01 -2.50953085E-01 -5.11341996E-02  7.36828061E-17 -1.05829622E-02
  7.60031884E-01 -1.25138450E-07 -6.96692638E-05  1.31875219E-04 -3.09443606E-05
  7.43468608E-20 -1.89132732E-05 -1.14478105E-03  1.75279952E-03 -4.83103454E-05
  2.78300721E-19 -1.13083202E-03 -1.16141880E-02  9.18577139E-03 -1.35928898E-03
  3.62165070E-18 -8.84737337E-04 -1.01578782E-02  7.24707698E-03 -5.67540431E-03
  1.18591880E-17 -9.70610738E-06 -7.88294655E-04  9.38784992E-04 -8.31679185E-04
  1.72493547E-18 -8.81226261E-08 -5.72589122E-05  9.87733596E-05 -5.46492838E-05
  1.17234129E-19 -4.51993717E-04 -9.39181489E-03 -2.46243143E-04 -3.53226785E-06
 -2.39134080E-03 -1.48158827E-02 -1.63626388E-04  4.88238032E-04 -9.71987737E-19
 -1.08014558E-02  1.04184618E-01  5.78266776E-02  2.49498093E-01 -4.81869002E-16
 -5.65016234E-03 -7.44381992E-03  7.60031884E-01 -3.01233856E-06 -8.00057657E-03
 -1.05502055E-02 -2.15340117E-03  3.10488464E-18  0.00000000E+00 -1.65038980E-03
 -2.72319414E-03  8.23687301E-04 -1.89644317E-18  0.00000000E+00 -9.48875619E-06
 -3.06721560E-05  3.69203593E-06 -1.04370619E-20  0.00000000E+00 -5.70158853E-07
 -2.11310060E-06 -4.31094832E-07  6.21466881E-22  0.00000000E+00 -9.50078999E-06
 -2.68056939E-05 -1.54316355E-05  2.73678298E-20  0.00000000E+00 -1.65122841E-03
 -2.18349576E-03 -1.82548908E-03  3.34104560E-18 -9.53300544E-04 -7.57050941E-07
 -7.57944004E-07 -9.53415941E-04  0.00000000E+00  0.00000000E+00  0.00000000E+00
  0.00000000E+00  0.00000000E+00  0.00000000E+00  0.00000000E+00  0.00000000E+00
  0.00000000E+00  0.00000000E+00 -2.62515555E-11  0.00000000E+00 -1.49675210E-11
  1.58911217E+01 -8.00057657E-03  2.08886897E-02  9.92240102E-02  2.02526007E-02
 -2.92012420E-17 -1.65038980E-03 -1.59882954E-02 -1.18305211E-02  3.57838974E-03
 -8.23882168E-18 -9.48875619E-06 -1.56439302E-03 -2.56707267E-03  3.09000924E-04
 -8.73518525E-19 -5.70158853E-07 -3.98615065E-04 -7.38530389E-04 -1.50667997E-04
  2.17203184E-19 -9.50078999E-06 -1.56535083E-03 -2.24202773E-03 -1.29070170E-03
  2.28904476E-18 -1.65122841E-03 -1.59908938E-02 -9.48108168E-03 -7.92656042E-03
  1.45073450E-17 -1.05860028E-02 -1.90248327E-04 -1.90373351E-04 -1.05867082E-02
  0.00000000E+00 -1.52673167E-06 -4.02853147E-06 -8.21967930E-07  1.18500402E-21
  0.00000000E+00 -3.58494249E-08 -1.12026315E-07 -3.75055466E-09 -4.41377391E-24
 -5.80821119E-07 -1.19717349E-09 -4.21435387E-07 -8.58900137E-02  4.72249973E-01
  1.05502055E-02 -9.92240102E-02 -2.14550844E-01 -5.25307866E-02  7.57415918E-17
  2.72319414E-03  1.18305211E-02 -2.50667934E-03 -4.52692660E-04  1.04227163E-18
  3.06721560E-05  2.56707267E-03  3.83299804E-03 -5.14954950E-04  1.45573250E-18
  2.11310060E-06  7.38530389E-04  1.26117122E-03  2.80091471E-04 -4.03780236E-19
  2.68056939E-05  2.24202773E-03  2.81594160E-03  1.87747473E-03 -3.32968006E-18
  2.18349576E-03  9.48108168E-03 -3.04792336E-03  7.98855182E-04 -1.46208028E-18
  7.05886988E-03  3.29928926E-04  2.67179198E-04  4.13484276E-03  0.00000000E+00
  4.02853147E-06  1.01216353E-05  2.15506062E-06 -3.10687974E-21  0.00000000E+00
  1.12026315E-07  3.38016621E-07  1.16695136E-08  1.37330607E-23  1.38579804E-06
  3.78858121E-09  1.07944106E-06  0.00000000E+00  0.00000000E+00  1.47772808E+00
  2.15340117E-03 -2.02526007E-02 -5.25307866E-02  3.20923365E-02  1.54596071E-17
 -8.23687301E-04 -3.57838974E-03 -4.52692660E-04 -3.86640099E-03 -3.15256959E-19
 -3.69203593E-06 -3.09000924E-04 -5.14954950E-04 -3.83083755E-04 -1.75227875E-19
  4.31094832E-07  1.50667997E-04  2.80091471E-04 -5.46135205E-05 -8.23754313E-20
  1.54316355E-05  1.29070170E-03  1.87747473E-03  6.35487251E-04 -1.91684681E-18
  1.82548908E-03  7.92656042E-03  7.98855182E-04 -3.33557179E-03 -1.22235712E-18
 -6.02180957E-03 -9.32652460E-05  2.15195208E-04  8.30629767E-03  0.00000000E+00
  8.21967930E-07  2.15506062E-06 -7.80278068E-10 -6.33917228E-22  0.00000000E+00
  3.75055466E-09  1.16695136E-08 -1.01525023E-08  4.59772283E-25  5.18191044E-07
  2.16387169E-10 -1.42114820E-07  0.00000000E+00  0.00000000E+00  0.00000000E+00
  1.47772808E+00 -3.10488464E-18  2.92012420E-17  7.57415918E-17  1.54596071E-17
  4.28143890E-02  1.89644317E-18  8.23882168E-18  1.04227163E-18 -3.15256959E-19
 -4.00332740E-03  1.04370619E-20  8.73518525E-19  1.45573250E-18 -1.75227875E-19
 -4.45069361E-04 -6.21466881E-22 -2.17203184E-19 -4.03780236E-19 -8.23754313E-20
 -1.11755138E-04 -2.73678298E-20 -2.28904476E-18 -3.32968006E-18 -1.91684681E-18
 -4.45346759E-04 -3.34104560E-18 -1.45073450E-17 -1.46208028E-18 -1.22235712E-18
 -4.00344641E-03  1.25169011E-17  2.16995906E-19 -3.92828698E-19 -1.58106604E-17
  0.00000000E+00 -1.18500402E-21 -3.10687974E-21 -6.33917228E-22 -4.40491555E-07
  0.00000000E+00  4.41377391E-24  1.37330607E-23  4.59772283E-25 -1.05431886E-08
 -8.68072190E-22 -2.58582510E-26  3.91132983E-22  0.00000000E+00  0.00000000E+00
  0.00000000E+00  0.00000000E+00  1.47772808E+00  0.00000000E+00 -1.77012919E-03
 -2.88919301E-03  7.62096324E-04 -1.79340102E-18  0.00000000E+00 -1.35503201E-05
 -3.85224158E-05  1.93385202E-05 -4.18595518E-20  0.00000000E+00 -1.14308024E-08
 -4.81201999E-08  1.43324421E-08 -3.30759168E-23  0.00000000E+00 -2.07890539E-09
 -9.62253436E-09  1.57313822E-10 -1.31680059E-24  0.00000000E+00 -5.06575030E-07
 -1.87886292E-06 -4.25073385E-07  6.34256286E-22  0.00000000E+00 -4.45373554E-04
 -9.80685250E-04 -2.32235288E-04  3.51325475E-19 -1.43427284E-05 -8.44307500E-10
 -1.59048531E-07 -1.20924694E-03  0.00000000E+00  0.00000000E+00  0.00000000E+00
  0.00000000E+00  0.00000000E+00  0.00000000E+00  0.00000000E+00  0.00000000E+00
  0.00000000E+00  0.00000000E+00  0.00000000E+00  0.00000000E+00  0.00000000E+00
 -1.03696043E-04 -8.25343488E-03 -6.48506318E-03  6.66108743E-03 -1.37069343E-17
  1.58911217E+01 -1.77012919E-03 -1.63423713E-02 -1.16769127E-02  3.08007537E-03
 -7.24817866E-18 -1.35503201E-05 -1.85775885E-03 -2.68955896E-03  1.35017727E-03
 -2.92255121E-18 -1.14308024E-08 -5.81233805E-05 -1.22169711E-04  3.63878437E-05
 -8.39746138E-20 -2.07890539E-09 -2.49075308E-05 -5.77178384E-05  9.43598993E-07
 -7.89842684E-21 -5.06575030E-07 -3.76213325E-04 -6.97339027E-04 -1.57765772E-04
  2.35403901E-19 -4.45373554E-04 -9.53538616E-03 -1.08548009E-02 -2.57051670E-03
  3.88867691E-18 -9.80548577E-04 -4.18064458E-06 -7.96626457E-05 -1.20333193E-02
  0.00000000E+00 -3.58494249E-08 -1.12026315E-07 -3.75055466E-09 -4.41377391E-24
  0.00000000E+00  0.00000000E+00  0.00000000E+00  0.00000000E+00  0.00000000E+00
 -3.76473162E-08  0.00000000E+00 -3.16676635E-09 -8.25343488E-03  6.11697558E-02
  1.23228592E-01 -1.26573389E-01  2.60457942E-16 -8.58900137E-02  4.72249973E-01
  2.88919301E-03  1.16769127E-02 -3.87033595E-03 -3.75161763E-05  8.82848360E-20
  3.85224158E-05  2.68955896E-03  3.42800109E-03 -1.98706377E-03  4.30113567E-18
  4.81201999E-08  1.22169711E-04  2.38939016E-04 -7.60394886E-05  1.75481316E-19
  9.62253436E-09  5.77178384E-05  1.25772111E-04 -2.17141344E-06  1.81758886E-20
  1.87886292E-06  6.97339027E-04  1.19088879E-03  2.93283897E-04 -4.37611861E-19
  9.80685250E-04  1.08548009E-02  8.49239578E-03  2.66024103E-03 -4.02441185E-18
  1.13086745E-03  8.95422572E-06  1.40603058E-04  7.53934180E-03  0.00000000E+00
  1.12026315E-07  3.38016621E-07  1.16695136E-08  1.37330607E-23  0.00000000E+00
  0.00000000E+00  0.00000000E+00  0.00000000E+00  0.00000000E+00  1.05130014E-07
  0.00000000E+00  9.47588652E-09  6.48506318E-03 -1.23228592E-01 -1.22823892E-01
  2.24923322E-01 -4.62838721E-16  0.00000000E+00  0.00000000E+00  1.47772808E+00
 -7.62096324E-04 -3.08007537E-03 -3.75161763E-05 -4.00266818E-03 -2.32873154E-20
 -1.93385202E-05 -1.35017727E-03 -1.98706377E-03  4.67281282E-04 -2.15919997E-18
 -1.43324421E-08 -3.63878437E-05 -7.60394886E-05  6.28971222E-06 -5.22665285E-20
 -1.57313822E-10 -9.43598993E-07 -2.17141344E-06 -7.01288986E-06 -2.97148172E-22
  4.25073385E-07  1.57765772E-04  2.93283897E-04 -3.91001767E-05 -9.90051763E-20
  2.32235288E-04  2.57051670E-03  2.66024103E-03 -2.11132429E-03 -9.53017743E-19
 -1.02519885E-03 -3.66147836E-06  6.13358360E-05  5.28277456E-03  0.00000000E+00
  3.75055466E-09  1.16695136E-08 -1.01525023E-08  4.59772283E-25  0.00000000E+00
  0.00000000E+00  0.00000000E+00  0.00000000E+00  0.00000000E+00  1.96369495E-08
  0.00000000E+00 -2.31485705E-09 -6.66108743E-03  1.26573389E-01  2.24923322E-01
 -1.34872760E-01  4.75401565E-16  0.00000000E+00  0.00000000E+00  0.00000000E+00
  1.47772808E+00  1.79340102E-18  7.24817866E-18  8.82848360E-20 -2.32873154E-20
 -4.01256400E-03  4.18595518E-20  2.92255121E-18  4.30113567E-18 -2.15919997E-18
 -5.30238530E-04  3.30759168E-23  8.39746138E-20  1.75481316E-19 -5.22665285E-20
 -1.63583975E-05  1.31680059E-24  7.89842684E-21  1.81758886E-20 -2.97148172E-22
 -7.04838917E-06 -6.34256286E-22 -2.35403901E-19 -4.37611861E-19 -9.90051763E-20
 -1.05452638E-04 -3.51325475E-19 -3.88867691E-18 -4.02441185E-18 -9.53017743E-19
 -2.74129384E-03  2.12353852E-18  8.09966782E-21 -1.05206527E-19 -9.54063518E-18
  0.00000000E+00  4.41377391E-24  1.37330607E-23  4.59772283E-25 -1.05431886E-08
  0.00000000E+00  0.00000000E+00  0.00000000E+00  0.00000000E+00  0.00000000E+00
 -2.73778546E-23  0.00000000E+00  5.52084250E-24  1.37069343E-17 -2.60457942E-16
 -4.62838721E-16  4.75401565E-16  9.61556614E-02  0.00000000E+00  0.00000000E+00
  0.00000000E+00  0.00000000E+00  1.47772808E+00 -2.14310794E-03 -1.50529255E-02
 -2.62074167E-03 -2.05527219E-03  3.74456780E-18 -1.03200554E-03 -1.10557063E-02
 -9.24273628E-03 -1.14965807E-03  1.27902302E-18 -1.25929563E-05 -9.11739917E-04
 -1.41373547E-03 -2.13836271E-04  2.69927787E-19 -2.98435808E-07 -1.13211648E-04
 -1.95063141E-04 -8.40714994E-05  1.43958342E-19 -1.02333615E-06 -2.25032256E-04
 -3.06996985E-04 -2.56563291E-04  4.69554783E-19 -1.25626701E-04 -3.33431397E-03
 -2.79897747E-03 -3.43803407E-03  6.43008793E-18 -1.09932119E-02 -1.99406863E-04
 -2.04385924E-05 -1.71419908E-03 -2.62515555E-11 -5.80821119E-07 -1.38579804E-06
 -5.18191044E-07  8.68072190E-22  0.00000000E+00 -3.76473162E-08 -1.05130014E-07
 -1.96369495E-08  2.73778546E-23 -1.28309367E-07 -1.28569479E-09 -5.73448237E-07
 -1.08014555E-02  1.04184621E-01  5.78266795E-02  2.49498098E-01 -4.81869013E-16
 -2.39134083E-03 -1.48158827E-02 -1.63626521E-04  4.88238429E-04 -9.71988527E-19
  7.60031884E-01 -1.05265799E-04 -3.01497200E-03 -4.04809761E-03  4.87534740E-04
 -1.37799017E-18 -9.05020232E-07 -2.10145158E-04 -3.56695846E-04  1.17982059E-04
 -2.68140731E-19 -7.00185681E-10 -3.76001123E-06 -8.57181401E-06  1.75556362E-06
 -4.33224142E-21 -8.04799161E-11 -1.10017088E-06 -2.72139033E-06 -5.87513180E-08
 -1.70503933E-22 -1.33491668E-08 -1.98614947E-05 -4.10036348E-05 -9.09014495E-06
  1.34770425E-20 -1.49643371E-05 -1.00410132E-03 -1.52030482E-03 -3.46340264E-04
  5.17884276E-19 -1.92887487E-04 -3.22729832E-07 -4.57656618E-06 -2.34144484E-03
  0.00000000E+00 -1.19717349E-09 -3.78858121E-09 -2.16387169E-10  2.58582510E-26
  0.00000000E+00  0.00000000E+00  0.00000000E+00  0.00000000E+00  0.00000000E+00
 -1.28569479E-09  0.00000000E+00 -1.61689920E-10 -2.39138399E-03 -1.48157805E-02
  4.84412796E-04 -1.76898068E-04  3.96754540E-19 -1.08015641E-02  1.04183521E-01
  2.50953085E-01  5.11341996E-02 -7.36828061E-17 -1.05829622E-02  7.60031884E-01
 -8.84737337E-04 -1.01578782E-02 -7.24707698E-03  5.67540431E-03 -1.18591880E-17
 -9.70610738E-06 -7.88294655E-04 -9.38784992E-04  8.31679185E-04 -1.72493547E-18
 -8.81226261E-08 -5.72589122E-05 -9.87733596E-05  5.46492838E-05 -1.17234129E-19
 -1.25138450E-07 -6.96692638E-05 -1.31875219E-04  3.09443606E-05 -7.43468608E-20
 -1.89132732E-05 -1.14478105E-03 -1.75279952E-03  4.83103454E-05 -2.78300721E-19
 -1.13083202E-03 -1.16141880E-02 -9.18577139E-03  1.35928898E-03 -3.62165070E-18
 -2.46243143E-04 -3.53226785E-06 -4.51993717E-04 -9.39181489E-03 -1.49675210E-11
 -4.21435387E-07 -1.07944106E-06  1.42114820E-07 -3.91132983E-22  0.00000000E+00
 -3.16676635E-09 -9.47588652E-09  2.31485705E-09 -5.52084250E-24 -5.73448237E-07
 -1.61689920E-10 -1.11223391E-08 -2.39134080E-03 -1.48158827E-02  1.63626388E-04
 -4.88238032E-04  9.71987737E-19 -1.08014558E-02  1.04184618E-01 -5.78266776E-02
 -2.49498093E-01  4.81869002E-16 -5.65016234E-03 -7.44381992E-03  7.60031884E-01
Nuclear Attraction Matrix                  R   N=        1830
 -4.83153191E+01 -7.83386164E+00 -1.98164389E+01  5.20418715E-02  5.92088618E-01
 -2.01189065E+01  1.87116200E-02  2.15243360E-01  9.71127726E-03 -1.99867798E+01
 -3.11357603E-17 -3.58848501E-16 -1.15042821E-16  1.53376209E-15 -1.92030324E+01
 -1.93565000E-05 -1.17954655E+00  1.29976970E+00 -1.46261502E+00  2.99668926E-15
 -4.74206633E+01 -1.21004701E+00 -7.09040167E+00  5.18859501E+00 -5.50377755E+00
  1.13076643E-14 -7.61166280E+00 -1.89150363E+01 -1.32967009E+00 -4.92288595E+00
  6.42038818E-01 -4.97431282E+00  1.01941824E-14  2.06447639E-02  2.39505635E-01
 -1.92508130E+01  1.50373525E+00  5.94370095E+00 -5.49058654E+00  1.99315771E+00
 -1.19102079E-14  1.09729756E-01  1.27666874E+00  7.31754003E-02 -1.89798768E+01
 -3.08024220E-15 -1.21401392E-14  1.12038384E-14 -1.18560645E-14 -3.80252772E+00
 -2.12429026E-16 -2.47161243E-15 -2.34642955E-16  1.18477517E-15 -1.83779824E+01
  0.00000000E+00 -5.61770889E-02  1.23941865E-01 -4.13076116E-02  9.37818599E-17
 -1.91139196E-05 -1.18460610E+00  1.92476796E+00  3.96186650E-01 -5.72949431E-16
 -4.75882020E+01 -5.73430631E-02 -1.18080267E+00  1.65423386E+00 -5.53887681E-01
  1.25670126E-15 -1.17897169E+00 -6.93992357E+00  7.26651274E+00  1.83501767E+00
 -2.82660685E-15 -7.65327310E+00 -1.90825540E+01 -1.26488570E-01 -1.66185870E+00
  2.07385184E+00 -8.59624957E-01  1.94517232E-15 -1.91700894E+00 -7.37765224E+00
  6.02784300E+00  2.38185761E+00 -3.63529288E-15 -5.10278117E-02 -5.92649033E-01
 -1.93531561E+01  4.22989023E-02  5.55580778E-01 -8.56572412E-01 -1.97235034E-01
 -5.72089269E-16 -3.87417516E-01 -1.15446795E+00  1.65649446E+00 -3.43966748E+00
 -3.84236444E-16  9.15309161E-02  1.06510731E+00 -1.36420549E-01 -1.92208467E+01
 -9.59875694E-17 -1.26081203E-15  1.93920258E-15 -5.72409400E-16 -4.43830831E-01
  5.56613699E-16  1.48402727E-15 -2.21672906E-15 -3.08165121E-16 -3.72497201E+00
 -1.84354829E-16 -2.14514110E-15  1.81222221E-16  1.32263459E-15 -1.85372201E+01
  0.00000000E+00 -1.29604248E-02  3.40392434E-02  6.94029118E-03 -1.00030388E-17
  0.00000000E+00 -5.74533924E-02  9.99933226E-02  8.86048337E-02 -1.62794302E-16
 -1.95933994E-05 -1.21173637E+00  6.35277786E-01  1.90703539E+00 -3.66288941E-15
 -4.83153191E+01 -1.29604248E-02 -5.03724509E-01  7.95692006E-01  1.62397628E-01
 -2.34147621E-16 -5.59950124E-02 -1.18408015E+00  1.31752711E+00  1.16425641E+00
 -2.13871630E-15 -1.18678617E+00 -7.14872586E+00  2.25615639E+00  7.43331762E+00
 -1.43004324E-14 -7.83386164E+00 -1.98164389E+01 -3.40392434E-02 -7.95692006E-01
  1.15771091E+00  2.77215383E-01 -4.02249342E-16 -9.75170968E-02 -1.30553090E+00
  1.10840934E+00  1.41242507E+00 -2.59931818E-15 -6.26134828E-01 -2.60322561E+00
 -2.95848673E+00  3.39103529E+00 -6.53996126E-15 -5.20418715E-02 -5.92088618E-01
 -2.01189065E+01 -6.94029118E-03 -1.62397628E-01  2.77215383E-01 -1.42364394E-01
 -3.70597462E-17 -8.62606815E-02 -1.16226895E+00  1.42383855E+00  7.72985063E-01
 -2.23252855E-15 -1.86645619E+00 -7.18328079E+00  2.96083134E+00  5.61552017E+00
 -1.81682947E-14 -1.87116200E-02 -2.15243360E-01  9.71127726E-03 -1.99867798E+01
  1.00030388E-17  2.34147621E-16 -4.02249342E-16 -3.70597462E-17 -1.76180225E-01
  1.58469627E-16  2.13608759E-15 -2.62163906E-15 -2.23372552E-15 -4.44941967E-01
  3.58448914E-15  1.37750470E-14 -5.69862851E-15 -1.81231778E-14 -3.83336441E+00
  3.11357603E-17  3.58848501E-16 -1.15042821E-16  1.53376209E-15 -1.92030324E+01
  0.00000000E+00 -5.59950124E-02  9.75170968E-02  8.62606815E-02 -1.58469627E-16
  0.00000000E+00 -1.26705914E-02  1.07543853E-02  3.22026342E-02 -6.18495599E-17
  0.00000000E+00 -5.60099174E-02 -2.60949379E-02  1.27581340E-01 -2.52242411E-16
 -1.93565000E-05 -1.17954655E+00 -1.29976970E+00  1.46261502E+00 -2.99668926E-15
 -4.74206633E+01 -5.74533924E-02 -1.18408015E+00  1.30553090E+00  1.16226895E+00
 -2.13608759E-15 -1.26705914E-02 -5.03251420E-01  2.56502508E-01  7.69375163E-01
 -1.47773607E-15 -5.62983748E-02 -1.19128563E+00 -3.39567219E-01  1.72953332E+00
 -3.41799101E-15 -1.21004701E+00 -7.09040167E+00 -5.18859501E+00  5.50377755E+00
 -1.13076643E-14 -7.61166280E+00 -1.89150363E+01 -9.99933226E-02 -1.31752711E+00
  1.10840934E+00  1.42383855E+00 -2.62163906E-15 -1.07543853E-02 -2.56502508E-01
 -5.96717978E-02  4.23754191E-01 -8.16556185E-16  2.61454255E-02  3.65330376E-01
 -3.79741933E-01 -5.83033055E-01  1.14724438E-15  1.32967009E+00  4.92288595E+00
  6.42038818E-01 -4.97431282E+00  1.01941824E-14 -2.06447639E-02 -2.39505635E-01
 -1.92508130E+01 -8.86048337E-02 -1.16425641E+00  1.41242507E+00  7.72985063E-01
 -2.23372552E-15 -3.22026342E-02 -7.69375163E-01  4.23754191E-01  1.07323200E+00
 -2.39794783E-15 -1.28254839E-01 -1.72684530E+00 -5.44163412E-01  2.27302313E+00
 -5.37606661E-15 -1.50373525E+00 -5.94370095E+00 -5.49058654E+00  1.99315771E+00
 -1.19102079E-14 -1.09729756E-01 -1.27666874E+00  7.31754003E-02 -1.89798768E+01
  1.62794302E-16  2.13871630E-15 -2.59931818E-15 -2.23252855E-15 -4.44941967E-01
  6.18495599E-17  1.47773607E-15 -8.16556185E-16 -2.39794783E-15 -1.75649795E-01
  2.53564841E-16  3.41543604E-15  1.07122856E-15 -5.38014300E-15 -4.46773687E-01
  3.08024220E-15  1.21401392E-14  1.12038384E-14 -1.18560645E-14 -3.80252772E+00
  2.12429026E-16  2.47161243E-15 -2.34642955E-16  1.18477517E-15 -1.83779824E+01
 -1.95933994E-05 -1.18678617E+00  6.26134828E-01  1.86645619E+00 -3.58448914E-15
  0.00000000E+00 -5.62983748E-02 -2.61454255E-02  1.28254839E-01 -2.53564841E-16
  0.00000000E+00 -1.27118060E-02 -2.25920821E-02  2.54976622E-02 -5.22340718E-17
  0.00000000E+00 -5.61770889E-02 -1.23941865E-01  4.13076116E-02 -9.37818599E-17
 -1.91139196E-05 -1.18460610E+00 -1.92476796E+00 -3.96186650E-01  5.72949431E-16
 -4.75882020E+01 -1.21173637E+00 -7.14872586E+00  2.60322561E+00  7.18328079E+00
 -1.37750470E-14 -5.60099174E-02 -1.19128563E+00 -3.65330376E-01  1.72684530E+00
 -3.41543604E-15 -1.27118060E-02 -5.03026928E-01 -5.37257396E-01  6.07216780E-01
 -1.24385370E-15 -5.73430631E-02 -1.18080267E+00 -1.65423386E+00  5.53887681E-01
 -1.25670126E-15 -1.17897169E+00 -6.93992357E+00 -7.26651274E+00 -1.83501767E+00
  2.82660685E-15 -7.65327310E+00 -1.90825540E+01 -6.35277786E-01 -2.25615639E+00
 -2.95848673E+00  2.96083134E+00 -5.69862851E-15  2.60949379E-02  3.39567219E-01
 -3.79741933E-01 -5.44163412E-01  1.07122856E-15  2.25920821E-02  5.37257396E-01
  4.19407433E-01 -7.01463472E-01  1.43422917E-15  1.26488570E-01  1.66185870E+00
  2.07385184E+00 -8.59624957E-01  1.94517232E-15  1.91700894E+00  7.37765224E+00
  6.02784300E+00  2.38185761E+00 -3.63529288E-15  5.10278117E-02  5.92649033E-01
 -1.93531561E+01 -1.90703539E+00 -7.43331762E+00  3.39103529E+00  5.61552017E+00
 -1.81231778E-14 -1.27581340E-01 -1.72953332E+00 -5.83033055E-01  2.27302313E+00
 -5.38014300E-15 -2.54976622E-02 -6.07216780E-01 -7.01463472E-01  5.94091418E-01
 -1.57890394E-15 -4.22989023E-02 -5.55580778E-01 -8.56572412E-01 -1.97235034E-01
 -5.72089269E-16  3.87417516E-01  1.15446795E+00  1.65649446E+00 -3.43966748E+00
 -3.84236444E-16 -9.15309161E-02 -1.06510731E+00 -1.36420549E-01 -1.92208467E+01
  3.66288941E-15  1.43004324E-14 -6.53996126E-15 -1.81682947E-14 -3.83336441E+00
  2.52242411E-16  3.41799101E-15  1.14724438E-15 -5.37606661E-15 -4.46773687E-01
  5.22340718E-17  1.24385370E-15  1.43422917E-15 -1.57890394E-15 -1.75643057E-01
  9.59875694E-17  1.26081203E-15  1.93920258E-15 -5.72409400E-16 -4.43830831E-01
 -5.56613699E-16 -1.48402727E-15 -2.21672906E-15 -3.08165121E-16 -3.72497201E+00
  1.84354829E-16  2.14514110E-15  1.81222221E-16  1.32263459E-15 -1.85372201E+01
 -1.67493811E-01 -1.67125326E+00  6.51882628E-01 -1.99663488E+00  3.97310450E-15
 -1.87374129E+00 -7.92467341E+00 -2.26879617E+00 -6.53115523E+00  1.25347837E-14
 -1.63582885E-01 -1.61794524E+00 -1.69973114E+00 -1.14032416E+00  2.05182990E-15
 -2.83112074E-03 -1.20989990E-01 -1.27734953E-01 -1.53588580E-01  2.86971066E-16
 -3.60621284E-04 -3.49644711E-02 -2.00203532E-02 -5.97972497E-02  1.14843497E-16
 -2.77645992E-03 -1.22988505E-01  8.37947037E-03 -2.03261816E-01  3.98389823E-16
 -1.40919632E+01 -2.82438074E-03 -1.20625684E-01  1.77602714E-01 -9.07763515E-02
  1.96153502E-16 -1.62761580E-01 -1.62409007E+00  2.02781182E+00 -3.83379978E-01
  9.62424542E-16 -1.88477277E+00 -8.07121123E+00  4.80591706E+00 -5.22271763E+00
  1.07178739E-14 -1.67719091E-01 -1.70293517E+00  2.01853966E-01 -2.13929017E+00
  4.20489371E-15 -2.76041486E-03 -1.23340488E-01  7.23660139E-02 -1.91289342E-01
  3.81686221E-16 -3.61711698E-04 -3.49540420E-02  4.18791797E-02 -4.71795733E-02
  9.66592261E-17 -7.24744961E-01 -1.45151666E+01 -2.83112074E-03 -1.20989990E-01
  1.27734953E-01  1.53588580E-01 -2.86971066E-16 -3.60621284E-04 -3.49644711E-02
  2.00203532E-02  5.97972497E-02 -1.14843497E-16 -2.77645992E-03 -1.22988505E-01
 -8.37947037E-03  2.03261816E-01 -3.98389823E-16 -1.67493811E-01 -1.67125326E+00
 -6.51882628E-01  1.99663488E+00 -3.97310450E-15 -1.87374129E+00 -7.92467341E+00
  2.26879617E+00  6.53115523E+00 -1.25347837E-14 -1.63582885E-01 -1.61794524E+00
  1.69973114E+00  1.14032416E+00 -2.05182990E-15 -2.08925698E-03 -1.41321633E-02
 -1.40919632E+01 -1.67719091E-01 -1.70293517E+00 -2.01853966E-01  2.13929017E+00
 -4.20489371E-15 -2.76041486E-03 -1.23340488E-01 -7.23660139E-02  1.91289342E-01
 -3.81686221E-16 -3.61711698E-04 -3.49540420E-02 -4.18791797E-02  4.71795733E-02
 -9.66592261E-17 -2.82438074E-03 -1.20625684E-01 -1.77602714E-01  9.07763515E-02
 -1.96153502E-16 -1.62761580E-01 -1.62409007E+00 -2.02781182E+00  3.83379978E-01
 -9.62424542E-16 -1.88477277E+00 -8.07121123E+00 -4.80591706E+00  5.22271763E+00
 -1.07178739E-14 -1.41321633E-02 -2.08728724E-03 -7.24744961E-01 -1.45151666E+01
  0.00000000E+00 -2.76791564E-06  1.12391925E-05  2.28963502E-06 -3.29905532E-21
  0.00000000E+00 -6.28795215E-05  1.99967471E-04  1.15102646E-04 -2.04130387E-19
  0.00000000E+00 -3.27398319E-02  6.14588161E-02  5.13818693E-02 -9.40400786E-17
 -1.21149309E-06 -7.82837117E-01  1.28815927E+00  2.61921658E-01 -3.77136072E-16
  0.00000000E+00 -3.25738490E-02  7.63090520E-02 -2.31521276E-02  5.32804862E-17
  0.00000000E+00 -6.25110413E-05  2.27783015E-04 -2.75470502E-05  7.77610557E-20
 -5.54269226E-06 -2.94649670E-02 -2.92762599E-02 -5.50124094E-06 -4.58360672E+01
 -3.02041200E-06 -5.66594154E-03  1.22576420E-02  2.49209397E-03 -3.58818793E-18
 -6.65309383E-05 -2.90140354E-02  4.94952506E-02  2.93453741E-02 -5.21988426E-17
 -3.45343311E-02 -8.31575311E-01  9.36605970E-01  8.46153504E-01 -1.55656363E-15
 -8.42202729E-01 -5.40057432E+00  5.88053952E+00  1.14663096E+00 -1.62570814E-15
 -3.42910729E-02 -8.13449933E-01  1.16276672E+00 -4.13641063E-01  9.30884692E-16
 -6.67111094E-05 -2.87300340E-02  5.64084541E-02 -7.68543730E-03  2.09458519E-17
 -2.86582781E-03 -4.94836747E-01 -4.69411567E-01 -2.82332729E-03 -7.21810871E+00
 -1.73316767E+01 -1.22570263E-05 -1.21811031E-02  2.49231679E-02  5.43698669E-03
 -7.85276441E-18 -2.11527576E-04 -5.07510579E-02  7.99129363E-02  5.24537844E-02
 -9.33239203E-17 -6.48895821E-02 -1.00689296E+00  9.00100770E-01  1.10864285E+00
 -2.04181584E-15 -1.38606080E+00 -6.14554659E+00  5.41039276E+00  1.63796809E+00
 -2.35042113E-15 -8.03611860E-02 -1.21312379E+00  1.56396052E+00 -6.62363201E-01
  1.49065866E-15 -2.42948217E-04 -5.72883182E-02  1.06421718E-01 -1.53320225E-02
  4.20135575E-17 -4.75439439E-03 -3.43172404E-01 -5.43652399E-01 -5.72884814E-03
 -5.86573164E-02 -7.06677945E-01 -1.76699887E+01 -2.50003012E-06 -2.49438335E-03
  5.47610840E-03 -6.83323695E-04 -1.19152420E-18 -1.21619337E-04 -2.82787093E-02
  4.94181023E-02  1.99918402E-02 -5.02708386E-17 -5.41305199E-02 -7.86095736E-01
  9.72133486E-01  5.47314620E-01 -1.56357741E-15 -2.83120229E-01 -1.32584300E+00
  1.77528801E+00 -2.44979241E+00 -3.46461318E-16  2.42026249E-02  3.07993013E-01
 -4.88275761E-01 -1.46469330E-01 -3.48130232E-16  2.91089402E-05  5.90825540E-03
 -1.16489787E-02 -7.45550523E-03 -2.83724476E-18 -3.63645816E-03 -6.28995678E-01
  4.08677828E-01  1.44193145E-03 -6.17412322E-02 -7.11930924E-01  1.40626512E-01
 -1.73336167E+01  3.60377292E-21  3.60069209E-18 -7.92927316E-18 -1.19562703E-18
 -1.58625280E-03  2.15662470E-19  4.99811080E-17 -8.73871578E-17 -4.99524762E-17
 -8.36353832E-03  9.90557089E-17  1.43173980E-15 -1.77484991E-15 -1.54926121E-15
 -3.04330472E-01  4.08326003E-16  1.94839378E-15 -2.61897222E-15 -3.60862529E-16
 -2.72215152E+00 -5.57598632E-17 -7.29554126E-16  1.15020279E-15 -3.66387379E-16
 -2.98296871E-01 -8.24060088E-20 -1.75625624E-17  3.48107753E-17 -3.22349821E-18
 -8.28160804E-03  6.61306675E-18  1.19411213E-15 -8.56249648E-16 -3.42073188E-18
  1.14593275E-16  1.31818321E-15 -3.60363067E-16  9.48423683E-16 -1.68561944E+01
  0.00000000E+00 -6.07813343E-09  2.99810262E-08 -4.74018244E-10  4.07123174E-24
  0.00000000E+00 -2.26939274E-06  9.21850810E-06  2.09229146E-06 -3.12503450E-21
  0.00000000E+00 -5.41191957E-03  1.49629224E-02  3.55636211E-03 -5.38582272E-18
  0.00000000E+00 -3.40351719E-02  7.97449224E-02 -2.10078793E-02  4.94473968E-17
  0.00000000E+00 -8.83118506E-05  2.84482327E-04 -1.42798145E-04  3.09099283E-19
  0.00000000E+00 -3.77478751E-08  1.70395897E-07 -5.06984540E-08  1.17018950E-22
 -9.29947689E-07 -4.02961009E-02 -1.42030974E-04 -3.35216643E-09 -5.59316707E-05
 -1.24377615E+00  1.44009879E+00 -1.48199414E+00  3.04930502E-15 -4.40525522E+01
 -7.11514110E-09 -2.32728996E-04  5.97066323E-04 -5.98149834E-06  7.43141731E-20
 -2.56792593E-06 -4.66935142E-03  9.83000252E-03  2.48222462E-03 -3.82348172E-18
 -6.05448721E-03 -2.78242839E-01  4.44085537E-01  1.22879655E-01 -1.93738073E-16
 -3.88132763E-02 -8.40011138E-01  1.21922925E+00 -3.00591493E-01  7.15719569E-16
 -9.86995583E-05 -3.34911939E-02  5.80219277E-02 -3.03132549E-02  6.53673842E-17
 -4.30081231E-08 -6.02910887E-04  1.41553548E-03 -4.33154064E-04  9.95554219E-19
 -8.90835437E-04 -5.61912838E-01 -1.85627234E-02 -3.82367585E-05 -1.31520983E+00
 -6.64785164E+00  4.55648773E+00 -5.06070512E+00  1.03748740E-14 -6.77515066E+00
 -1.55413311E+01 -3.50635805E-08 -6.07015196E-04  1.49261236E-03 -1.78313399E-05
  1.98027514E-19 -1.04234477E-05 -1.03123009E-02  2.05129660E-02  5.52072284E-03
 -8.50597820E-18 -1.67452143E-02 -4.61553569E-01  6.80334246E-01  2.15081946E-01
 -3.39234644E-16 -9.09744496E-02 -1.24574535E+00  1.63355749E+00 -4.92061880E-01
  1.16596738E-15 -3.17974073E-04 -5.96574544E-02  9.51419869E-02 -5.57554468E-02
  1.20041041E-16 -1.94000368E-07 -1.44425788E-03  3.22352381E-03 -1.04134000E-03
  2.39169764E-18 -1.84325019E-03 -6.77965561E-01 -2.61073011E-02 -9.12790815E-05
 -1.52663136E+00 -5.16562182E+00  8.22216268E-01 -5.00806490E+00  1.02645354E-14
 -1.02089480E-01 -1.18093414E+00 -1.57435502E+01  5.75518632E-10  1.37642679E-05
 -3.75603720E-05 -7.13069372E-05  1.20628385E-20 -2.35068261E-06 -2.07322900E-03
  4.40670079E-03 -3.41700326E-04 -1.46937885E-18 -3.94801484E-03 -9.18188707E-02
  1.58068328E-01 -6.02316177E-02 -5.29207596E-17  2.39687860E-02  3.54687379E-01
 -5.60820302E-01 -1.90142923E-01 -2.90119534E-16  1.59278782E-04  2.89841182E-02
 -5.20113907E-02  1.68385532E-02 -5.74891708E-17  5.77109793E-08  4.18712785E-04
 -9.87931728E-04  1.25767923E-04 -6.68975554E-19 -7.22491145E-04 -4.23289167E-01
  2.22672676E-02  3.56100081E-05  1.56297557E+00  4.96848546E+00 -4.49643375E+00
  1.18505420E+00 -9.95423755E-15  4.52465222E-02  5.17119227E-01  2.21026196E-01
 -1.55869437E+01 -4.80275693E-24 -9.05779982E-20  2.36610796E-19  1.41318899E-20
 -6.31245731E-05  3.50399363E-21  2.97304499E-18 -6.32732963E-18 -1.35254753E-18
 -1.32935898E-03  5.96484729E-18  1.31161801E-16 -2.27735383E-16 -4.69415458E-17
 -9.57684296E-02 -5.64156031E-17 -8.24293574E-16  1.30043549E-15 -2.82908602E-16
 -3.08417246E-01 -3.44842204E-19 -6.29395677E-17  1.12718939E-16 -5.78818228E-17
 -9.76860395E-03 -1.33208549E-22 -9.70324201E-19  2.28724921E-18 -6.74576663E-19
 -1.63325126E-04  1.21963918E-18  7.56709191E-16 -4.62851708E-17 -7.92138253E-20
 -3.21675215E-15 -1.02584057E-14  9.26395873E-15 -1.00078941E-14 -3.66378469E+00
 -9.91932957E-17 -1.13515810E-15 -4.93196049E-16  8.53381493E-16 -1.51624314E+01
 -2.16275321E-06 -1.63514990E-03  3.22497105E-03  1.37576559E-03 -2.35231619E-18
 -8.18374418E-06 -3.66413873E-03  5.74584069E-03  4.85283097E-03 -8.88790224E-18
 -2.08155318E-03 -9.73746667E-02  9.96358008E-02  1.28473811E-01 -2.40801966E-16
 -1.40099819E-01 -1.40931390E+00  1.42843898E+00  1.06661360E+00 -1.93612844E-15
 -3.48286955E-02 -5.16453825E-01  7.29023992E-01  4.71462937E-02 -1.57468802E-17
 -1.37611332E-04 -1.81905717E-02  3.31935860E-02  3.97570459E-03 -4.29400182E-18
 -2.75570048E-04 -4.63982758E-02 -7.29998666E-01 -3.26091441E-03 -1.78712222E+00
 -7.39188173E+00  1.24951752E+00  6.41143505E+00 -1.24075470E-14 -1.59406053E-01
 -1.53673155E+00 -7.60455830E-01  1.82082224E+00 -3.64066115E-15 -1.32696003E+01
 -3.22418461E-10 -9.00799494E-06  2.40183793E-05  6.83501862E-07  1.18219253E-21
 -7.20403616E-08 -1.95151403E-04  4.40287758E-04  1.09971342E-04 -1.68892085E-19
 -1.66227537E-04 -1.79945272E-02  3.21139693E-02  8.52991805E-03 -1.33137188E-17
 -1.70056408E-03 -7.84044060E-02  1.30379176E-01 -1.48019322E-02  4.26208611E-17
 -7.06763905E-06 -2.98912569E-03  5.79246615E-03 -2.07323579E-03  4.66202048E-18
 -3.11868656E-09 -3.38426835E-05  8.38344940E-05 -1.83667365E-05  4.47111062E-20
 -4.11870274E-05 -5.72718041E-02 -2.93855718E-03 -2.61433035E-06 -1.68496589E-01
 -1.49059812E+00  1.69444202E+00 -7.28853015E-01  1.60309077E-15 -1.67643653E+00
 -6.46865331E+00  5.47448689E+00  1.32189254E+00 -2.01104436E-15 -6.13825125E-01
 -1.14069886E+01 -8.36336672E-07 -9.20310136E-04  1.96960895E-03 -4.43381759E-04
  1.07366370E-18 -2.17991069E-04 -2.26147300E-02  4.06398647E-02  6.06042019E-04
  3.07682989E-18 -4.04186162E-02 -5.47951370E-01  7.56398523E-01 -7.91628363E-02
  2.34141716E-16 -2.82981822E-02 -4.60705922E-01  5.21203644E-01 -4.00601509E-01
  8.38100833E-16 -1.01865295E-04 -1.56984675E-02  2.16296890E-02 -1.96506942E-02
  4.06984599E-17 -5.60562365E-07 -7.50469753E-04  1.46222546E-03 -8.07691357E-04
  1.73291843E-18 -7.70429485E-03 -1.68138197E+00 -4.51711572E-03 -3.92776802E-05
 -1.69300713E-01 -1.60784450E+00  6.29576654E-01 -1.91760951E+00  3.81621842E-15
 -1.68401149E+00 -6.89390946E+00 -1.85970013E+00 -6.01968134E+00  1.15774179E-14
 -2.18415065E-01 -1.93238369E+00 -1.28573192E+01 -1.21149309E-06 -7.82837117E-01
 -1.28815927E+00 -2.61921658E-01  3.77136072E-16  0.00000000E+00 -3.25738490E-02
 -7.63090520E-02  2.31521276E-02 -5.32804862E-17  0.00000000E+00 -6.25110413E-05
 -2.27783015E-04  2.75470502E-05 -7.77610557E-20  0.00000000E+00 -2.76791564E-06
 -1.12391925E-05 -2.28963502E-06  3.29905532E-21  0.00000000E+00 -6.28795215E-05
 -1.99967471E-04 -1.15102646E-04  2.04130387E-19  0.00000000E+00 -3.27398319E-02
 -6.14588161E-02 -5.13818693E-02  9.40400786E-17 -2.92762599E-02 -5.50124094E-06
 -5.54269226E-06 -2.94649670E-02  0.00000000E+00  0.00000000E+00  0.00000000E+00
  0.00000000E+00  0.00000000E+00  0.00000000E+00  0.00000000E+00  0.00000000E+00
  0.00000000E+00  0.00000000E+00 -9.05591423E-11  0.00000000E+00 -4.98201300E-11
 -4.58360672E+01 -8.42202729E-01 -5.40057432E+00 -5.88053952E+00 -1.14663096E+00
  1.62570814E-15 -3.42910729E-02 -8.13449933E-01 -1.16276672E+00  4.13641063E-01
 -9.30884692E-16 -6.67111094E-05 -2.87300340E-02 -5.64084541E-02  7.68543730E-03
 -2.09458519E-17 -3.02041200E-06 -5.66594154E-03 -1.22576420E-02 -2.49209397E-03
  3.58818793E-18 -6.65309383E-05 -2.90140354E-02 -4.94952506E-02 -2.93453741E-02
  5.21988426E-17 -3.45343311E-02 -8.31575311E-01 -9.36605970E-01 -8.46153504E-01
  1.55656363E-15 -4.69411567E-01 -2.82332729E-03 -2.86582781E-03 -4.94836747E-01
  0.00000000E+00 -1.06754242E-05 -3.06546594E-05 -6.25470681E-06  9.01722165E-21
  0.00000000E+00 -1.90283617E-07 -6.32579788E-07 -2.10198665E-08 -2.52330982E-23
 -4.55020077E-06 -6.16905592E-09 -3.17043192E-06 -7.21810871E+00 -1.73316767E+01
  1.38606080E+00  6.14554659E+00  5.41039276E+00  1.63796809E+00 -2.35042113E-15
  8.03611860E-02  1.21312379E+00  1.56396052E+00 -6.62363201E-01  1.49065866E-15
  2.42948217E-04  5.72883182E-02  1.06421718E-01 -1.53320225E-02  4.20135575E-17
  1.22570263E-05  1.21811031E-02  2.49231679E-02  5.43698669E-03 -7.85276441E-18
  2.11527576E-04  5.07510579E-02  7.99129363E-02  5.24537844E-02 -9.33239203E-17
  6.48895821E-02  1.00689296E+00  9.00100770E-01  1.10864285E+00 -2.04181584E-15
  5.43652399E-01  5.72884814E-03  4.75439439E-03  3.43172404E-01  0.00000000E+00
  3.06546594E-05  8.46252782E-05  1.79675512E-05 -2.59521322E-20  0.00000000E+00
  6.34832313E-07  2.05101655E-06  6.91805048E-08  8.52523571E-23  1.17571972E-05
  2.06256143E-08  8.78363781E-06  5.86573164E-02  7.06677945E-01 -1.76699887E+01
  2.83120229E-01  1.32584300E+00  1.77528801E+00 -2.44979241E+00 -3.46461318E-16
 -2.42026249E-02 -3.07993013E-01 -4.88275761E-01 -1.46469330E-01 -3.48130232E-16
 -2.91089402E-05 -5.90825540E-03 -1.16489787E-02 -7.45550523E-03 -2.83724476E-18
  2.50003012E-06  2.49438335E-03  5.47610840E-03 -6.83323695E-04 -1.19152420E-18
  1.21619337E-04  2.82787093E-02  4.94181023E-02  1.99918402E-02 -5.02708386E-17
  5.41305199E-02  7.86095736E-01  9.72133486E-01  5.47314620E-01 -1.56357741E-15
 -4.08677828E-01 -1.44193145E-03  3.63645816E-03  6.28995678E-01  0.00000000E+00
  6.25470681E-06  1.79675512E-05  2.62413396E-07 -4.43484592E-21  0.00000000E+00
  2.14121133E-08  7.02356649E-08 -5.62153172E-08  1.56962977E-23  4.39979833E-06
  1.19655608E-09 -1.08497129E-06  6.17412322E-02  7.11930924E-01  1.40626512E-01
 -1.73336167E+01 -4.08326003E-16 -1.94839378E-15 -2.61897222E-15 -3.60862529E-16
 -2.72215152E+00  5.57598632E-17  7.29554126E-16  1.15020279E-15 -3.66387379E-16
 -2.98296871E-01  8.24060088E-20  1.75625624E-17  3.48107753E-17 -3.22349821E-18
 -8.28160804E-03 -3.60377292E-21 -3.60069209E-18 -7.92927316E-18 -1.19562703E-18
 -1.58625280E-03 -2.15662470E-19 -4.99811080E-17 -8.73871578E-17 -4.99524762E-17
 -8.36353832E-03 -9.90557089E-17 -1.43173980E-15 -1.77484991E-15 -1.54926121E-15
 -3.04330472E-01  8.56249648E-16  3.42073188E-18 -6.61306675E-18 -1.19411213E-15
  0.00000000E+00 -9.01722165E-21 -2.59521322E-20 -4.43484592E-21 -2.96880478E-06
  0.00000000E+00  2.47022267E-23  8.31888226E-23  1.55856395E-23 -5.19556598E-08
 -7.37149274E-21 -1.76978089E-25  3.04300540E-21 -1.14593275E-16 -1.31818321E-15
 -3.60363067E-16  9.48423683E-16 -1.68561944E+01  0.00000000E+00 -3.40351719E-02
 -7.97449224E-02  2.10078793E-02 -4.94473968E-17  0.00000000E+00 -8.83118506E-05
 -2.84482327E-04  1.42798145E-04 -3.09099283E-19  0.00000000E+00 -3.77478751E-08
 -1.70395897E-07  5.06984540E-08 -1.17018950E-22  0.00000000E+00 -6.07813343E-09
 -2.99810262E-08  4.74018244E-10 -4.07123174E-24  0.00000000E+00 -2.26939274E-06
 -9.21850810E-06 -2.09229146E-06  3.12503450E-21  0.00000000E+00 -5.41191957E-03
 -1.49629224E-02 -3.55636211E-03  5.38582272E-18 -1.42030974E-04 -3.35216643E-09
 -9.29947689E-07 -4.02961009E-02  0.00000000E+00  0.00000000E+00  0.00000000E+00
  0.00000000E+00  0.00000000E+00  0.00000000E+00  0.00000000E+00  0.00000000E+00
  0.00000000E+00  0.00000000E+00  0.00000000E+00  0.00000000E+00  0.00000000E+00
 -5.59316707E-05 -1.24377615E+00 -1.44009879E+00  1.48199414E+00 -3.04930502E-15
 -4.40525522E+01 -3.88132763E-02 -8.40011138E-01 -1.21922925E+00  3.00591493E-01
 -7.15719569E-16 -9.86995583E-05 -3.34911939E-02 -5.80219277E-02  3.03132549E-02
 -6.53673842E-17 -4.30081231E-08 -6.02910887E-04 -1.41553548E-03  4.33154064E-04
 -9.95554219E-19 -7.11514110E-09 -2.32728996E-04 -5.97066323E-04  5.98149834E-06
 -7.43141731E-20 -2.56792593E-06 -4.66935142E-03 -9.83000252E-03 -2.48222462E-03
  3.82348172E-18 -6.05448721E-03 -2.78242839E-01 -4.44085537E-01 -1.22879655E-01
  1.93738073E-16 -1.85627234E-02 -3.82367585E-05 -8.90835437E-04 -5.61912838E-01
  0.00000000E+00 -1.90283617E-07 -6.34832313E-07 -2.14121133E-08 -2.47022267E-23
  0.00000000E+00  0.00000000E+00  0.00000000E+00  0.00000000E+00  0.00000000E+00
 -2.32981680E-07  0.00000000E+00 -1.73066367E-08 -1.31520983E+00 -6.64785164E+00
 -4.55648773E+00  5.06070512E+00 -1.03748740E-14 -6.77515066E+00 -1.55413311E+01
  9.09744496E-02  1.24574535E+00  1.63355749E+00 -4.92061880E-01  1.16596738E-15
  3.17974073E-04  5.96574544E-02  9.51419869E-02 -5.57554468E-02  1.20041041E-16
  1.94000368E-07  1.44425788E-03  3.22352381E-03 -1.04134000E-03  2.39169764E-18
  3.50635805E-08  6.07015196E-04  1.49261236E-03 -1.78313399E-05  1.98027514E-19
  1.04234477E-05  1.03123009E-02  2.05129660E-02  5.52072284E-03 -8.50597820E-18
  1.67452143E-02  4.61553569E-01  6.80334246E-01  2.15081946E-01 -3.39234644E-16
  2.61073011E-02  9.12790815E-05  1.84325019E-03  6.77965561E-01  0.00000000E+00
  6.32579788E-07  2.05101655E-06  7.02356649E-08  8.31888226E-23  0.00000000E+00
  0.00000000E+00  0.00000000E+00  0.00000000E+00  0.00000000E+00  6.98986299E-07
  0.00000000E+00  5.47389093E-08  1.52663136E+00  5.16562182E+00  8.22216268E-01
 -5.00806490E+00  1.02645354E-14  1.02089480E-01  1.18093414E+00 -1.57435502E+01
 -2.39687860E-02 -3.54687379E-01 -5.60820302E-01 -1.90142923E-01 -2.90119534E-16
 -1.59278782E-04 -2.89841182E-02 -5.20113907E-02  1.68385532E-02 -5.74891708E-17
 -5.77109793E-08 -4.18712785E-04 -9.87931728E-04  1.25767923E-04 -6.68975554E-19
 -5.75518632E-10 -1.37642679E-05 -3.75603720E-05 -7.13069372E-05  1.20628385E-20
  2.35068261E-06  2.07322900E-03  4.40670079E-03 -3.41700326E-04 -1.46937885E-18
  3.94801484E-03  9.18188707E-02  1.58068328E-01 -6.02316177E-02 -5.29207596E-17
 -2.22672676E-02 -3.56100081E-05  7.22491145E-04  4.23289167E-01  0.00000000E+00
  2.10198665E-08  6.91805048E-08 -5.62153172E-08  1.55856395E-23  0.00000000E+00
  0.00000000E+00  0.00000000E+00  0.00000000E+00  0.00000000E+00  1.21719052E-07
  0.00000000E+00 -1.32976799E-08 -1.56297557E+00 -4.96848546E+00 -4.49643375E+00
  1.18505420E+00 -9.95423755E-15 -4.52465222E-02 -5.17119227E-01  2.21026196E-01
 -1.55869437E+01  5.64156031E-17  8.24293574E-16  1.30043549E-15 -2.82908602E-16
 -3.08417246E-01  3.44842204E-19  6.29395677E-17  1.12718939E-16 -5.78818228E-17
 -9.76860395E-03  1.33208549E-22  9.70324201E-19  2.28724921E-18 -6.74576663E-19
 -1.63325126E-04  4.80275693E-24  9.05779982E-20  2.36610796E-19  1.41318899E-20
 -6.31245731E-05 -3.50399363E-21 -2.97304499E-18 -6.32732963E-18 -1.35254753E-18
 -1.32935898E-03 -5.96484729E-18 -1.31161801E-16 -2.27735383E-16 -4.69415458E-17
 -9.57684296E-02  4.62851708E-17  7.92138253E-20 -1.21963918E-18 -7.56709191E-16
  0.00000000E+00  2.52330982E-23  8.52523571E-23  1.56962977E-23 -5.19556598E-08
  0.00000000E+00  0.00000000E+00  0.00000000E+00  0.00000000E+00  0.00000000E+00
 -1.64736009E-22  0.00000000E+00  3.17464003E-23  3.21675215E-15  1.02584057E-14
  9.26395873E-15 -1.00078941E-14 -3.66378469E+00  9.91932957E-17  1.13515810E-15
 -4.93196049E-16  8.53381493E-16 -1.51624314E+01 -1.40099819E-01 -1.40931390E+00
 -1.42843898E+00 -1.06661360E+00  1.93612844E-15 -3.48286955E-02 -5.16453825E-01
 -7.29023992E-01 -4.71462937E-02  1.57468802E-17 -1.37611332E-04 -1.81905717E-02
 -3.31935860E-02 -3.97570459E-03  4.29400182E-18 -2.16275321E-06 -1.63514990E-03
 -3.22497105E-03 -1.37576559E-03  2.35231619E-18 -8.18374418E-06 -3.66413873E-03
 -5.74584069E-03 -4.85283097E-03  8.88790224E-18 -2.08155318E-03 -9.73746667E-02
 -9.96358008E-02 -1.28473811E-01  2.40801966E-16 -7.29998666E-01 -3.26091441E-03
 -2.75570048E-04 -4.63982758E-02 -9.05591423E-11 -4.55020077E-06 -1.17571972E-05
 -4.39979833E-06  7.37149274E-21  0.00000000E+00 -2.32981680E-07 -6.98986299E-07
 -1.21719052E-07  1.64736009E-22 -1.04657574E-06 -7.42952170E-09 -4.76411167E-06
 -1.78712222E+00 -7.39188173E+00 -1.24951752E+00 -6.41143505E+00  1.24075470E-14
 -1.59406053E-01 -1.53673155E+00  7.60455830E-01 -1.82082224E+00  3.64066115E-15
 -1.32696003E+01 -1.70056408E-03 -7.84044060E-02 -1.30379176E-01  1.48019322E-02
 -4.26208611E-17 -7.06763905E-06 -2.98912569E-03 -5.79246615E-03  2.07323579E-03
 -4.66202048E-18 -3.11868656E-09 -3.38426835E-05 -8.38344940E-05  1.83667365E-05
 -4.47111062E-20 -3.22418461E-10 -9.00799494E-06 -2.40183793E-05 -6.83501862E-07
 -1.18219253E-21 -7.20403616E-08 -1.95151403E-04 -4.40287758E-04 -1.09971342E-04
  1.68892085E-19 -1.66227537E-04 -1.79945272E-02 -3.21139693E-02 -8.52991805E-03
  1.33137188E-17 -2.93855718E-03 -2.61433035E-06 -4.11870274E-05 -5.72718041E-02
  0.00000000E+00 -6.16905592E-09 -2.06256143E-08 -1.19655608E-09  1.76978089E-25
  0.00000000E+00  0.00000000E+00  0.00000000E+00  0.00000000E+00  0.00000000E+00
 -7.42952170E-09  0.00000000E+00 -8.61584026E-10 -1.68496589E-01 -1.49059812E+00
 -1.69444202E+00  7.28853015E-01 -1.60309077E-15 -1.67643653E+00 -6.46865331E+00
 -5.47448689E+00 -1.32189254E+00  2.01104436E-15 -6.13825125E-01 -1.14069886E+01
 -2.82981822E-02 -4.60705922E-01 -5.21203644E-01  4.00601509E-01 -8.38100833E-16
 -1.01865295E-04 -1.56984675E-02 -2.16296890E-02  1.96506942E-02 -4.06984599E-17
 -5.60562365E-07 -7.50469753E-04 -1.46222546E-03  8.07691357E-04 -1.73291843E-18
 -8.36336672E-07 -9.20310136E-04 -1.96960895E-03  4.43381759E-04 -1.07366370E-18
 -2.17991069E-04 -2.26147300E-02 -4.06398647E-02 -6.06042019E-04 -3.07682989E-18
 -4.04186162E-02 -5.47951370E-01 -7.56398523E-01  7.91628363E-02 -2.34141716E-16
 -4.51711572E-03 -3.92776802E-05 -7.70429485E-03 -1.68138197E+00 -4.98201300E-11
 -3.17043192E-06 -8.78363781E-06  1.08497129E-06 -3.04300540E-21  0.00000000E+00
 -1.73066367E-08 -5.47389093E-08  1.32976799E-08 -3.17464003E-23 -4.76411167E-06
 -8.61584026E-10 -7.60805475E-08 -1.69300713E-01 -1.60784450E+00 -6.29576654E-01
  1.91760951E+00 -3.81621842E-15 -1.68401149E+00 -6.89390946E+00  1.85970013E+00
  6.01968134E+00 -1.15774179E-14 -2.18415065E-01 -1.93238369E+00 -1.28573192E+01
Core Hamiltonian Matrix                    R   N=        1830
 -3.24241974E+01 -7.91975165E+00 -1.93441889E+01  5.20418715E-02  5.92088618E-01
 -1.86411784E+01  1.87116200E-02  2.15243360E-01  9.71127726E-03 -1.85090517E+01
 -3.11357603E-17 -3.58848501E-16 -1.15042821E-16  1.53376209E-15 -1.77253043E+01
 -5.47505688E-05 -1.18797766E+00  1.30748687E+00 -1.47132586E+00  3.01453403E-15
 -3.15295416E+01 -1.21847811E+00 -7.04434834E+00  5.08931173E+00 -5.39171042E+00
  1.10780869E-14 -7.69755281E+00 -1.84427863E+01 -1.33738726E+00 -4.82360267E+00
  5.47904308E-01 -4.78348311E+00  9.80325435E-15  2.06447639E-02  2.39505635E-01
 -1.77730849E+01  1.51244609E+00  5.83163382E+00 -5.29975684E+00  1.85268315E+00
 -1.14689433E-14  1.09729756E-01  1.27666874E+00  7.31754003E-02 -1.75021488E+01
 -3.09808698E-15 -1.19105618E-14  1.08129103E-14 -1.14147999E-14 -3.72760107E+00
 -2.12429026E-16 -2.47161243E-15 -2.34642955E-16  1.18477517E-15 -1.69002543E+01
  0.00000000E+00 -5.84691583E-02  1.27304824E-01 -4.24309518E-02  9.63314166E-17
 -5.47624876E-05 -1.19303722E+00  1.93616401E+00  3.98511407E-01 -5.76300722E-16
 -3.16970803E+01 -5.96351325E-02 -1.19833007E+00  1.66401206E+00 -5.57153926E-01
  1.26411440E-15 -1.18740282E+00 -6.89377915E+00  7.11965025E+00  1.80505820E+00
 -2.78341828E-15 -7.73916312E+00 -1.86103040E+01 -1.29851528E-01 -1.67163690E+00
  2.06372953E+00 -8.57539832E-01  1.94043988E-15 -1.92840499E+00 -7.23078975E+00
  5.73340235E+00  2.30648269E+00 -3.52663492E-15 -5.10278117E-02 -5.92649033E-01
 -1.78754280E+01  4.34222425E-02  5.58847024E-01 -8.54487288E-01 -2.01811582E-01
 -5.70508475E-16 -3.89742273E-01 -1.12450848E+00  1.58111954E+00 -3.37999355E+00
 -3.62070573E-16  9.15309161E-02  1.06510731E+00 -1.36420549E-01 -1.77431187E+01
 -9.85371260E-17 -1.26822517E-15  1.93447014E-15 -5.70828606E-16 -4.47710878E-01
  5.59964990E-16  1.44083871E-15 -2.10807109E-15 -2.85999250E-16 -3.64992184E+00
 -1.84354829E-16 -2.14514110E-15  1.81222221E-16  1.32263459E-15 -1.70594920E+01
  0.00000000E+00 -1.37467939E-02  3.56217681E-02  7.26305615E-03 -1.04682926E-17
  0.00000000E+00 -5.97473797E-02  1.02648887E-01  9.09569762E-02 -1.67115795E-16
 -5.51357803E-05 -1.22016749E+00  6.38963238E-01  1.91806981E+00 -3.68408247E-15
 -3.24241974E+01 -1.37467939E-02 -5.15862575E-01  8.08011745E-01  1.64910309E-01
 -2.37769558E-16 -5.82889997E-02 -1.20161092E+00  1.32523844E+00  1.17108666E+00
 -2.15126523E-15 -1.19521729E+00 -7.10261938E+00  2.20869511E+00  7.29121633E+00
 -1.40275080E-14 -7.91975165E+00 -1.93441889E+01 -3.56217681E-02 -8.08011745E-01
  1.16415123E+00  2.79220299E-01 -4.05139355E-16 -1.00172662E-01 -1.31324224E+00
  1.10062636E+00  1.40896722E+00 -2.59296521E-15 -6.29820280E-01 -2.55576432E+00
 -2.92209564E+00  3.27544227E+00 -6.31794950E-15 -5.20418715E-02 -5.92088618E-01
 -1.86411784E+01 -7.26305615E-03 -1.64910309E-01  2.79220299E-01 -1.45345315E-01
 -3.76491809E-17 -8.86128240E-02 -1.16909920E+00  1.42038069E+00  7.66043240E-01
 -2.22690147E-15 -1.87749061E+00 -7.04117950E+00  2.84523832E+00  5.34442800E+00
 -1.75035812E-14 -1.87116200E-02 -2.15243360E-01  9.71127726E-03 -1.85090517E+01
  1.04682926E-17  2.37769558E-16 -4.05139355E-16 -3.76491809E-17 -1.79570060E-01
  1.62791120E-16  2.14863652E-15 -2.61528609E-15 -2.22809844E-15 -4.48821027E-01
  3.60568220E-15  1.35021226E-14 -5.47661676E-15 -1.74584642E-14 -3.75836569E+00
  3.11357603E-17  3.58848501E-16 -1.15042821E-16  1.53376209E-15 -1.77253043E+01
  0.00000000E+00 -5.82889997E-02  1.00172662E-01  8.86128240E-02 -1.62791120E-16
  0.00000000E+00 -1.34576071E-02  1.12661209E-02  3.37356550E-02 -6.47939602E-17
  0.00000000E+00 -5.83021970E-02 -2.68041548E-02  1.31055507E-01 -2.59111080E-16
 -5.47505688E-05 -1.18797766E+00 -1.30748687E+00  1.47132586E+00 -3.01453403E-15
 -3.15295416E+01 -5.97473797E-02 -1.20161092E+00  1.31324224E+00  1.16909920E+00
 -2.14863652E-15 -1.34576071E-02 -5.15393559E-01  2.60484131E-01  7.81303023E-01
 -1.50064534E-15 -5.85906543E-02 -1.20881339E+00 -3.41629058E-01  1.73963343E+00
 -3.43795964E-15 -1.21847811E+00 -7.04434834E+00 -5.08931173E+00  5.39171042E+00
 -1.10780869E-14 -7.69755281E+00 -1.84427863E+01 -1.02648887E-01 -1.32523844E+00
  1.10062636E+00  1.42038069E+00 -2.61528609E-15 -1.12661209E-02 -2.60484131E-01
 -6.20364747E-02  4.26828052E-01 -8.22460004E-16  2.68546425E-02  3.67392215E-01
 -3.83899587E-01 -5.81672643E-01  1.14455475E-15  1.33738726E+00  4.82360267E+00
  5.47904308E-01 -4.78348311E+00  9.80325435E-15 -2.06447639E-02 -2.39505635E-01
 -1.77730849E+01 -9.09569762E-02 -1.17108666E+00  1.40896722E+00  7.66043240E-01
 -2.22809844E-15 -3.37356550E-02 -7.81303023E-01  4.26828052E-01  1.07904969E+00
 -2.41563407E-15 -1.31729007E-01 -1.73694542E+00 -5.42803000E-01  2.26247908E+00
 -5.36289120E-15 -1.51244609E+00 -5.83163382E+00 -5.29975684E+00  1.85268315E+00
 -1.14689433E-14 -1.09729756E-01 -1.27666874E+00  7.31754003E-02 -1.75021488E+01
  1.67115795E-16  2.15126523E-15 -2.59296521E-15 -2.22690147E-15 -4.48821027E-01
  6.47939602E-17  1.50064534E-15 -8.22460004E-16 -2.41563407E-15 -1.79040553E-01
  2.60433511E-16  3.43540467E-15  1.06853894E-15 -5.36696759E-15 -4.50653626E-01
  3.09808698E-15  1.19105618E-14  1.08129103E-14 -1.14147999E-14 -3.72760107E+00
  2.12429026E-16  2.47161243E-15 -2.34642955E-16  1.18477517E-15 -1.69002543E+01
 -5.51357803E-05 -1.19521729E+00  6.29820280E-01  1.87749061E+00 -3.60568220E-15
  0.00000000E+00 -5.85906543E-02 -2.68546425E-02  1.31729007E-01 -2.60433511E-16
  0.00000000E+00 -1.34979674E-02 -2.36627124E-02  2.67064632E-02 -5.47103564E-17
  0.00000000E+00 -5.84691583E-02 -1.27304824E-01  4.24309518E-02 -9.63314166E-17
 -5.47624876E-05 -1.19303722E+00 -1.93616401E+00 -3.98511407E-01  5.76300722E-16
 -3.16970803E+01 -1.22016749E+00 -7.10261938E+00  2.55576432E+00  7.04117950E+00
 -1.35021226E-14 -5.83021970E-02 -1.20881339E+00 -3.67392215E-01  1.73694542E+00
 -3.43540467E-15 -1.34979674E-02 -5.15163685E-01 -5.45593566E-01  6.16628777E-01
 -1.26313461E-15 -5.96351325E-02 -1.19833007E+00 -1.66401206E+00  5.57153926E-01
 -1.26411440E-15 -1.18740282E+00 -6.89377915E+00 -7.11965025E+00 -1.80505820E+00
  2.78341828E-15 -7.73916312E+00 -1.86103040E+01 -6.38963238E-01 -2.20869511E+00
 -2.92209564E+00  2.84523832E+00 -5.47661676E-15  2.68041548E-02  3.41629058E-01
 -3.83899587E-01 -5.42803000E-01  1.06853894E-15  2.36627124E-02  5.45593566E-01
  4.20519688E-01 -7.06546246E-01  1.44464146E-15  1.29851528E-01  1.67163690E+00
  2.06372953E+00 -8.57539832E-01  1.94043988E-15  1.92840499E+00  7.23078975E+00
  5.73340235E+00  2.30648269E+00 -3.52663492E-15  5.10278117E-02  5.92649033E-01
 -1.78754280E+01 -1.91806981E+00 -7.29121633E+00  3.27544227E+00  5.34442800E+00
 -1.74584642E-14 -1.31055507E-01 -1.73963343E+00 -5.81672643E-01  2.26247908E+00
 -5.36696759E-15 -2.67064632E-02 -6.16628777E-01 -7.06546246E-01  5.96440612E-01
 -1.59066000E-15 -4.34222425E-02 -5.58847024E-01 -8.54487288E-01 -2.01811582E-01
 -5.70508475E-16  3.89742273E-01  1.12450848E+00  1.58111954E+00 -3.37999355E+00
 -3.62070573E-16 -9.15309161E-02 -1.06510731E+00 -1.36420549E-01 -1.77431187E+01
  3.68408247E-15  1.40275080E-14 -6.31794950E-15 -1.75035812E-14 -3.75836569E+00
  2.59111080E-16  3.43795964E-15  1.14455475E-15 -5.36289120E-15 -4.50653626E-01
  5.47103564E-17  1.26313461E-15  1.44464146E-15 -1.59066000E-15 -1.79032595E-01
  9.85371260E-17  1.26822517E-15  1.93447014E-15 -5.70828606E-16 -4.47710878E-01
 -5.59964990E-16 -1.44083871E-15 -2.10807109E-15 -2.85999250E-16 -3.64992184E+00
  1.84354829E-16  2.14514110E-15  1.81222221E-16  1.32263459E-15 -1.70594920E+01
 -1.69799627E-01 -1.68622828E+00  6.52135345E-01 -1.99754971E+00  3.97492009E-15
 -1.88458653E+00 -7.82093570E+00 -2.18788166E+00 -6.28905509E+00  1.20698039E-14
 -1.65888903E-01 -1.63291999E+00 -1.70048030E+00 -1.14090147E+00  2.05288037E-15
 -2.98906858E-03 -1.24789599E-01 -1.30852299E-01 -1.57410809E-01  2.94119120E-16
 -3.89523959E-04 -3.64167450E-02 -2.07066574E-02 -6.18525162E-02  1.18790924E-16
 -2.93436408E-03 -1.26787513E-01  8.57410451E-03 -2.08189614E-01  4.08047334E-16
 -1.33319314E+01 -2.98214294E-03 -1.24422741E-01  1.81965852E-01 -9.30706807E-02
  2.01098008E-16 -1.65067490E-01 -1.63906497E+00  2.02872895E+00 -3.83618157E-01
  9.62986523E-16 -1.89561879E+00 -7.96748154E+00  4.63664163E+00 -5.03167393E+00
  1.03265049E-14 -1.70025234E-01 -1.71790974E+00  2.01979227E-01 -2.14022557E+00
  4.20673617E-15 -2.91826037E-03 -1.27138690E-01  7.41177698E-02 -1.95898475E-01
  3.90883830E-16 -3.90574076E-04 -3.64051780E-02  4.33149405E-02 -4.88004406E-02
  9.99796648E-17 -7.35438496E-01 -1.37551347E+01 -2.98906858E-03 -1.24789599E-01
  1.30852299E-01  1.57410809E-01 -2.94119120E-16 -3.89523959E-04 -3.64167450E-02
  2.07066574E-02  6.18525162E-02 -1.18790924E-16 -2.93436408E-03 -1.26787513E-01
 -8.57410451E-03  2.08189614E-01 -4.08047334E-16 -1.69799627E-01 -1.68622828E+00
 -6.52135345E-01  1.99754971E+00 -3.97492009E-15 -1.88458653E+00 -7.82093570E+00
  2.18788166E+00  6.28905509E+00 -1.20698039E-14 -1.65888903E-01 -1.63291999E+00
  1.70048030E+00  1.14090147E+00 -2.05288037E-15 -2.20691897E-03 -1.47280700E-02
 -1.33319314E+01 -1.70025234E-01 -1.71790974E+00 -2.01979227E-01  2.14022557E+00
 -4.20673617E-15 -2.91826037E-03 -1.27138690E-01 -7.41177698E-02  1.95898475E-01
 -3.90883830E-16 -3.90574076E-04 -3.64051780E-02 -4.33149405E-02  4.88004406E-02
 -9.99796648E-17 -2.98214294E-03 -1.24422741E-01 -1.81965852E-01  9.30706807E-02
 -2.01098008E-16 -1.65067490E-01 -1.63906497E+00 -2.02872895E+00  3.83618157E-01
 -9.62986523E-16 -1.89561879E+00 -7.96748154E+00 -4.63664163E+00  5.03167393E+00
 -1.03265049E-14 -1.47280700E-02 -2.20483147E-03 -7.35438496E-01 -1.37551347E+01
  0.00000000E+00 -3.33807450E-06  1.33522931E-05  2.72072985E-06 -3.92052220E-21
  0.00000000E+00 -7.23803115E-05  2.26773165E-04  1.30534282E-04 -2.31498217E-19
  0.00000000E+00 -3.43910603E-02  6.36423119E-02  5.32073584E-02 -9.73811242E-17
 -4.22383165E-06 -7.90837694E-01  1.29870948E+00  2.64075060E-01 -3.80240956E-16
  0.00000000E+00 -3.42242388E-02  7.90322462E-02 -2.39758149E-02  5.51769294E-17
  0.00000000E+00 -7.19997975E-05  2.58455171E-04 -3.12390861E-05  8.81981176E-20
 -6.30063627E-06 -3.04183830E-02 -3.02295604E-02 -6.25829188E-06 -2.99449455E+01
 -3.59057085E-06 -6.06455660E-03  1.29961724E-02  2.64276197E-03 -3.80539112E-18
 -7.60317283E-05 -3.05793862E-02  5.17372783E-02  3.06360758E-02 -5.44878873E-17
 -3.61855596E-02 -8.47566205E-01  9.46087052E-01  8.54080065E-01 -1.57107097E-15
 -8.50203306E-01 -5.37968563E+00  5.78131551E+00  1.12637836E+00 -1.59650690E-15
 -3.59414627E-02 -8.29438228E-01  1.17459724E+00 -4.17219453E-01  9.39123513E-16
 -7.61998656E-05 -3.02944270E-02  5.89755267E-02 -7.99443822E-03  2.18193704E-17
 -3.05620116E-03 -5.05423455E-01 -4.79997570E-01 -3.01357562E-03 -7.30399872E+00
 -1.68594268E+01 -1.43701269E-05 -1.29196335E-02  2.61843391E-02  5.71707817E-03
 -8.25654464E-18 -2.38333270E-04 -5.29930856E-02  8.27288779E-02  5.43312591E-02
 -9.66536003E-17 -6.70730779E-02 -1.01637404E+00  8.97052847E-01  1.10944171E+00
 -2.04327792E-15 -1.39661100E+00 -6.04632258E+00  5.19584192E+00  1.58543730E+00
 -2.27467953E-15 -8.30843801E-02 -1.22495431E+00  1.56145384E+00 -6.62815894E-01
  1.49170093E-15 -2.73620373E-04 -5.98553909E-02  1.10254716E-01 -1.58469775E-02
  4.34692900E-17 -5.02157358E-03 -3.47307247E-01 -5.50711269E-01 -6.05877707E-03
 -5.86573164E-02 -7.06677945E-01 -1.61922606E+01 -2.93112495E-06 -2.64505135E-03
  5.75619987E-03 -7.37937216E-04 -1.27389963E-18 -1.37050972E-04 -2.95694110E-02
  5.12955771E-02  2.06273275E-02 -5.21876854E-17 -5.59560090E-02 -7.94022297E-01
  9.72932341E-01  5.43979048E-01 -1.56479977E-15 -2.85273630E-01 -1.30559040E+00
  1.72275722E+00 -2.41770007E+00 -3.31001711E-16  2.50263122E-02  3.11571403E-01
 -4.88728453E-01 -1.50335731E-01 -3.48445489E-16  3.28009761E-05  6.21725633E-03
 -1.21639336E-02 -7.83858899E-03 -3.01247263E-18 -3.85165337E-03 -6.37301976E-01
  4.14699638E-01  1.53519669E-03 -6.17412322E-02 -7.11930924E-01  1.40626512E-01
 -1.58558886E+01  4.22523980E-21  3.81789527E-18 -8.33305340E-18 -1.27800246E-18
 -1.69800793E-03  2.43030300E-19  5.22701528E-17 -9.07168378E-17 -5.18693230E-17
 -8.80888508E-03  1.02396754E-16  1.44624715E-15 -1.77631199E-15 -1.55048357E-15
 -3.08333919E-01  4.11430887E-16  1.91919254E-15 -2.54323063E-15 -3.45402922E-16
 -2.67933713E+00 -5.76563064E-17 -7.37792948E-16  1.15124506E-15 -3.66702636E-16
 -3.02300199E-01 -9.28430707E-20 -1.84360809E-17  3.62665078E-17 -3.39872608E-18
 -8.72667740E-03  7.00589545E-18  1.20992279E-15 -8.68766549E-16 -3.63772779E-18
  1.14593275E-16  1.31818321E-15 -3.60363067E-16  9.48423683E-16 -1.53784664E+01
  0.00000000E+00 -8.15703882E-09  3.96035605E-08 -6.31332066E-10  5.38803233E-24
  0.00000000E+00 -2.77596777E-06  1.10973710E-05  2.51736485E-06 -3.75929079E-21
  0.00000000E+00 -5.85729312E-03  1.59436076E-02  3.78859740E-03 -5.73714820E-18
  0.00000000E+00 -3.58053011E-02  8.26341154E-02 -2.17699757E-02  5.12407978E-17
  0.00000000E+00 -1.01862171E-04  3.23004742E-04 -1.62136665E-04  3.50958835E-19
  0.00000000E+00 -4.91786775E-08  2.18516097E-07 -6.50308961E-08  1.50094867E-22
 -1.08899622E-06 -4.15053479E-02 -1.56373702E-04 -4.19647393E-09 -1.59627713E-04
 -1.25202959E+00  1.44658385E+00 -1.48865523E+00  3.06301196E-15 -2.81614305E+01
 -9.19404649E-09 -2.57636527E-04  6.54784161E-04 -6.92509733E-06  8.22125999E-20
 -3.07450096E-06 -5.04556474E-03  1.05273416E-02  2.63999039E-03 -4.05888562E-18
 -6.49986076E-03 -2.87778225E-01  4.54940338E-01  1.25450172E-01 -1.97626750E-16
 -4.05834055E-02 -8.56353510E-01  1.23090616E+00 -3.03671568E-01  7.22967748E-16
 -1.12249878E-04 -3.53489528E-02  6.07114866E-02 -3.16634322E-02  6.82899354E-17
 -5.44389255E-08 -6.61034267E-04  1.53770519E-03 -4.69541908E-04  1.07952883E-18
 -9.70498082E-04 -5.73946157E-01 -1.95432720E-02 -4.24174030E-05 -1.32346326E+00
 -6.58668188E+00  4.43325914E+00 -4.93413174E+00  1.01144160E-14 -6.86104067E+00
 -1.50690811E+01 -4.46861149E-08 -6.64733035E-04  1.61838447E-03 -2.00027533E-05
  2.16203402E-19 -1.23023107E-05 -1.10096399E-02  2.17038548E-02  5.81400674E-03
 -8.94359006E-18 -1.77258996E-02 -4.72408370E-01  6.88826642E-01  2.17742187E-01
 -3.43259056E-16 -9.38636426E-02 -1.25742226E+00  1.62968716E+00 -4.92099397E-01
  1.16605567E-15 -3.56496489E-04 -6.23470134E-02  9.85699880E-02 -5.77425105E-02
  1.24342176E-16 -2.42120568E-07 -1.56642759E-03  3.46246283E-03 -1.11737949E-03
  2.56717895E-18 -1.98385325E-03 -6.85504903E-01 -2.72381685E-02 -1.00233307E-04
 -1.53311643E+00 -5.04239323E+00  6.99392376E-01 -4.78314158E+00  9.80169669E-15
 -1.02089480E-01 -1.18093414E+00 -1.42658221E+01  7.32832453E-10  1.47078669E-05
 -3.97317855E-05 -7.83198271E-05  1.17656904E-20 -2.77575600E-06 -2.23099477E-03
  4.69998468E-03 -3.80800502E-04 -1.56838403E-18 -4.18025013E-03 -9.43893874E-02
  1.60728569E-01 -6.23429420E-02 -5.38737773E-17  2.47308823E-02  3.57767454E-01
 -5.60857818E-01 -1.94145591E-01 -2.90142822E-16  1.78617302E-04  3.03342954E-02
 -5.39984545E-02  1.73058345E-02 -5.96483707E-17  7.20434214E-08  4.55100629E-04
 -1.06397122E-03  1.32057635E-04 -7.21242083E-19 -7.83826981E-04 -4.28571941E-01
  2.32924664E-02  3.92714865E-05  1.56963666E+00  4.84191208E+00 -4.27151042E+00
  1.05018144E+00 -9.47883599E-15  4.52465222E-02  5.17119227E-01  2.21026196E-01
 -1.41092156E+01 -6.11955752E-24 -9.84764251E-20  2.54786685E-19  1.38347417E-20
 -7.01729622E-05  4.13824991E-21  3.20844889E-18 -6.76494149E-18 -1.45155271E-18
 -1.43481161E-03  6.31617276E-18  1.35050478E-16 -2.31759794E-16 -4.78945635E-17
 -9.85097234E-02 -5.82090041E-17 -8.31541752E-16  1.30052377E-15 -2.82931890E-16
 -3.12429810E-01 -3.86701756E-19 -6.58621189E-17  1.17020075E-16 -6.00410228E-17
 -1.02988425E-02 -1.66284465E-22 -1.05429881E-18  2.46273053E-18 -7.26843191E-19
 -1.79683524E-04  1.32484571E-18  7.66249826E-16 -4.84087093E-17 -8.73134932E-20
 -3.23045909E-15 -9.99794771E-15  8.80112001E-15 -9.53249250E-15 -3.56762902E+00
 -9.91932957E-17 -1.13515810E-15 -4.93196049E-16  8.53381493E-16 -1.36847033E+01
 -2.46118902E-06 -1.74836155E-03  3.42003419E-03  1.45983709E-03 -2.49627454E-18
 -9.20708033E-06 -3.88917098E-03  6.05283768E-03  5.10939427E-03 -9.35745702E-18
 -2.20717988E-03 -1.00708981E-01  1.02434778E-01  1.31911845E-01 -2.47232054E-16
 -1.42242927E-01 -1.42436683E+00  1.43105972E+00  1.06866887E+00 -1.93987301E-15
 -3.58607010E-02 -5.27509531E-01  7.38266728E-01  4.82959518E-02 -1.70259032E-17
 -1.50204288E-04 -1.91023116E-02  3.46073215E-02  4.18954086E-03 -4.56392961E-18
 -2.96008640E-04 -4.81124749E-02 -7.40991878E-01 -3.46032128E-03 -1.79792367E+00
 -7.28769711E+00  1.19169084E+00  6.16193695E+00 -1.19256780E-14 -1.61797394E-01
 -1.55154743E+00 -7.60292203E-01  1.82033400E+00 -3.63968916E-15 -1.25095684E+01
 -4.02898377E-10 -1.01081658E-05  2.67397697E-05  7.42253180E-07  1.35269646E-21
 -8.53895283E-08 -2.15012898E-04  4.81291393E-04  1.19061487E-04 -1.82369127E-19
 -1.81191874E-04 -1.89986285E-02  3.36342741E-02  8.87625832E-03 -1.38316031E-17
 -1.80582988E-03 -8.14193780E-02  1.34427274E-01 -1.52894669E-02  4.39988512E-17
 -7.97265928E-06 -3.19927084E-03  6.14916199E-03 -2.19121785E-03  4.93016121E-18
 -3.81887224E-09 -3.76026947E-05  9.24063080E-05 -2.01223001E-05  4.90433477E-20
 -4.57635936E-05 -5.96132490E-02 -3.13144467E-03 -2.93706018E-06 -1.70887973E-01
 -1.50541390E+00  1.69395760E+00 -7.28676116E-01  1.60269401E-15 -1.68723810E+00
 -6.36446979E+00  5.22353381E+00  1.27075834E+00 -1.93736155E-15 -6.24408087E-01
 -1.06469567E+01 -9.61475121E-07 -9.89979400E-04  2.10148417E-03 -4.74326119E-04
  1.14801056E-18 -2.36904342E-04 -2.37595110E-02  4.23926642E-02  5.57731674E-04
  3.35513061E-18 -4.15494483E-02 -5.59565558E-01  7.65584294E-01 -8.05221253E-02
  2.37763367E-16 -2.91829195E-02 -4.70863801E-01  5.28450721E-01 -4.06276913E-01
  8.49960021E-16 -1.11571403E-04 -1.64867622E-02  2.25684740E-02 -2.04823734E-02
  4.24233954E-17 -6.48684991E-07 -8.07728665E-04  1.56099882E-03 -8.62340641E-04
  1.85015256E-18 -8.15628857E-03 -1.69077379E+00 -4.76335887E-03 -4.28099480E-05
 -1.71692054E-01 -1.62266039E+00  6.29413028E-01 -1.91712127E+00  3.81524643E-15
 -1.69481295E+00 -6.78972485E+00 -1.80187346E+00 -5.77018325E+00  1.10955489E-14
 -2.24065227E-01 -1.93982751E+00 -1.20972873E+01 -4.22383165E-06 -7.90837694E-01
 -1.29870948E+00 -2.64075060E-01  3.80240956E-16  0.00000000E+00 -3.42242388E-02
 -7.90322462E-02  2.39758149E-02 -5.51769294E-17  0.00000000E+00 -7.19997975E-05
 -2.58455171E-04  3.12390861E-05 -8.81981176E-20  0.00000000E+00 -3.33807450E-06
 -1.33522931E-05 -2.72072985E-06  3.92052220E-21  0.00000000E+00 -7.23803115E-05
 -2.26773165E-04 -1.30534282E-04  2.31498217E-19  0.00000000E+00 -3.43910603E-02
 -6.36423119E-02 -5.32073584E-02  9.73811242E-17 -3.02295604E-02 -6.25829188E-06
 -6.30063627E-06 -3.04183830E-02  0.00000000E+00  0.00000000E+00  0.00000000E+00
  0.00000000E+00  0.00000000E+00  0.00000000E+00  0.00000000E+00  0.00000000E+00
  0.00000000E+00  0.00000000E+00 -1.16810698E-10  0.00000000E+00 -6.47876510E-11
 -2.99449455E+01 -8.50203306E-01 -5.37968563E+00 -5.78131551E+00 -1.12637836E+00
  1.59650690E-15 -3.59414627E-02 -8.29438228E-01 -1.17459724E+00  4.17219453E-01
 -9.39123513E-16 -7.61998656E-05 -3.02944270E-02 -5.89755267E-02  7.99443822E-03
 -2.18193704E-17 -3.59057085E-06 -6.06455660E-03 -1.29961724E-02 -2.64276197E-03
  3.80539112E-18 -7.60317283E-05 -3.05793862E-02 -5.17372783E-02 -3.06360758E-02
  5.44878873E-17 -3.61855596E-02 -8.47566205E-01 -9.46087052E-01 -8.54080065E-01
  1.57107097E-15 -4.79997570E-01 -3.01357562E-03 -3.05620116E-03 -5.05423455E-01
  0.00000000E+00 -1.22021559E-05 -3.46831909E-05 -7.07667474E-06  1.02022257E-20
  0.00000000E+00 -2.26133042E-07 -7.44606103E-07 -2.47704211E-08 -2.96468721E-23
 -5.13102188E-06 -7.36622941E-09 -3.59186731E-06 -7.30399872E+00 -1.68594268E+01
  1.39661100E+00  6.04632258E+00  5.19584192E+00  1.58543730E+00 -2.27467953E-15
  8.30843801E-02  1.22495431E+00  1.56145384E+00 -6.62815894E-01  1.49170093E-15
  2.73620373E-04  5.98553909E-02  1.10254716E-01 -1.58469775E-02  4.34692900E-17
  1.43701269E-05  1.29196335E-02  2.61843391E-02  5.71707817E-03 -8.25654464E-18
  2.38333270E-04  5.29930856E-02  8.27288779E-02  5.43312591E-02 -9.66536003E-17
  6.70730779E-02  1.01637404E+00  8.97052847E-01  1.10944171E+00 -2.04327792E-15
  5.50711269E-01  6.05877707E-03  5.02157358E-03  3.47307247E-01  0.00000000E+00
  3.46831909E-05  9.47469135E-05  2.01226119E-05 -2.90590120E-20  0.00000000E+00
  7.46858628E-07  2.38903317E-06  8.08500185E-08  9.89854178E-23  1.31429953E-05
  2.44141955E-08  9.86307886E-06  5.86573164E-02  7.06677945E-01 -1.61922606E+01
  2.85273630E-01  1.30559040E+00  1.72275722E+00 -2.41770007E+00 -3.31001711E-16
 -2.50263122E-02 -3.11571403E-01 -4.88728453E-01 -1.50335731E-01 -3.48445489E-16
 -3.28009761E-05 -6.21725633E-03 -1.21639336E-02 -7.83858899E-03 -3.01247263E-18
  2.93112495E-06  2.64505135E-03  5.75619987E-03 -7.37937216E-04 -1.27389963E-18
  1.37050972E-04  2.95694110E-02  5.12955771E-02  2.06273275E-02 -5.21876854E-17
  5.59560090E-02  7.94022297E-01  9.72932341E-01  5.43979048E-01 -1.56479977E-15
 -4.14699638E-01 -1.53519669E-03  3.85165337E-03  6.37301976E-01  0.00000000E+00
  7.07667474E-06  2.01226119E-05  2.61633118E-07 -5.06876315E-21  0.00000000E+00
  2.51626680E-08  8.19051785E-08 -6.63678195E-08  1.61560700E-23  4.91798937E-06
  1.41294325E-09 -1.22708611E-06  6.17412322E-02  7.11930924E-01  1.40626512E-01
 -1.58558886E+01 -4.11430887E-16 -1.91919254E-15 -2.54323063E-15 -3.45402922E-16
 -2.67933713E+00  5.76563064E-17  7.37792948E-16  1.15124506E-15 -3.66702636E-16
 -3.02300199E-01  9.28430707E-20  1.84360809E-17  3.62665078E-17 -3.39872608E-18
 -8.72667740E-03 -4.22523980E-21 -3.81789527E-18 -8.33305340E-18 -1.27800246E-18
 -1.69800793E-03 -2.43030300E-19 -5.22701528E-17 -9.07168378E-17 -5.18693230E-17
 -8.80888508E-03 -1.02396754E-16 -1.44624715E-15 -1.77631199E-15 -1.55048357E-15
 -3.08333919E-01  8.68766549E-16  3.63772779E-18 -7.00589545E-18 -1.20992279E-15
  0.00000000E+00 -1.02022257E-20 -2.90590120E-20 -5.06876315E-21 -3.40929633E-06
  0.00000000E+00  2.91160006E-23  9.69218833E-23  1.60454118E-23 -6.24988484E-08
 -8.23956493E-21 -2.02836340E-25  3.43413838E-21 -1.14593275E-16 -1.31818321E-15
 -3.60363067E-16  9.48423683E-16 -1.53784664E+01  0.00000000E+00 -3.58053011E-02
 -8.26341154E-02  2.17699757E-02 -5.12407978E-17  0.00000000E+00 -1.01862171E-04
 -3.23004742E-04  1.62136665E-04 -3.50958835E-19  0.00000000E+00 -4.91786775E-08
 -2.18516097E-07  6.50308961E-08 -1.50094867E-22  0.00000000E+00 -8.15703882E-09
 -3.96035605E-08  6.31332066E-10 -5.38803233E-24  0.00000000E+00 -2.77596777E-06
 -1.10973710E-05 -2.51736485E-06  3.75929079E-21  0.00000000E+00 -5.85729312E-03
 -1.59436076E-02 -3.78859740E-03  5.73714820E-18 -1.56373702E-04 -4.19647393E-09
 -1.08899622E-06 -4.15053479E-02  0.00000000E+00  0.00000000E+00  0.00000000E+00
  0.00000000E+00  0.00000000E+00  0.00000000E+00  0.00000000E+00  0.00000000E+00
  0.00000000E+00  0.00000000E+00  0.00000000E+00  0.00000000E+00  0.00000000E+00
 -1.59627713E-04 -1.25202959E+00 -1.44658385E+00  1.48865523E+00 -3.06301196E-15
 -2.81614305E+01 -4.05834055E-02 -8.56353510E-01 -1.23090616E+00  3.03671568E-01
 -7.22967748E-16 -1.12249878E-04 -3.53489528E-02 -6.07114866E-02  3.16634322E-02
 -6.82899354E-17 -5.44389255E-08 -6.61034267E-04 -1.53770519E-03  4.69541908E-04
 -1.07952883E-18 -9.19404649E-09 -2.57636527E-04 -6.54784161E-04  6.92509733E-06
 -8.22125999E-20 -3.07450096E-06 -5.04556474E-03 -1.05273416E-02 -2.63999039E-03
  4.05888562E-18 -6.49986076E-03 -2.87778225E-01 -4.54940338E-01 -1.25450172E-01
  1.97626750E-16 -1.95432720E-02 -4.24174030E-05 -9.70498082E-04 -5.73946157E-01
  0.00000000E+00 -2.26133042E-07 -7.46858628E-07 -2.51626680E-08 -2.91160006E-23
  0.00000000E+00  0.00000000E+00  0.00000000E+00  0.00000000E+00  0.00000000E+00
 -2.70628996E-07  0.00000000E+00 -2.04734031E-08 -1.32346326E+00 -6.58668188E+00
 -4.43325914E+00  4.93413174E+00 -1.01144160E-14 -6.86104067E+00 -1.50690811E+01
  9.38636426E-02  1.25742226E+00  1.62968716E+00 -4.92099397E-01  1.16605567E-15
  3.56496489E-04  6.23470134E-02  9.85699880E-02 -5.77425105E-02  1.24342176E-16
  2.42120568E-07  1.56642759E-03  3.46246283E-03 -1.11737949E-03  2.56717895E-18
  4.46861149E-08  6.64733035E-04  1.61838447E-03 -2.00027533E-05  2.16203402E-19
  1.23023107E-05  1.10096399E-02  2.17038548E-02  5.81400674E-03 -8.94359006E-18
  1.77258996E-02  4.72408370E-01  6.88826642E-01  2.17742187E-01 -3.43259056E-16
  2.72381685E-02  1.00233307E-04  1.98385325E-03  6.85504903E-01  0.00000000E+00
  7.44606103E-07  2.38903317E-06  8.19051785E-08  9.69218833E-23  0.00000000E+00
  0.00000000E+00  0.00000000E+00  0.00000000E+00  0.00000000E+00  8.04116313E-07
  0.00000000E+00  6.42147959E-08  1.53311643E+00  5.04239323E+00  6.99392376E-01
 -4.78314158E+00  9.80169669E-15  1.02089480E-01  1.18093414E+00 -1.42658221E+01
 -2.47308823E-02 -3.57767454E-01 -5.60857818E-01 -1.94145591E-01 -2.90142822E-16
 -1.78617302E-04 -3.03342954E-02 -5.39984545E-02  1.73058345E-02 -5.96483707E-17
 -7.20434214E-08 -4.55100629E-04 -1.06397122E-03  1.32057635E-04 -7.21242083E-19
 -7.32832453E-10 -1.47078669E-05 -3.97317855E-05 -7.83198271E-05  1.17656904E-20
  2.77575600E-06  2.23099477E-03  4.69998468E-03 -3.80800502E-04 -1.56838403E-18
  4.18025013E-03  9.43893874E-02  1.60728569E-01 -6.23429420E-02 -5.38737773E-17
 -2.32924664E-02 -3.92714865E-05  7.83826981E-04  4.28571941E-01  0.00000000E+00
  2.47704211E-08  8.08500185E-08 -6.63678195E-08  1.60454118E-23  0.00000000E+00
  0.00000000E+00  0.00000000E+00  0.00000000E+00  0.00000000E+00  1.41356001E-07
  0.00000000E+00 -1.56125369E-08 -1.56963666E+00 -4.84191208E+00 -4.27151042E+00
  1.05018144E+00 -9.47883599E-15 -4.52465222E-02 -5.17119227E-01  2.21026196E-01
 -1.41092156E+01  5.82090041E-17  8.31541752E-16  1.30052377E-15 -2.82931890E-16
 -3.12429810E-01  3.86701756E-19  6.58621189E-17  1.17020075E-16 -6.00410228E-17
 -1.02988425E-02  1.66284465E-22  1.05429881E-18  2.46273053E-18 -7.26843191E-19
 -1.79683524E-04  6.11955752E-24  9.84764251E-20  2.54786685E-19  1.38347417E-20
 -7.01729622E-05 -4.13824991E-21 -3.20844889E-18 -6.76494149E-18 -1.45155271E-18
 -1.43481161E-03 -6.31617276E-18 -1.35050478E-16 -2.31759794E-16 -4.78945635E-17
 -9.85097234E-02  4.84087093E-17  8.73134932E-20 -1.32484571E-18 -7.66249826E-16
  0.00000000E+00  2.96468721E-23  9.89854178E-23  1.61560700E-23 -6.24988484E-08
  0.00000000E+00  0.00000000E+00  0.00000000E+00  0.00000000E+00  0.00000000E+00
 -1.92113864E-22  0.00000000E+00  3.72672428E-23  3.23045909E-15  9.99794771E-15
  8.80112001E-15 -9.53249250E-15 -3.56762902E+00  9.91932957E-17  1.13515810E-15
 -4.93196049E-16  8.53381493E-16 -1.36847033E+01 -1.42242927E-01 -1.42436683E+00
 -1.43105972E+00 -1.06866887E+00  1.93987301E-15 -3.58607010E-02 -5.27509531E-01
 -7.38266728E-01 -4.82959518E-02  1.70259032E-17 -1.50204288E-04 -1.91023116E-02
 -3.46073215E-02 -4.18954086E-03  4.56392961E-18 -2.46118902E-06 -1.74836155E-03
 -3.42003419E-03 -1.45983709E-03  2.49627454E-18 -9.20708033E-06 -3.88917098E-03
 -6.05283768E-03 -5.10939427E-03  9.35745702E-18 -2.20717988E-03 -1.00708981E-01
 -1.02434778E-01 -1.31911845E-01  2.47232054E-16 -7.40991878E-01 -3.46032128E-03
 -2.96008640E-04 -4.81124749E-02 -1.16810698E-10 -5.13102188E-06 -1.31429953E-05
 -4.91798937E-06  8.23956493E-21  0.00000000E+00 -2.70628996E-07 -8.04116313E-07
 -1.41356001E-07  1.92113864E-22 -1.17488511E-06 -8.71521649E-09 -5.33755991E-06
 -1.79792367E+00 -7.28769711E+00 -1.19169084E+00 -6.16193695E+00  1.19256780E-14
 -1.61797394E-01 -1.55154743E+00  7.60292203E-01 -1.82033400E+00  3.63968916E-15
 -1.25095684E+01 -1.80582988E-03 -8.14193780E-02 -1.34427274E-01  1.52894669E-02
 -4.39988512E-17 -7.97265928E-06 -3.19927084E-03 -6.14916199E-03  2.19121785E-03
 -4.93016121E-18 -3.81887224E-09 -3.76026947E-05 -9.24063080E-05  2.01223001E-05
 -4.90433477E-20 -4.02898377E-10 -1.01081658E-05 -2.67397697E-05 -7.42253180E-07
 -1.35269646E-21 -8.53895283E-08 -2.15012898E-04 -4.81291393E-04 -1.19061487E-04
  1.82369127E-19 -1.81191874E-04 -1.89986285E-02 -3.36342741E-02 -8.87625832E-03
  1.38316031E-17 -3.13144467E-03 -2.93706018E-06 -4.57635936E-05 -5.96132490E-02
  0.00000000E+00 -7.36622941E-09 -2.44141955E-08 -1.41294325E-09  2.02836340E-25
  0.00000000E+00  0.00000000E+00  0.00000000E+00  0.00000000E+00  0.00000000E+00
 -8.71521649E-09  0.00000000E+00 -1.02327395E-09 -1.70887973E-01 -1.50541390E+00
 -1.69395760E+00  7.28676116E-01 -1.60269401E-15 -1.68723810E+00 -6.36446979E+00
 -5.22353381E+00 -1.27075834E+00  1.93736155E-15 -6.24408087E-01 -1.06469567E+01
 -2.91829195E-02 -4.70863801E-01 -5.28450721E-01  4.06276913E-01 -8.49960021E-16
 -1.11571403E-04 -1.64867622E-02 -2.25684740E-02  2.04823734E-02 -4.24233954E-17
 -6.48684991E-07 -8.07728665E-04 -1.56099882E-03  8.62340641E-04 -1.85015256E-18
 -9.61475121E-07 -9.89979400E-04 -2.10148417E-03  4.74326119E-04 -1.14801056E-18
 -2.36904342E-04 -2.37595110E-02 -4.23926642E-02 -5.57731674E-04 -3.35513061E-18
 -4.15494483E-02 -5.59565558E-01 -7.65584294E-01  8.05221253E-02 -2.37763367E-16
 -4.76335887E-03 -4.28099480E-05 -8.15628857E-03 -1.69077379E+00 -6.47876510E-11
 -3.59186731E-06 -9.86307886E-06  1.22708611E-06 -3.43413838E-21  0.00000000E+00
 -2.04734031E-08 -6.42147959E-08  1.56125369E-08 -3.72672428E-23 -5.33755991E-06
 -1.02327395E-09 -8.72028866E-08 -1.71692054E-01 -1.62266039E+00 -6.29413028E-01
  1.91712127E+00 -3.81524643E-15 -1.69481295E+00 -6.78972485E+00  1.80187346E+00
  5.77018325E+00 -1.10955489E-14 -2.24065227E-01 -1.93982751E+00 -1.20972873E+01
Multipole Matrix (1,0,0)                   R   N=        1830
  2.58290277E+00  6.41495906E-01  2.58290277E+00  7.18554879E-02  8.38743577E-01
  2.58290277E+00  0.00000000E+00  0.00000000E+00  0.00000000E+00  2.58290277E+00
  0.00000000E+00  0.00000000E+00  0.00000000E+00  0.00000000E+00  2.58290277E+00
  1.58657192E-06  3.50872644E-02 -3.71090837E-02  4.47825422E-02 -9.17401888E-17
  8.34595104E-01  9.46010014E-02  6.27232808E-01 -1.92166282E-01  5.21471936E-01
 -1.06827195E-15  2.07282035E-01  8.34595104E-01  1.05468915E-01  6.90854566E-01
 -4.07874774E-02  6.72585448E-01 -1.37783861E-15  7.18554879E-02  8.38743577E-01
  8.34595104E-01 -1.16154001E-01 -4.75247920E-01  2.48490746E-01 -1.52622059E-01
  1.06492396E-15  0.00000000E+00  0.00000000E+00  0.00000000E+00  8.34595104E-01
  2.37949643E-16  9.73578804E-16 -5.09050778E-16  1.06492396E-15  3.67215572E-01
  0.00000000E+00  0.00000000E+00  0.00000000E+00  0.00000000E+00  8.34595104E-01
  0.00000000E+00 -2.85125773E-03  6.33232273E-03 -2.08135908E-03  4.72389660E-18
 -4.27331012E-07 -6.13470994E-02  9.98176832E-02  1.98385127E-02 -2.85985355E-17
 -1.74784262E+00  4.38991924E-03  2.55845094E-02 -4.75242710E-03  1.50903675E-02
 -3.42494172E-17  2.66536745E-02 -1.67716281E-01  3.99685289E-01  2.64554594E-02
 -3.81373043E-17 -4.34098371E-01 -1.74784262E+00  9.69228676E-03  6.66448194E-02
 -4.42840727E-02  3.69326577E-02 -8.38231411E-17  4.34607042E-02  5.08799536E-02
  1.39911272E-01 -8.07651988E-03  1.16428406E-17  7.18554879E-02  8.38743577E-01
 -1.74784262E+00 -3.20369909E-03 -8.75869313E-03 -1.89919193E-04  4.57788726E-03
  1.39278702E-17  8.34187262E-03 -4.46996925E-02  1.05228255E-01 -8.83002104E-02
 -1.42849419E-17  0.00000000E+00  0.00000000E+00  0.00000000E+00 -1.74784262E+00
  7.27118321E-18  1.98789152E-17  4.31044618E-19  1.39278702E-17  1.07145371E-02
 -1.20253642E-17  6.44375796E-17 -1.51693528E-16 -1.42849419E-17 -9.82095291E-02
  0.00000000E+00  0.00000000E+00  0.00000000E+00  0.00000000E+00 -1.74784262E+00
  0.00000000E+00 -9.88857714E-04  2.59640750E-03  5.24759722E-04 -7.56421793E-19
  0.00000000E+00 -4.47340542E-03  7.81302411E-03  6.83045071E-03 -1.25493020E-17
 -2.01982024E-06 -9.64455135E-02  5.29698219E-02  1.50908274E-01 -2.89839390E-16
 -2.58290277E+00  9.88857714E-04  0.00000000E+00  1.29168224E-02 -8.05640677E-04
  1.16130133E-18  1.24796945E-03 -5.36035304E-02  9.35716652E-02  4.70480353E-02
 -8.64393912E-17 -6.80019513E-02 -7.95130716E-01  5.32601897E-01  7.86467854E-01
 -1.51051600E-15 -6.41495906E-01 -2.58290277E+00  2.59640750E-03  1.29168224E-02
  1.73472348E-18 -5.36680554E-03  7.73605234E-18  2.25491362E-03 -2.44788076E-02
  4.93156320E-02  2.46954703E-02 -4.53719566E-17 -3.33993338E-02 -2.10029019E-03
 -3.47542352E-01  8.45891186E-02 -1.62464640E-16  7.18554879E-02  8.38743577E-01
 -2.58290277E+00  5.24759722E-04 -8.05640677E-04  5.36680554E-03  2.16840434E-19
 -3.85185989E-34  1.90740457E-03 -5.75141042E-02  1.02436858E-01  3.38526993E-02
 -1.03443437E-16 -1.07685001E-01 -8.14455400E-01  6.22146390E-01  5.92433699E-01
 -2.03202863E-15  0.00000000E+00  0.00000000E+00  0.00000000E+00 -2.58290277E+00
 -7.56421793E-19  1.16130133E-18 -7.73605234E-18  5.77778983E-34  0.00000000E+00
 -3.50439479E-18  1.05668263E-16 -1.88202963E-16 -1.03443437E-16 -2.24504562E-02
  2.06823351E-16  1.56426980E-15 -1.19491480E-15 -2.03202863E-15 -4.65565818E-01
  0.00000000E+00  0.00000000E+00  0.00000000E+00  0.00000000E+00 -2.58290277E+00
  0.00000000E+00 -1.24796945E-03  2.25491362E-03  1.90740457E-03 -3.50439479E-18
  0.00000000E+00 -3.19862524E-04  2.92441775E-04  8.05609511E-04 -1.54729593E-18
  0.00000000E+00 -1.61589783E-03 -6.42545799E-04  3.64401864E-03 -7.20447647E-18
 -1.58657192E-06 -3.50872644E-02 -3.71090837E-02  4.47825422E-02 -9.17401888E-17
 -8.34595104E-01  4.47340542E-03  5.36035304E-02 -2.44788076E-02 -5.75141042E-02
  1.05668263E-16  3.19862524E-04  2.80443751E-18  1.64645639E-02 -1.23659119E-03
  2.37506198E-18 -3.14309400E-03 -7.91268459E-02  1.67233206E-02  1.16115596E-01
 -2.29568552E-16 -9.46010014E-02 -6.27232808E-01 -1.92166282E-01  5.21471936E-01
 -1.06827195E-15 -2.07282035E-01 -8.34595104E-01  7.81302411E-03  9.35716652E-02
 -4.93156320E-02 -1.02436858E-01  1.88202963E-16  2.92441775E-04  1.64645639E-02
  1.59867358E-18 -2.54878022E-02  4.89532115E-17  1.54890903E-03  6.32880136E-02
 -2.55737384E-02 -9.44590472E-02  1.86752059E-16  1.05468915E-01  6.90854566E-01
  4.07874774E-02 -6.72585448E-01  1.37783861E-15  7.18554879E-02  8.38743577E-01
 -8.34595104E-01  6.83045071E-03  4.70480353E-02 -2.46954703E-02 -3.38526993E-02
  1.03443437E-16  8.05609511E-04 -1.23659119E-03  2.54878022E-02 -5.27666773E-18
  1.75397403E-32 -7.09103458E-03 -1.11986051E-01  2.03521846E-02  1.48371984E-01
 -3.58857434E-16 -1.16154001E-01 -4.75247920E-01 -2.48490746E-01  1.52622059E-01
 -1.06492396E-15  0.00000000E+00  0.00000000E+00  0.00000000E+00 -8.34595104E-01
 -1.25493020E-17 -8.64393912E-17  4.53719566E-17  1.03443437E-16  2.24504562E-02
 -1.54729593E-18  2.37506198E-18 -4.89532115E-17  1.44582524E-32  1.10230514E-18
  1.40194650E-17  2.21404156E-16 -4.02376743E-17 -3.58857434E-16 -3.31378296E-02
  2.37949643E-16  9.73578804E-16  5.09050778E-16 -1.06492396E-15 -3.67215572E-01
  0.00000000E+00  0.00000000E+00  0.00000000E+00  0.00000000E+00 -8.34595104E-01
  2.01982024E-06  6.80019513E-02 -3.33993338E-02 -1.07685001E-01  2.06823351E-16
  0.00000000E+00  3.14309400E-03  1.54890903E-03 -7.09103458E-03  1.40194650E-17
  0.00000000E+00  6.68928473E-04  1.20127088E-03 -1.32978029E-03  2.72411633E-18
  0.00000000E+00  2.85125773E-03  6.33232273E-03 -2.08135908E-03  4.72389660E-18
  4.27331012E-07  6.13470994E-02  9.98176832E-02  1.98385127E-02 -2.85985355E-17
  1.74784262E+00  9.64455135E-02  7.95130716E-01 -2.10029019E-03 -8.14455400E-01
  1.56426980E-15  1.61589783E-03  7.91268459E-02  6.32880136E-02 -1.11986051E-01
  2.21404156E-16 -6.68928473E-04  1.18609723E-17  1.50552396E-02  2.04167344E-03
 -4.18246230E-18 -4.38991924E-03 -2.55845094E-02 -4.75242710E-03  1.50903675E-02
 -3.42494172E-17 -2.66536745E-02  1.67716281E-01  3.99685289E-01  2.64554594E-02
 -3.81373043E-17  4.34098371E-01  1.74784262E+00  5.29698219E-02  5.32601897E-01
  3.47542352E-01 -6.22146390E-01  1.19491480E-15 -6.42545799E-04  1.67233206E-02
  2.55737384E-02 -2.03521846E-02  4.02376743E-17  1.20127088E-03  1.50552396E-02
 -3.76606084E-18 -2.01001255E-02  4.11760350E-17  9.69228676E-03  6.66448194E-02
  4.42840727E-02 -3.69326577E-02  8.38231411E-17  4.34607042E-02  5.08799536E-02
 -1.39911272E-01  8.07651988E-03 -1.16428406E-17  7.18554879E-02  8.38743577E-01
  1.74784262E+00  1.50908274E-01  7.86467854E-01 -8.45891186E-02 -5.92433699E-01
  2.03202863E-15  3.64401864E-03  1.16115596E-01  9.44590472E-02 -1.48371984E-01
  3.58857434E-16 -1.32978029E-03  2.04167344E-03  2.01001255E-02 -1.54551319E-17
  4.05205631E-32 -3.20369909E-03 -8.75869313E-03  1.89919193E-04 -4.57788726E-03
 -1.39278702E-17  8.34187262E-03 -4.46996925E-02 -1.05228255E-01  8.83002104E-02
  1.42849419E-17  0.00000000E+00  0.00000000E+00  0.00000000E+00  1.74784262E+00
 -2.89839390E-16 -1.51051600E-15  1.62464640E-16  2.03202863E-15  4.65565818E-01
 -7.20447647E-18 -2.29568552E-16 -1.86752059E-16  3.58857434E-16  3.31378296E-02
  2.72411633E-18 -4.18246230E-18 -4.11760350E-17  4.05205631E-32  4.62377327E-18
  7.27118321E-18  1.98789152E-17 -4.31044618E-19 -1.39278702E-17 -1.07145371E-02
 -1.20253642E-17  6.44375796E-17  1.51693528E-16  1.42849419E-17  9.82095291E-02
  0.00000000E+00  0.00000000E+00  0.00000000E+00  0.00000000E+00  1.74784262E+00
  1.34612954E-02  1.97612727E-01  5.56946589E-04  2.47114221E-01 -4.90430563E-16
  5.33542400E-02  5.72445131E-01  5.21623737E-01  5.15250144E-01 -9.89594301E-16
 -8.64246305E-03 -2.04664052E-02  4.58651770E-02 -1.76985075E-02  3.22036838E-17
 -2.24169571E-04 -5.27903621E-03 -1.16062562E-03 -7.08245796E-03  1.32450970E-17
 -9.13385376E-06  3.03064580E-04  1.45548463E-03  4.61022675E-04 -8.85458748E-19
  1.59920449E-04  1.05607023E-02  3.92274423E-03  1.75193184E-02 -3.43344020E-17
  1.49330241E+00  2.18453045E-04  7.20096988E-04  3.07513889E-03  8.07863056E-04
 -1.74102449E-18  3.67468347E-03 -9.93845514E-02  1.90211925E-01 -3.15238752E-02
  7.43801258E-17 -1.11724777E-01 -1.19845986E+00  1.10369859E+00 -8.51291550E-01
  1.74394218E-15 -1.37715980E-02 -2.71534488E-01  1.15380865E-01 -3.47563790E-01
  6.84597751E-16 -8.43003263E-05 -1.17747889E-02  1.14716351E-02 -1.80451378E-02
  3.60094077E-17  1.90981704E-05 -6.32988556E-04  1.97330730E-03 -7.59844535E-04
  1.55658472E-18 -4.08226103E-02 -3.12599029E+00  2.24169571E-04  5.27903621E-03
 -1.16062562E-03 -7.08245796E-03  1.32450970E-17  9.13385376E-06 -3.03064580E-04
  1.45548463E-03  4.61022675E-04 -8.85458748E-19 -1.59920449E-04 -1.05607023E-02
  3.92274423E-03  1.75193184E-02 -3.43344020E-17 -1.34612954E-02 -1.97612727E-01
  5.56946589E-04  2.47114221E-01 -4.90430563E-16 -5.33542400E-02 -5.72445131E-01
  5.21623737E-01  5.15250144E-01 -9.89594301E-16  8.64246305E-03  2.04664052E-02
  4.58651770E-02 -1.76985075E-02  3.22036838E-17  2.50251936E-20 -1.75911297E-03
 -1.49330241E+00  1.37715980E-02  2.71534488E-01  1.15380865E-01 -3.47563790E-01
  6.84597751E-16  8.43003263E-05  1.17747889E-02  1.14716351E-02 -1.80451378E-02
  3.60094077E-17 -1.90981704E-05  6.32988556E-04  1.97330730E-03 -7.59844535E-04
  1.55658472E-18 -2.18453045E-04 -7.20096988E-04  3.07513889E-03  8.07863056E-04
 -1.74102449E-18 -3.67468347E-03  9.93845514E-02  1.90211925E-01 -3.15238752E-02
  7.43801258E-17  1.11724777E-01  1.19845986E+00  1.10369859E+00 -8.51291550E-01
  1.74394218E-15  1.75911297E-03 -3.38813179E-21  4.08226103E-02  3.12599029E+00
  0.00000000E+00 -5.37393433E-07  2.16845810E-06  4.41097438E-07 -6.35886652E-22
  0.00000000E+00 -1.20423679E-05  3.80614021E-05  2.18329798E-05 -3.87205410E-20
  0.00000000E+00 -6.02479246E-03  1.12543790E-02  9.35630558E-03 -1.71240923E-17
 -2.54106862E-07 -1.40781812E-01  2.31715442E-01  4.69589659E-02 -6.77078539E-17
  0.00000000E+00 -5.97195831E-03  1.39049300E-02 -4.18674872E-03  9.63949671E-18
  0.00000000E+00 -1.19207539E-05  4.31500265E-05 -5.17763945E-06  1.46367328E-20
 -1.06172068E-06 -5.44597488E-03 -5.38624638E-03 -1.04785515E-06 -5.43458912E+00
  2.32988997E-07 -4.18096563E-04  1.06581953E-03  1.81614055E-04 -2.61815063E-19
  1.24078639E-06 -3.51502941E-03  6.90421525E-03  3.44196088E-03 -6.10427843E-18
 -2.19672518E-03 -1.67183604E-01  2.20387244E-01  1.58864938E-01 -2.90757697E-16
 -7.23903487E-02 -1.19658586E+00  1.49702117E+00  2.61528188E-01 -3.77084802E-16
 -1.19905720E-03 -1.45866174E-01  2.35052151E-01 -6.19154222E-02  1.42552980E-16
  3.27586861E-06 -2.81504229E-03  6.37765524E-03 -6.56388227E-04  1.85555198E-18
 -3.89218618E-04 -1.34106401E-01 -1.11751180E-01 -2.78267160E-04 -1.34974754E+00
 -5.43458912E+00  9.44382576E-07 -7.37027090E-04  1.83462029E-03  3.24524043E-04
 -4.67834291E-19  4.05890769E-06 -5.21945657E-03  9.57616844E-03  5.26845325E-03
 -9.34354184E-18 -4.01358518E-03 -1.68878987E-01  1.79965022E-01  1.78126058E-01
 -3.26009773E-16 -1.18538110E-01 -1.14527881E+00  1.18249716E+00  3.27980633E-01
 -4.72899357E-16 -2.71094879E-03 -1.88697364E-01  2.77454086E-01 -8.86994659E-02
  2.04220092E-16  1.19724103E-05 -4.74591473E-03  1.03587263E-02 -1.13995189E-03
  3.22254406E-18 -5.28211435E-04 -6.59167846E-02 -1.03659837E-01 -4.58591855E-04
  7.18554879E-02  8.38743577E-01 -5.43458912E+00  1.91373107E-07 -1.86185689E-04
  4.78975572E-04 -5.26783937E-05 -1.18155378E-19  2.25825432E-06 -3.53745493E-03
  7.10432335E-03  2.39144472E-03 -6.31612158E-18 -3.40831820E-03 -1.66577075E-01
  2.36486855E-01  1.05318981E-01 -3.17207084E-16 -2.45312443E-02 -2.77791341E-01
  4.23615949E-01 -5.81955493E-01 -1.10595982E-16  8.39073036E-04  6.62565244E-02
 -1.15032168E-01 -2.85132266E-02 -7.09397578E-17 -1.42476080E-06  6.82566231E-04
 -1.57939205E-03 -7.73292542E-04 -4.62666548E-19 -5.13013612E-04 -1.76780991E-01
  1.07267826E-01  1.60348077E-04  0.00000000E+00  0.00000000E+00  0.00000000E+00
 -5.43458912E+00 -2.75883725E-22  2.68405536E-19 -6.90491820E-19 -1.18155378E-19
 -1.34639596E-04 -4.00498831E-21  6.27363604E-18 -1.25994366E-17 -6.31612158E-18
 -1.16996612E-03  6.23797022E-18  3.04872600E-16 -4.32822839E-16 -3.17207084E-16
 -6.79974404E-02  3.53704106E-17  4.00533853E-16 -6.10791278E-16 -1.10595982E-16
 -6.58659637E-01 -1.93186702E-18 -1.52547858E-16  2.64848043E-16 -7.09397578E-17
 -5.93246838E-02  4.02767390E-21 -1.92955490E-18  4.46480287E-18 -4.62666548E-19
 -9.36957521E-04  9.36482144E-19  3.36494589E-16 -2.22966329E-16 -3.73074407E-19
  0.00000000E+00  0.00000000E+00  0.00000000E+00  0.00000000E+00 -5.43458912E+00
  0.00000000E+00 -1.76911349E-09  8.66781525E-09 -1.41439285E-10  1.18392226E-24
  0.00000000E+00 -6.36804337E-07  2.56705207E-06  5.79508737E-07 -8.64690833E-22
  0.00000000E+00 -1.42505023E-03  3.90860733E-03  9.22867402E-04 -1.39611353E-18
  0.00000000E+00 -8.80325476E-03  2.04734316E-02 -5.38200458E-03  1.26651871E-17
  0.00000000E+00 -2.40080792E-05  7.67633812E-05 -3.84343597E-05  8.31938045E-20
  0.00000000E+00 -1.08369390E-08  4.85883301E-08 -1.44426622E-08  3.33302789E-23
 -2.56883589E-07 -1.04241352E-02 -3.79823498E-05 -9.46711246E-10 -1.92401648E-05
 -3.17084201E-01  3.68591062E-01 -3.75330158E-01  7.72340230E-16 -7.18244858E+00
  5.50401518E-10 -2.81502765E-05  7.99801291E-05 -1.18853872E-06  9.94870296E-21
  4.07545240E-08 -8.69358484E-04  2.02697282E-03  4.21482411E-04 -6.28898158E-19
 -4.12307624E-04 -7.86371470E-02  1.36136466E-01  2.96041113E-02 -4.47850909E-17
 -3.53240312E-03 -2.40559184E-01  3.75202811E-01 -9.04730739E-02  2.12905506E-16
 -3.99488962E-06 -7.58523421E-03  1.43338770E-02 -6.61930846E-03  1.43279466E-17
  2.07906925E-09 -8.63684480E-05  2.23283672E-04 -6.08678825E-05  1.40468805E-19
 -1.98499221E-04 -2.09883853E-01 -5.37180219E-03 -5.71426149E-06 -2.47203985E-01
 -2.54090222E+00  2.09775069E+00 -1.84803893E+00  3.80282475E-15 -1.78385010E+00
 -7.18244858E+00  2.71039776E-09 -6.56924579E-05  1.80110643E-04 -2.78163814E-06
  2.32837948E-20  1.70450415E-07 -1.71921940E-03  3.80784056E-03  8.44844665E-04
 -1.26060125E-18 -1.11445718E-03 -1.18709151E-01  1.91316440E-01  4.80332171E-02
 -7.26646367E-17 -8.11121856E-03 -3.26374163E-01  4.62325814E-01 -1.35681359E-01
  3.19291774E-16 -1.25074415E-05 -1.22721496E-02  2.15037470E-02 -1.10605929E-02
  2.39414112E-17  9.41649581E-09 -1.86399610E-04  4.60696133E-04 -1.31984118E-04
  3.04588407E-19 -3.62305168E-04 -2.18932687E-01 -6.64967975E-03 -1.21043054E-05
 -2.84534062E-01 -1.54801727E+00  2.17717089E-01 -1.58159196E+00  3.25454023E-15
  7.18554879E-02  8.38743577E-01 -7.18244858E+00 -4.40445579E-11  1.19298683E-06
 -3.39751478E-06 -8.82132401E-06 -4.22794655E-22  3.73022977E-08 -4.26054993E-04
  1.00468737E-03 -7.04903477E-05 -3.12177462E-19 -2.66640477E-04 -3.07456748E-02
  5.65145911E-02 -1.70473283E-02 -1.87268588E-17  2.15790594E-03  9.45852556E-02
 -1.60133873E-01 -5.93943161E-02 -9.18102973E-17  6.38021322E-06  6.73710161E-03
 -1.30804379E-02  3.51871074E-03 -1.31161651E-17 -2.77546113E-09  6.11549257E-05
 -1.58719661E-04  1.59796246E-05 -9.99091235E-20 -1.75187111E-04 -1.73337203E-01
  6.74725628E-03  5.52732293E-06  2.95522759E-01  1.89668621E+00 -2.01833751E+00
  3.14139006E-01 -3.80443453E-15  0.00000000E+00  0.00000000E+00  0.00000000E+00
 -7.18244858E+00  3.68676441E-25 -9.98593600E-21  2.84390107E-20 -4.22794655E-22
 -8.87183389E-06 -5.56591347E-23  6.35720954E-19 -1.49910416E-18 -3.12177462E-19
 -2.79709134E-04  4.03373636E-19  4.65120478E-17 -8.54952568E-17 -1.87268588E-17
 -2.94262696E-02 -5.07808606E-18 -2.22582486E-16  3.76834584E-16 -9.18102973E-17
 -9.84086187E-02 -1.38104086E-20 -1.45829180E-17  2.83135039E-17 -1.31161651E-17
 -2.54077181E-03  6.40511372E-24 -1.41131234E-19  3.66287772E-19 -9.99091235E-20
 -2.73129540E-05  3.00490360E-19  3.13045162E-16 -1.39758824E-17 -1.22271594E-20
 -6.08115578E-16 -3.90292928E-15  4.15325873E-15 -3.80443453E-15 -1.53468222E+00
  0.00000000E+00  0.00000000E+00  0.00000000E+00  0.00000000E+00 -7.18244858E+00
  1.67919452E-07 -9.15146774E-05  2.34737918E-04  7.57052257E-05 -1.29632502E-19
  1.66375648E-07 -3.95529053E-04  7.47700619E-04  5.14102075E-04 -9.40894885E-19
 -1.31860893E-04 -1.91671676E-02  2.39597121E-02  2.46848387E-02 -4.61675715E-17
 -1.20014537E-02 -3.49632034E-01  4.20367459E-01  2.81957191E-01 -5.13707052E-16
 -1.16518780E-03 -1.03126731E-01  1.70968271E-01  1.82841930E-02 -2.03416166E-17
  6.89134414E-06 -1.58437508E-03  3.54630781E-03  4.26860021E-04 -5.38829920E-19
 -3.29553694E-05 -1.26232279E-02 -2.05139155E-01 -2.87208395E-04 -3.33788628E-01
 -2.76062520E+00  9.44985035E-01  2.56704973E+00 -4.95788034E-15 -4.12606637E-02
 -6.69923381E-01 -2.00015102E-01  8.15543748E-01 -1.62359028E-15 -5.90319098E+00
  2.49155820E-11 -1.20845950E-06  3.57525914E-06  7.01468498E-08  2.03575242E-22
  1.17682345E-09 -4.13373718E-05  1.03055228E-04  2.10628606E-05 -3.12277824E-20
 -1.15536373E-05 -5.76975997E-03  1.11222653E-02  2.34765974E-03 -3.51046699E-18
 -1.58233011E-04 -2.57637358E-02  4.62255142E-02 -5.16090015E-03  1.45870009E-17
 -2.85886262E-07 -7.86491460E-04  1.65184572E-03 -5.05948259E-04  1.14988107E-18
  1.51389832E-10 -5.52755640E-06  1.50788540E-05 -2.83087884E-06  6.98581951E-21
 -1.07698581E-05 -2.57101871E-02 -1.06505768E-03 -4.62219667E-07 -3.21945363E-02
 -7.36744987E-01  9.57834628E-01 -3.23012653E-01  7.24466568E-16 -4.46610969E-01
 -4.00872575E+00  4.09118532E+00  7.62301203E-01 -1.09845255E-15 -3.65227423E-01
 -9.21608439E+00  6.45249676E-08 -6.95676531E-05  1.80597869E-04 -3.44813675E-05
  8.28448665E-20  4.17547576E-06 -3.29418990E-03  6.86178741E-03 -1.62581111E-04
  9.36578697E-19 -2.55432571E-03 -1.45626153E-01  2.32071874E-01 -3.04309624E-02
  8.10793865E-17 -2.48006482E-03 -1.25306630E-01  1.65047583E-01 -1.13218224E-01
  2.36578071E-16 -3.67117401E-06 -2.90321789E-03  4.65410588E-03 -3.58757696E-03
  7.44077626E-18  2.82664689E-08 -7.43324837E-05  1.70517162E-04 -7.94902000E-05
  1.70523083E-19 -1.42596426E-03 -6.38790737E-01 -1.08848693E-03 -3.75316329E-06
 -3.16803363E-02 -6.15638415E-01  3.23835239E-01 -7.47551688E-01  1.48823120E-15
 -4.36930525E-01 -3.37138126E+00 -3.78045554E-01 -3.14127764E+00  6.06691740E-15
 -8.92302206E-02 -1.21232123E+00 -6.71384672E+00  2.54106862E-07  1.40781812E-01
  2.31715442E-01  4.69589659E-02 -6.77078539E-17  0.00000000E+00  5.97195831E-03
  1.39049300E-02 -4.18674872E-03  9.63949671E-18  0.00000000E+00  1.19207539E-05
  4.31500265E-05 -5.17763945E-06  1.46367328E-20  0.00000000E+00  5.37393433E-07
  2.16845810E-06  4.41097438E-07 -6.35886652E-22  0.00000000E+00  1.20423679E-05
  3.80614021E-05  2.18329798E-05 -3.87205410E-20  0.00000000E+00  6.02479246E-03
  1.12543790E-02  9.35630558E-03 -1.71240923E-17  5.38624638E-03  1.04785515E-06
  1.06172068E-06  5.44597488E-03  0.00000000E+00  0.00000000E+00  0.00000000E+00
  0.00000000E+00  0.00000000E+00  0.00000000E+00  0.00000000E+00  0.00000000E+00
  0.00000000E+00  0.00000000E+00  1.81240717E-11  0.00000000E+00  1.00028461E-11
  5.43458912E+00  7.23903487E-02  1.19658586E+00  1.49702117E+00  2.61528188E-01
 -3.77084802E-16  1.19905720E-03  1.45866174E-01  2.35052151E-01 -6.19154222E-02
  1.42552980E-16 -3.27586861E-06  2.81504229E-03  6.37765524E-03 -6.56388227E-04
  1.85555198E-18 -2.32988997E-07  4.18096563E-04  1.06581953E-03  1.81614055E-04
 -2.61815063E-19 -1.24078639E-06  3.51502941E-03  6.90421525E-03  3.44196088E-03
 -6.10427843E-18  2.19672518E-03  1.67183604E-01  2.20387244E-01  1.58864938E-01
 -2.90757697E-16  1.11751180E-01  2.78267160E-04  3.89218618E-04  1.34106401E-01
  0.00000000E+00  1.03397577E-25  3.32997556E-07 -3.25613395E-10  4.69426079E-25
  0.00000000E+00 -8.69314189E-09 -2.30451654E-08 -9.69256383E-10 -1.14065223E-24
  1.30774237E-07 -2.89692099E-10  3.28434001E-08  1.34974754E+00  5.43458912E+00
 -1.18538110E-01 -1.14527881E+00 -1.18249716E+00 -3.27980633E-01  4.72899357E-16
 -2.71094879E-03 -1.88697364E-01 -2.77454086E-01  8.86994659E-02 -2.04220092E-16
  1.19724103E-05 -4.74591473E-03 -1.03587263E-02  1.13995189E-03 -3.22254406E-18
  9.44382576E-07 -7.37027090E-04 -1.83462029E-03 -3.24524043E-04  4.67834291E-19
  4.05890769E-06 -5.21945657E-03 -9.57616844E-03 -5.26845325E-03  9.34354184E-18
 -4.01358518E-03 -1.68878987E-01 -1.79965022E-01 -1.78126058E-01  3.26009773E-16
 -1.03659837E-01 -4.58591855E-04 -5.28211435E-04 -6.59167846E-02  0.00000000E+00
  3.32997556E-07 -3.30872245E-24  1.96018151E-07 -2.82592895E-22  0.00000000E+00
  3.48567884E-08  9.36914482E-08  3.88641588E-09  4.57365978E-24 -1.78290579E-07
  1.18687646E-09  2.20086756E-08  7.18554879E-02  8.38743577E-01  5.43458912E+00
 -2.45312443E-02 -2.77791341E-01 -4.23615949E-01  5.81955493E-01  1.10595982E-16
  8.39073036E-04  6.62565244E-02  1.15032168E-01  2.85132266E-02  7.09397578E-17
 -1.42476080E-06  6.82566231E-04  1.57939205E-03  7.73292542E-04  4.62666548E-19
  1.91373107E-07 -1.86185689E-04 -4.78975572E-04  5.26783937E-05  1.18155378E-19
  2.25825432E-06 -3.53745493E-03 -7.10432335E-03 -2.39144472E-03  6.31612158E-18
 -3.40831820E-03 -1.66577075E-01 -2.36486855E-01 -1.05318981E-01  3.17207084E-16
  1.07267826E-01  1.60348077E-04 -5.13013612E-04 -1.76780991E-01  0.00000000E+00
 -3.25613395E-10 -1.96018151E-07  1.55096365E-25  3.67341985E-40  0.00000000E+00
  9.69256383E-10  2.56945923E-09 -2.61660889E-09  1.27178926E-25 -1.27478588E-07
  5.52439891E-11  1.22187840E-08  0.00000000E+00  0.00000000E+00  0.00000000E+00
  5.43458912E+00  3.53704106E-17  4.00533853E-16  6.10791278E-16  1.10595982E-16
  6.58659637E-01 -1.93186702E-18 -1.52547858E-16 -2.64848043E-16  7.09397578E-17
  5.93246838E-02  4.02767390E-21 -1.92955490E-18 -4.46480287E-18  4.62666548E-19
  9.36957521E-04 -2.75883725E-22  2.68405536E-19  6.90491820E-19  1.18155378E-19
  1.34639596E-04 -4.00498831E-21  6.27363604E-18  1.25994366E-17  6.31612158E-18
  1.16996612E-03  6.23797022E-18  3.04872600E-16  4.32822839E-16  3.17207084E-16
  6.79974404E-02 -2.22966329E-16 -3.73074407E-19  9.36482144E-19  3.36494589E-16
  0.00000000E+00  4.69426079E-25  2.82592895E-22 -3.67341985E-40  1.03397577E-25
  0.00000000E+00  1.14065223E-24  3.02382264E-24  1.27178926E-25 -2.72467775E-09
  2.13551775E-22 -6.60165271E-27 -3.36289306E-23  0.00000000E+00  0.00000000E+00
  0.00000000E+00  0.00000000E+00  5.43458912E+00  0.00000000E+00  8.80325476E-03
  2.04734316E-02 -5.38200458E-03  1.26651871E-17  0.00000000E+00  2.40080792E-05
  7.67633812E-05 -3.84343597E-05  8.31938045E-20  0.00000000E+00  1.08369390E-08
  4.85883301E-08 -1.44426622E-08  3.33302789E-23  0.00000000E+00  1.76911349E-09
  8.66781525E-09 -1.41439285E-10  1.18392226E-24  0.00000000E+00  6.36804337E-07
  2.56705207E-06  5.79508737E-07 -8.64690833E-22  0.00000000E+00  1.42505023E-03
  3.90860733E-03  9.22867402E-04 -1.39611353E-18  3.79823498E-05  9.46711246E-10
  2.56883589E-07  1.04241352E-02  0.00000000E+00  0.00000000E+00  0.00000000E+00
  0.00000000E+00  0.00000000E+00  0.00000000E+00  0.00000000E+00  0.00000000E+00
  0.00000000E+00  0.00000000E+00  0.00000000E+00  0.00000000E+00  0.00000000E+00
  1.92401648E-05  3.17084201E-01  3.68591062E-01 -3.75330158E-01  7.72340230E-16
  7.18244858E+00  3.53240312E-03  2.40559184E-01  3.75202811E-01 -9.04730739E-02
  2.12905506E-16  3.99488962E-06  7.58523421E-03  1.43338770E-02 -6.61930846E-03
  1.43279466E-17 -2.07906925E-09  8.63684480E-05  2.23283672E-04 -6.08678825E-05
  1.40468805E-19 -5.50401518E-10  2.81502765E-05  7.99801291E-05 -1.18853872E-06
  9.94870296E-21 -4.07545240E-08  8.69358484E-04  2.02697282E-03  4.21482411E-04
 -6.28898158E-19  4.12307624E-04  7.86371470E-02  1.36136466E-01  2.96041113E-02
 -4.47850909E-17  5.37180219E-03  5.71426149E-06  1.98499221E-04  2.09883853E-01
  0.00000000E+00  8.69314189E-09  3.48567884E-08  9.69256383E-10  1.14065223E-24
  0.00000000E+00  0.00000000E+00  0.00000000E+00  0.00000000E+00  0.00000000E+00
  1.94068816E-08  0.00000000E+00  1.07670325E-09  2.47203985E-01  2.54090222E+00
  2.09775069E+00 -1.84803893E+00  3.80282475E-15  1.78385010E+00  7.18244858E+00
 -8.11121856E-03 -3.26374163E-01 -4.62325814E-01  1.35681359E-01 -3.19291774E-16
 -1.25074415E-05 -1.22721496E-02 -2.15037470E-02  1.10605929E-02 -2.39414112E-17
  9.41649581E-09 -1.86399610E-04 -4.60696133E-04  1.31984118E-04 -3.04588407E-19
  2.71039776E-09 -6.56924579E-05 -1.80110643E-04  2.78163814E-06 -2.32837948E-20
  1.70450415E-07 -1.71921940E-03 -3.80784056E-03 -8.44844665E-04  1.26060125E-18
 -1.11445718E-03 -1.18709151E-01 -1.91316440E-01 -4.80332171E-02  7.26646367E-17
 -6.64967975E-03 -1.21043054E-05 -3.62305168E-04 -2.18932687E-01  0.00000000E+00
 -2.30451654E-08 -9.36914482E-08 -2.56945923E-09 -3.02382264E-24  0.00000000E+00
  0.00000000E+00  0.00000000E+00  0.00000000E+00  0.00000000E+00 -4.94145426E-08
  0.00000000E+00 -2.79588098E-09 -2.84534062E-01 -1.54801727E+00 -2.17717089E-01
  1.58159196E+00 -3.25454023E-15  7.18554879E-02  8.38743577E-01  7.18244858E+00
  2.15790594E-03  9.45852556E-02  1.60133873E-01  5.93943161E-02  9.18102973E-17
  6.38021322E-06  6.73710161E-03  1.30804379E-02 -3.51871074E-03  1.31161651E-17
 -2.77546113E-09  6.11549257E-05  1.58719661E-04 -1.59796246E-05  9.99091235E-20
 -4.40445579E-11  1.19298683E-06  3.39751478E-06  8.82132401E-06  4.22794655E-22
  3.73022977E-08 -4.26054993E-04 -1.00468737E-03  7.04903477E-05  3.12177462E-19
 -2.66640477E-04 -3.07456748E-02 -5.65145911E-02  1.70473283E-02  1.87268588E-17
  6.74725628E-03  5.52732293E-06 -1.75187111E-04 -1.73337203E-01  0.00000000E+00
 -9.69256383E-10 -3.88641588E-09  2.61660889E-09 -1.27178926E-25  0.00000000E+00
  0.00000000E+00  0.00000000E+00  0.00000000E+00  0.00000000E+00 -1.08247583E-08
  0.00000000E+00  8.32981337E-10  2.95522759E-01  1.89668621E+00  2.01833751E+00
 -3.14139006E-01  3.80443453E-15  0.00000000E+00  0.00000000E+00  0.00000000E+00
  7.18244858E+00 -5.07808606E-18 -2.22582486E-16 -3.76834584E-16  9.18102973E-17
  9.84086187E-02 -1.38104086E-20 -1.45829180E-17 -2.83135039E-17  1.31161651E-17
  2.54077181E-03  6.40511372E-24 -1.41131234E-19 -3.66287772E-19  9.99091235E-20
  2.73129540E-05  3.68676441E-25 -9.98593600E-21 -2.84390107E-20  4.22794655E-22
  8.87183389E-06 -5.56591347E-23  6.35720954E-19  1.49910416E-18  3.12177462E-19
  2.79709134E-04  4.03373636E-19  4.65120478E-17  8.54952568E-17  1.87268588E-17
  2.94262696E-02 -1.39758824E-17 -1.22271594E-20  3.00490360E-19  3.13045162E-16
  0.00000000E+00 -1.14065223E-24 -4.57365978E-24 -1.27178926E-25  2.72467775E-09
  0.00000000E+00  0.00000000E+00  0.00000000E+00  0.00000000E+00  0.00000000E+00
  1.50918888E-23  0.00000000E+00 -1.98662754E-24 -6.08115578E-16 -3.90292928E-15
 -4.15325873E-15  3.80443453E-15  1.53468222E+00  0.00000000E+00  0.00000000E+00
  0.00000000E+00  0.00000000E+00  7.18244858E+00  1.20014537E-02  3.49632034E-01
  4.20367459E-01  2.81957191E-01 -5.13707052E-16  1.16518780E-03  1.03126731E-01
  1.70968271E-01  1.82841930E-02 -2.03416166E-17 -6.89134414E-06  1.58437508E-03
  3.54630781E-03  4.26860021E-04 -5.38829920E-19 -1.67919452E-07  9.15146774E-05
  2.34737918E-04  7.57052257E-05 -1.29632502E-19 -1.66375648E-07  3.95529053E-04
  7.47700619E-04  5.14102075E-04 -9.40894885E-19  1.31860893E-04  1.91671676E-02
  2.39597121E-02  2.46848387E-02 -4.61675715E-17  2.05139155E-01  2.87208395E-04
  3.29553694E-05  1.26232279E-02 -1.81240717E-11 -1.30774237E-07 -1.78290579E-07
 -1.27478588E-07  2.13551775E-22  0.00000000E+00 -1.94068816E-08 -4.94145426E-08
 -1.08247583E-08  1.50918888E-23  1.03397577E-25 -6.82144569E-10 -1.14997583E-07
  3.33788628E-01  2.76062520E+00  9.44985035E-01  2.56704973E+00 -4.95788034E-15
  4.12606637E-02  6.69923381E-01 -2.00015102E-01  8.15543748E-01 -1.62359028E-15
  5.90319098E+00  1.58233011E-04  2.57637358E-02  4.62255142E-02 -5.16090015E-03
  1.45870009E-17  2.85886262E-07  7.86491460E-04  1.65184572E-03 -5.05948259E-04
  1.14988107E-18 -1.51389832E-10  5.52755640E-06  1.50788540E-05 -2.83087884E-06
  6.98581951E-21 -2.49155820E-11  1.20845950E-06  3.57525914E-06  7.01468498E-08
  2.03575242E-22 -1.17682345E-09  4.13373718E-05  1.03055228E-04  2.10628606E-05
 -3.12277824E-20  1.15536373E-05  5.76975997E-03  1.11222653E-02  2.34765974E-03
 -3.51046699E-18  1.06505768E-03  4.62219667E-07  1.07698581E-05  2.57101871E-02
  0.00000000E+00  2.89692099E-10  1.18687646E-09  5.52439891E-11 -6.60165271E-27
  0.00000000E+00  0.00000000E+00  0.00000000E+00  0.00000000E+00  0.00000000E+00
  6.82144569E-10  0.00000000E+00  5.79470070E-11  3.21945363E-02  7.36744987E-01
  9.57834628E-01 -3.23012653E-01  7.24466568E-16  4.46610969E-01  4.00872575E+00
  4.09118532E+00  7.62301203E-01 -1.09845255E-15  3.65227423E-01  9.21608439E+00
  2.48006482E-03  1.25306630E-01  1.65047583E-01 -1.13218224E-01  2.36578071E-16
  3.67117401E-06  2.90321789E-03  4.65410588E-03 -3.58757696E-03  7.44077626E-18
 -2.82664689E-08  7.43324837E-05  1.70517162E-04 -7.94902000E-05  1.70523083E-19
 -6.45249676E-08  6.95676531E-05  1.80597869E-04 -3.44813675E-05  8.28448665E-20
 -4.17547576E-06  3.29418990E-03  6.86178741E-03 -1.62581111E-04  9.36578697E-19
  2.55432571E-03  1.45626153E-01  2.32071874E-01 -3.04309624E-02  8.10793865E-17
  1.08848693E-03  3.75316329E-06  1.42596426E-03  6.38790737E-01 -1.00028461E-11
 -3.28434001E-08  2.20086756E-08  1.22187840E-08 -3.36289306E-23  0.00000000E+00
 -1.07670325E-09 -2.79588098E-09  8.32981337E-10 -1.98662754E-24  1.14997583E-07
 -5.79470070E-11  0.00000000E+00  3.16803363E-02  6.15638415E-01  3.23835239E-01
 -7.47551688E-01  1.48823120E-15  4.36930525E-01  3.37138126E+00 -3.78045554E-01
 -3.14127764E+00  6.06691740E-15  8.92302206E-02  1.21232123E+00  6.71384672E+00
Multipole Matrix (0,1,0)                   R   N=        1830
  5.26797819E-01  1.30836766E-01  5.26797819E-01  0.00000000E+00  0.00000000E+00
  5.26797819E-01  7.18554879E-02  8.38743577E-01  0.00000000E+00  5.26797819E-01
  0.00000000E+00  0.00000000E+00  0.00000000E+00  0.00000000E+00  5.26797819E-01
  1.40529174E-06  9.10235096E-02 -9.88293163E-02  1.14119690E-01 -2.28527690E-16
  2.50022004E+00  2.38467000E-02  5.55565792E-01 -3.67951860E-01  6.85149550E-01
 -8.50832442E-16  6.20960626E-01  2.50022004E+00  2.74578579E-02  4.14175877E-01
 -3.61271396E-02  5.95775892E-01 -8.35647615E-16  0.00000000E+00  0.00000000E+00
  2.50022004E+00 -2.84283990E-02 -1.97686056E-01  2.20059024E-01 -1.35183610E-01
  5.08852860E-16  7.18554879E-02  8.38743577E-01  0.00000000E+00  2.50022004E+00
  6.34920999E-17  9.57718416E-16 -8.35647615E-16  1.37764070E-15  3.25257875E-01
  0.00000000E+00  0.00000000E+00  0.00000000E+00  0.00000000E+00  2.50022004E+00
  0.00000000E+00  3.51280937E-03 -7.67247349E-03  2.66419260E-03 -5.81672566E-18
  2.09332225E-06  7.59986114E-02 -1.23944861E-01 -2.27158292E-02  3.64490689E-17
  1.97341116E+00  1.09401485E-03  7.66012128E-02 -1.03717504E-01  7.50689085E-02
 -7.86312609E-17  9.39504825E-02  8.21574410E-01 -8.63450436E-01  9.38585178E-02
  2.53919075E-16  4.90121113E-01  1.97341116E+00  2.38741533E-03  1.10049178E-01
 -1.32588576E-01  1.10571909E-01 -1.24839911E-16  1.52125246E-01  8.45206203E-01
 -6.85368885E-01  3.97586368E-02  3.43025912E-16  0.00000000E+00  0.00000000E+00
  1.97341116E+00 -6.96145649E-04  3.66371020E-03 -5.62438119E-04  1.37064077E-02
 -4.26400722E-19  3.36015731E-02  4.42418905E-01 -5.15665798E-01  4.32547112E-01
  1.51644353E-16  7.18554879E-02  8.38743577E-01  0.00000000E+00  1.97341116E+00
  1.80996911E-18  8.34314877E-17 -1.24839911E-16  8.38277849E-17  3.20798230E-02
 -4.47362121E-17 -2.48553905E-16  3.43025912E-16 -1.16920160E-17  4.81088867E-01
  0.00000000E+00  0.00000000E+00  0.00000000E+00  0.00000000E+00  1.97341116E+00
  0.00000000E+00 -2.01683197E-04  5.24759722E-04  1.30525330E-04 -1.54276559E-19
  0.00000000E+00 -7.13454218E-04  1.23203733E-03  1.19272313E-03 -2.00493734E-18
  6.74687299E-07 -1.51152072E-02  7.18654800E-03  2.40839003E-02 -4.13259872E-17
 -5.26797819E-01  2.01683197E-04  0.00000000E+00 -8.05640677E-04  1.67025836E-02
  2.36854061E-19  4.35420187E-03  6.05055965E-02 -7.18584434E-02 -2.31934514E-02
  1.16937753E-16  7.00461429E-02  2.65600168E-01 -1.03297951E-01 -3.93542081E-02
  5.94011173E-16 -1.30836766E-01 -5.26797819E-01  5.24759722E-04 -8.05640677E-04
 -8.67361738E-19  2.63135807E-02  0.00000000E+00  7.50581796E-03  6.13923745E-02
 -5.56655822E-02 -2.78660876E-02  1.31825178E-16  3.60367254E-02  7.53104054E-02
  1.16090732E-01 -2.82655839E-02  2.26704993E-16  0.00000000E+00  0.00000000E+00
 -5.26797819E-01  1.30525330E-04  1.67025836E-02 -2.63135807E-02  0.00000000E+00
  7.73605234E-18  6.74966763E-03  9.48322566E-02 -1.15635978E-01 -3.82116205E-02
  1.88178463E-16  1.10462675E-01  4.95407531E-01 -2.07807638E-01 -1.97892606E-01
  1.19499039E-15  7.18554879E-02  8.38743577E-01  0.00000000E+00 -5.26797819E-01
 -1.54276559E-19  2.36854061E-19  5.77778983E-34 -7.73605234E-18  5.42101086E-20
 -1.22144795E-17 -9.99059535E-17  1.31825178E-16  4.53474567E-17  2.53412086E-02
 -2.07227901E-16 -4.33069792E-16  2.26704993E-16  1.62540229E-16  1.55514504E-01
  0.00000000E+00  0.00000000E+00  0.00000000E+00  0.00000000E+00 -5.26797819E-01
  0.00000000E+00 -4.35420187E-03  7.50581796E-03  6.74966763E-03 -1.22144795E-17
  0.00000000E+00 -9.58221166E-04  8.05609511E-04  2.43690943E-03 -4.63527798E-18
  0.00000000E+00 -4.22596840E-03 -1.94703279E-03  9.63907279E-03 -1.88567473E-17
 -1.40529174E-06 -9.10235096E-02 -9.88293163E-02  1.14119690E-01 -2.28527690E-16
 -2.50022004E+00  7.13454218E-04 -6.05055965E-02  6.13923745E-02  9.48322566E-02
 -9.99059535E-17  9.58221166E-04 -4.33680869E-19 -1.23659119E-03  1.31728577E-02
  7.11504002E-18  3.25514958E-03 -1.61416187E-02 -2.68475025E-03  5.35786785E-02
 -2.60014404E-17 -2.38467000E-02 -5.55565792E-01 -3.67951860E-01  6.85149550E-01
 -8.50832442E-16 -6.20960626E-01 -2.50022004E+00  1.23203733E-03 -7.18584434E-02
  5.56655822E-02  1.15635978E-01 -1.31825178E-16  8.05609511E-04 -1.23659119E-03
  0.00000000E+00  8.50804914E-03  6.16297582E-33 -1.49998315E-03  6.81429539E-03
 -5.21695930E-03 -1.92775674E-02  1.49442285E-17  2.74578579E-02  4.14175877E-01
  3.61271396E-02 -5.95775892E-01  8.35647615E-16  0.00000000E+00  0.00000000E+00
 -2.50022004E+00  1.19272313E-03 -2.31934514E-02  2.78660876E-02  3.82116205E-02
 -4.53474567E-17  2.43690943E-03  1.31728577E-02 -8.50804914E-03  0.00000000E+00
  4.89532115E-17  7.44915691E-03  7.04668562E-03  4.16000888E-03  3.02674012E-02
  4.02891193E-17 -2.84283990E-02 -1.97686056E-01 -2.20059024E-01  1.35183610E-01
 -5.08852860E-16  7.18554879E-02  8.38743577E-01  0.00000000E+00 -2.50022004E+00
 -2.00493734E-18  1.16937753E-16 -1.31825178E-16 -1.88178463E-16 -2.53412086E-02
 -4.63527798E-18  7.11504002E-18 -3.08148791E-33 -4.89532115E-17  0.00000000E+00
 -1.45271324E-17  6.59955225E-17  1.49442285E-17 -1.86700614E-16 -6.76000925E-03
  6.34920999E-17  9.57718416E-16  8.35647615E-16 -1.37764070E-15 -3.25257875E-01
  0.00000000E+00  0.00000000E+00  0.00000000E+00  0.00000000E+00 -2.50022004E+00
 -6.74687299E-07 -7.00461429E-02  3.60367254E-02  1.10462675E-01 -2.07227901E-16
  0.00000000E+00 -3.25514958E-03 -1.49998315E-03  7.44915691E-03 -1.45271324E-17
  0.00000000E+00 -7.55257309E-04 -1.32978029E-03  1.52488526E-03 -3.07567827E-18
  0.00000000E+00 -3.51280937E-03 -7.67247349E-03  2.66419260E-03 -5.81672566E-18
 -2.09332225E-06 -7.59986114E-02 -1.23944861E-01 -2.27158292E-02  3.64490689E-17
 -1.97341116E+00  1.51152072E-02 -2.65600168E-01  7.53104054E-02  4.95407531E-01
 -4.33069792E-16  4.22596840E-03  1.61416187E-02  6.81429539E-03  7.04668562E-03
  6.59955225E-17  7.55257309E-04  4.33680869E-19  2.04167344E-03  1.45583795E-02
  4.72223167E-18 -1.09401485E-03 -7.66012128E-02 -1.03717504E-01  7.50689085E-02
 -7.86312609E-17 -9.39504825E-02 -8.21574410E-01 -8.63450436E-01  9.38585178E-02
  2.53919075E-16 -4.90121113E-01 -1.97341116E+00  7.18654800E-03 -1.03297951E-01
 -1.16090732E-01  2.07807638E-01 -2.26704993E-16 -1.94703279E-03 -2.68475025E-03
  5.21695930E-03 -4.16000888E-03 -1.49442285E-17 -1.32978029E-03  2.04167344E-03
 -3.46944695E-18 -1.78026033E-02 -3.08148791E-33  2.38741533E-03  1.10049178E-01
  1.32588576E-01 -1.10571909E-01  1.24839911E-16  1.52125246E-01  8.45206203E-01
  6.85368885E-01 -3.97586368E-02 -3.43025912E-16  0.00000000E+00  0.00000000E+00
 -1.97341116E+00  2.40839003E-02 -3.93542081E-02  2.82655839E-02  1.97892606E-01
 -1.62540229E-16  9.63907279E-03  5.35786785E-02  1.92775674E-02 -3.02674012E-02
  1.86700614E-16  1.52488526E-03  1.45583795E-02  1.78026033E-02  2.60208521E-18
  4.11760350E-17 -6.96145649E-04  3.66371020E-03  5.62438119E-04 -1.37064077E-02
  4.26400722E-19  3.36015731E-02  4.42418905E-01  5.15665798E-01 -4.32547112E-01
 -1.51644353E-16  7.18554879E-02  8.38743577E-01  0.00000000E+00 -1.97341116E+00
 -4.13259872E-17  5.94011173E-16 -2.26704993E-16 -1.19499039E-15 -1.55514504E-01
 -1.88567473E-17 -2.60014404E-17 -1.49442285E-17 -4.02891193E-17  6.76000925E-03
 -3.07567827E-18  4.72223167E-18  0.00000000E+00 -4.11760350E-17  2.16840434E-19
  1.80996911E-18  8.34314877E-17  1.24839911E-16 -8.38277849E-17 -3.20798230E-02
 -4.47362121E-17 -2.48553905E-16 -3.43025912E-16  1.16920160E-17 -4.81088867E-01
  0.00000000E+00  0.00000000E+00  0.00000000E+00  0.00000000E+00 -1.97341116E+00
  3.52527437E-03  2.28776380E-01 -7.79471258E-02  3.50986593E-01 -5.59993899E-16
  1.59825459E-01  1.71427366E+00  5.15701792E-01  1.89242193E+00 -2.96350940E-15
  1.09103736E-02  3.01668462E-01  3.07416394E-01  3.05733135E-01 -4.31058806E-16
 -3.19419119E-05  1.05562831E-02  1.07612236E-02  1.78102212E-02 -2.46754164E-17
 -2.73636183E-05  9.05978026E-04  4.60107643E-04  2.67941609E-03 -2.64640870E-18
 -1.60204302E-04  5.26335091E-03 -3.20235423E-04  1.27225119E-02 -1.58896934E-17
  4.47110415E+00  5.83130500E-05  1.17685902E-02 -1.70179814E-02  1.35602570E-02
 -1.92855473E-17  1.34215924E-02  2.85544122E-01 -3.56581298E-01  1.61430357E-01
 -2.18498181E-16  1.26141028E-01  1.35296685E+00 -8.51538219E-01  1.31044975E+00
 -1.96877771E-15 -2.02879132E-03  1.33131860E-01 -2.24267233E-02  2.36312895E-01
 -3.29875545E-16 -2.09936156E-04  7.06025105E-04 -2.12483008E-04  5.17243916E-03
 -1.11564383E-18 -2.15631726E-05  7.14178636E-04 -7.59345275E-04  2.15748301E-03
 -1.75611388E-18  2.00023730E-01  3.52878408E+00  3.19419119E-05 -1.05562831E-02
  1.07612236E-02  1.78102212E-02 -2.46754164E-17  2.73636183E-05 -9.05978026E-04
  4.60107643E-04  2.67941609E-03 -2.64640870E-18  1.60204302E-04 -5.26335091E-03
 -3.20235423E-04  1.27225119E-02 -1.58896934E-17 -3.52527437E-03 -2.28776380E-01
 -7.79471258E-02  3.50986593E-01 -5.59993899E-16 -1.59825459E-01 -1.71427366E+00
  5.15701792E-01  1.89242193E+00 -2.96350940E-15 -1.09103736E-02 -3.01668462E-01
  3.07416394E-01  3.05733135E-01 -4.31058806E-16  9.92537416E-20 -3.58853088E-04
 -4.47110415E+00  2.02879132E-03 -1.33131860E-01 -2.24267233E-02  2.36312895E-01
 -3.29875545E-16  2.09936156E-04 -7.06025105E-04 -2.12483008E-04  5.17243916E-03
 -1.11564383E-18  2.15631726E-05 -7.14178636E-04 -7.59345275E-04  2.15748301E-03
 -1.75611388E-18 -5.83130500E-05 -1.17685902E-02 -1.70179814E-02  1.35602570E-02
 -1.92855473E-17 -1.34215924E-02 -2.85544122E-01 -3.56581298E-01  1.61430357E-01
 -2.18498181E-16 -1.26141028E-01 -1.35296685E+00 -8.51538219E-01  1.31044975E+00
 -1.96877771E-15  3.58853088E-04  4.65868121E-21 -2.00023730E-01 -3.52878408E+00
  0.00000000E+00 -1.09649051E-07  4.41158226E-07  9.63285932E-08 -1.29745468E-22
  0.00000000E+00 -2.18987355E-06  6.90323250E-06  4.11026922E-06 -7.04799856E-21
  0.00000000E+00 -1.10539220E-03  2.05508417E-03  1.78128890E-03 -3.14455839E-18
 -5.18404827E-08 -2.87243724E-02  4.69415721E-02  1.12295906E-02 -1.38147229E-17
  0.00000000E+00 -1.34229085E-03  3.10891812E-03 -8.77245465E-04  2.16506287E-18
  0.00000000E+00 -2.69911773E-06  9.73166188E-06 -1.03541826E-06  3.31147109E-21
 -1.84705194E-07 -9.61289066E-04 -1.24884658E-03 -2.45685955E-07 -1.10885517E+00
  4.75170984E-08 -8.53376387E-05  1.81703585E-04  2.12670073E-04 -5.34393680E-20
  5.45703888E-06  1.06319452E-03 -1.88127670E-03 -1.57703903E-04  1.92072850E-18
  2.09502392E-03  2.01240458E-02 -2.72842375E-02  7.55572701E-03  4.17485956E-17
 -1.47649991E-02 -2.44116148E-01  2.61396970E-01  2.69064095E-01 -7.69281164E-17
 -2.78595510E-03 -8.39729662E-02  1.24143667E-01 -7.19640502E-03  8.64541409E-17
 -4.52834930E-06 -2.35348704E-03  4.66296190E-03  3.63324086E-04  1.58670366E-18
  2.03170355E-04  2.96530155E-02 -7.98071366E-02 -3.39157031E-04 -2.75397922E-01
 -1.10885517E+00  1.91312319E-07 -1.86275219E-04  3.74464125E-04  4.60539182E-04
 -1.18212901E-19  1.71880016E-05  1.78578265E-03 -2.89651340E-03 -2.76693874E-04
  3.31855749E-18  3.89290321E-03  1.95721007E-02 -2.16625571E-02  9.94945587E-03
  4.56706935E-17 -2.45138505E-02 -2.77660123E-01  2.41241905E-01  3.10940919E-01
 -1.10542165E-16 -6.45659380E-03 -1.19802565E-01  1.59726151E-01 -1.51133228E-02
  1.35017741E-16 -1.63340621E-05 -4.63678389E-03  8.66030618E-03  6.88618625E-04
  3.21346351E-18  3.23068357E-04  1.86366768E-02 -8.81151570E-02 -6.75119935E-04
  0.00000000E+00  0.00000000E+00 -1.10885517E+00  4.53573903E-08  1.37598512E-04
 -2.96536973E-04 -1.07521805E-05  8.72120845E-20  1.00310563E-05  1.95336709E-03
 -3.46571244E-03 -7.23342716E-04  3.53839108E-18  3.31777853E-03  4.67294846E-02
 -5.98567976E-02 -1.26773437E-02  9.15890444E-17 -3.35516703E-03  1.59037217E-01
 -1.57607281E-01 -1.18725065E-01  4.63832126E-17  2.01604465E-03  6.65902599E-02
 -1.02171920E-01 -1.64146364E-02 -7.11529288E-17  2.10213717E-06  1.48274313E-03
 -2.96209804E-03 -6.46503244E-04 -1.00793699E-18  3.68939406E-04  5.95224800E-02
  9.72510126E-02  2.99489650E-04  7.18554879E-02  8.38743577E-01  0.00000000E+00
 -1.10885517E+00 -5.62653148E-23  5.47838941E-20 -1.18212901E-19 -1.35445444E-19
 -2.74812716E-05 -1.75484471E-20 -1.82323187E-18  3.31855749E-18  2.82496356E-19
  3.53880843E-04 -5.95667158E-18 -2.99479770E-17  4.56706935E-17 -1.52240212E-17
  8.18491511E-03  7.21433130E-18  8.17142993E-17 -1.10542165E-16 -9.15087086E-17
 -1.34373520E-01 -4.49639746E-18 -8.34309802E-17  1.35017741E-16 -1.05249778E-17
 -3.41523296E-02 -5.55812308E-21 -1.57779586E-18  3.21346351E-18  2.34321814E-19
 -7.83333659E-04 -4.75001509E-19 -7.12622427E-17 -1.56247207E-16 -4.44029761E-19
  0.00000000E+00  0.00000000E+00  0.00000000E+00  0.00000000E+00 -1.10885517E+00
  0.00000000E+00  1.79693030E-10 -8.78450241E-10  3.06520573E-11 -1.20211968E-25
  0.00000000E+00  7.29652158E-08 -2.93149818E-07 -6.07512521E-08  9.89599147E-23
  0.00000000E+00  1.53712092E-04 -4.19938098E-04 -8.79305957E-05  1.50440676E-19
  0.00000000E+00  7.95993567E-04 -1.84570713E-03  5.56496979E-04 -1.14568083E-18
  0.00000000E+00  1.85568843E-06 -5.92877113E-06  3.17825510E-06 -6.44237121E-21
  0.00000000E+00  8.86523072E-10 -3.97093632E-09  1.28080397E-09 -2.72946412E-24
  3.10727293E-08  1.16501035E-03  2.71007111E-06  7.29641785E-11 -6.44145881E-07
  2.64425215E-02 -2.89706365E-02  3.29362737E-02 -6.12328052E-17  6.86446481E-01
  1.41772483E-10  7.42533371E-06 -1.92101551E-05  7.59393285E-06 -2.62882340E-21
  2.26255929E-07  4.36423996E-04 -9.42593544E-04 -4.92697577E-05  3.18195581E-19
  3.93538857E-04  2.34218137E-02 -3.85232430E-02  2.00130179E-03  1.38007548E-17
 -5.94324297E-04  3.93277728E-03 -3.67876810E-03  3.31795626E-02 -2.28351184E-18
 -8.19107170E-06 -1.71608111E-03  3.06856631E-03 -3.92255669E-04  3.33439137E-18
 -2.96046719E-09 -2.04528429E-05  4.86519065E-05  4.43308582E-06  3.34413908E-20
  1.32876737E-04  7.75489747E-02 -1.72536083E-03 -2.35855093E-06 -4.53344549E-02
 -8.50674470E-02  8.53523880E-02  2.10878466E-01  1.80402186E-16  1.70487489E-01
  6.86446481E-01  6.92966398E-10  1.92146032E-05 -4.75086497E-05  1.96508503E-05
 -6.82158648E-21  9.09960853E-07  9.38020962E-04 -1.91156240E-03 -1.10979335E-04
  6.92695638E-19  1.07616502E-03  3.73816795E-02 -5.69829678E-02  2.33800179E-03
  2.35537001E-17 -1.37839151E-03  7.79094982E-03 -7.55832485E-03  4.87691826E-02
 -5.69030432E-18 -2.61253753E-05 -2.95077316E-03  4.86500127E-03 -7.19059886E-04
  5.91106816E-18 -1.32471870E-08 -4.83648632E-05  1.09097082E-04  1.04607188E-05
  7.94348251E-20  2.65682452E-04  8.98802502E-02 -2.31512716E-03 -5.54524981E-06
 -5.08367621E-02 -3.67051120E-02  7.28900026E-03  1.52340679E-01  1.24003699E-16
  0.00000000E+00  0.00000000E+00  6.86446481E-01  4.96178197E-12  6.96574642E-06
 -1.80209454E-05  2.32684302E-06 -2.46608540E-21  2.11440145E-07  3.76199904E-04
 -8.17498588E-04  3.53866440E-05  2.75966709E-19  2.66360385E-04  1.99762856E-02
 -3.34772200E-02  5.07749024E-03  1.19930428E-17  4.33230894E-04  3.01541400E-02
 -4.39330528E-02  9.71006857E-04 -2.72704459E-17  1.33170906E-05  2.62949454E-03
 -4.74259969E-03  7.96072062E-04 -5.15344361E-18  4.04370449E-09  3.33292092E-05
 -7.93020476E-05  3.78412209E-06 -5.45090821E-20  1.55184311E-04  9.14250769E-02
  2.89182611E-03  3.68039597E-06  5.53959121E-02  3.36248976E-01 -2.72863541E-01
  1.05171317E-02 -5.76728787E-16  7.18554879E-02  8.38743577E-01  0.00000000E+00
  6.86446481E-01  9.48293377E-26  2.62943211E-21 -6.82158648E-21  2.68913056E-21
  2.34016626E-06 -3.07179616E-22 -3.16651994E-19  6.92695638E-19  3.74637980E-20
  1.40415928E-04 -3.85530615E-19 -1.33917955E-17  2.35537001E-17 -8.37577182E-19
  8.76451689E-03 -8.55605263E-19  4.83605537E-18 -5.69030432E-18  3.02723638E-17
  1.60883145E-03 -2.83885753E-20 -3.20639398E-18  5.91106816E-18 -7.81350909E-19
 -5.74823453E-04 -9.10559090E-24 -3.32440887E-20  7.94348251E-20  7.19028321E-21
 -6.46795873E-06 -1.98797440E-19 -1.13738666E-16 -4.34733683E-18 -5.01603186E-21
 -1.07449401E-16 -7.75805174E-17  1.24003699E-16  3.21989718E-16 -5.13799774E-02
  0.00000000E+00  0.00000000E+00  0.00000000E+00  0.00000000E+00  6.86446481E-01
  2.88787661E-08 -9.00115941E-05  1.75372413E-04  1.34671119E-04 -1.29426409E-19
  6.53148996E-07  1.63431695E-05 -3.30601718E-05  1.04910378E-04  5.05658445E-20
  1.24364996E-04 -1.25217778E-03  1.06925834E-03  5.17664320E-03 -2.45640604E-18
 -2.74986349E-03 -1.47719365E-01  1.51227197E-01  1.79432414E-01 -2.16076425E-16
 -2.89951500E-03 -9.21309994E-02  1.32792837E-01  4.04889857E-02 -1.83760621E-17
 -9.46657662E-06 -2.55587358E-03  4.69765080E-03  1.43475754E-03 -8.96933343E-19
  1.00170910E-05  5.56572050E-04 -2.10832753E-01 -6.88698258E-04 -7.55598187E-02
 -1.05390586E+00  2.24553390E-01  1.31886931E+00 -1.87120065E-15  3.18621290E-03
 -1.14767259E-01 -4.57723315E-02  2.09881552E-01 -2.71900794E-16 -3.13067751E+00
  6.07606960E-12  2.01029222E-07 -5.41827638E-07  3.14324736E-07 -3.39472594E-23
  6.31645618E-09  1.82422810E-05 -4.22182196E-05 -1.31408824E-06  1.38762513E-20
  1.09245217E-05  1.45077838E-03 -2.64382811E-03  2.14623251E-04  9.00606897E-19
 -2.79217786E-05 -8.62046518E-04  1.50451942E-03  3.19233942E-03  5.12145006E-19
 -5.97226773E-07 -2.32738245E-04  4.60240680E-04 -3.00215411E-05  3.45979001E-19
 -2.16067287E-10 -1.86594088E-06  4.68750142E-06  2.96614188E-07  2.36908871E-21
  6.61462976E-06  7.91769177E-03 -4.17597253E-04 -2.47174502E-07 -6.12773720E-03
 -4.61607839E-02  5.66654596E-02  5.26125654E-02  4.64114049E-17  4.03279828E-02
  2.28071239E-01 -2.16075217E-01  3.05985767E-01  6.34422499E-17 -6.90536276E-02
  2.72072857E-01  1.76137931E-08  7.21196678E-05 -1.54463534E-04  6.98937107E-05
 -8.70814013E-20  1.87397734E-05  3.55233682E-03 -6.50517333E-03  1.14230197E-03
 -1.03285881E-18  2.65553869E-03  8.41071677E-02 -1.19630534E-01  4.41288718E-02
 -4.71664263E-17 -3.74701266E-04  2.60473481E-02 -2.94177846E-02  4.35141300E-02
 -4.81395519E-17 -8.06952047E-06 -2.32510097E-04  3.69538127E-04  2.77133849E-04
  6.78994048E-19 -3.55663950E-08  1.54201192E-06 -2.12053922E-06  2.80194702E-05
 -2.51686861E-21  1.96100803E-03  4.04902198E-01 -2.33798992E-04 -8.58319652E-07
 -5.62822122E-03  7.17276409E-02 -2.82342255E-02  1.57550321E-01 -1.67719409E-16
  4.97567342E-02  8.48611001E-01  1.80259344E-01  1.12775891E+00 -1.50209892E-15
 -2.98735885E-03  2.26814007E-01  2.70826884E+00  5.18404827E-08  2.87243724E-02
  4.69415721E-02  1.12295906E-02 -1.38147229E-17  0.00000000E+00  1.34229085E-03
  3.10891812E-03 -8.77245465E-04  2.16506287E-18  0.00000000E+00  2.69911773E-06
  9.73166188E-06 -1.03541826E-06  3.31147109E-21  0.00000000E+00  1.09649051E-07
  4.41158226E-07  9.63285932E-08 -1.29745468E-22  0.00000000E+00  2.18987355E-06
  6.90323250E-06  4.11026922E-06 -7.04799856E-21  0.00000000E+00  1.10539220E-03
  2.05508417E-03  1.78128890E-03 -3.14455839E-18  1.24884658E-03  2.45685955E-07
  1.84705194E-07  9.61289066E-04  0.00000000E+00  0.00000000E+00  0.00000000E+00
  0.00000000E+00  0.00000000E+00  0.00000000E+00  0.00000000E+00  0.00000000E+00
  0.00000000E+00  0.00000000E+00  3.42133405E-12  0.00000000E+00  2.36721577E-12
  1.10885517E+00  1.47649991E-02  2.44116148E-01  2.61396970E-01  2.69064095E-01
 -7.69281164E-17  2.78595510E-03  8.39729662E-02  1.24143667E-01 -7.19640502E-03
  8.64541409E-17  4.52834930E-06  2.35348704E-03  4.66296190E-03  3.63324086E-04
  1.58670366E-18 -4.75170984E-08  8.53376387E-05  1.81703585E-04  2.12670073E-04
 -5.34393680E-20 -5.45703888E-06 -1.06319452E-03 -1.88127670E-03 -1.57703903E-04
  1.92072850E-18 -2.09502392E-03 -2.01240458E-02 -2.72842375E-02  7.55572701E-03
  4.17485956E-17  7.98071366E-02  3.39157031E-04 -2.03170355E-04 -2.96530155E-02
  0.00000000E+00  0.00000000E+00 -3.25613395E-10  3.34526976E-07  9.57801088E-26
  0.00000000E+00  8.92910009E-09  2.97367941E-08  6.90137646E-09  1.17161298E-24
 -1.73267416E-07  2.43339655E-10  3.05670054E-07  2.75397922E-01  1.10885517E+00
 -2.45138505E-02 -2.77660123E-01 -2.41241905E-01 -3.10940919E-01  1.10542165E-16
 -6.45659380E-03 -1.19802565E-01 -1.59726151E-01  1.51133228E-02 -1.35017741E-16
 -1.63340621E-05 -4.63678389E-03 -8.66030618E-03 -6.88618625E-04 -3.21346351E-18
  1.91312319E-07 -1.86275219E-04 -3.74464125E-04 -4.60539182E-04  1.18212901E-19
  1.71880016E-05  1.78578265E-03  2.89651340E-03  2.76693874E-04 -3.31855749E-18
  3.89290321E-03  1.95721007E-02  2.16625571E-02 -9.94945587E-03 -4.56706935E-17
 -8.81151570E-02 -6.75119935E-04  3.23068357E-04  1.86366768E-02  0.00000000E+00
 -3.25613395E-10 -1.65436123E-24 -9.60700852E-07  3.67341985E-40  0.00000000E+00
 -2.97367941E-08 -9.62345178E-08 -2.29838179E-08 -3.90185055E-24  4.47436382E-07
 -8.12468190E-10 -8.47151686E-07  0.00000000E+00  0.00000000E+00  1.10885517E+00
 -3.35516703E-03  1.59037217E-01  1.57607281E-01  1.18725065E-01 -4.63832126E-17
  2.01604465E-03  6.65902599E-02  1.02171920E-01  1.64146364E-02  7.11529288E-17
  2.10213717E-06  1.48274313E-03  2.96209804E-03  6.46503244E-04  1.00793699E-18
  4.53573903E-08  1.37598512E-04  2.96536973E-04  1.07521805E-05 -8.72120845E-20
  1.00310563E-05  1.95336709E-03  3.46571244E-03  7.23342716E-04 -3.53839108E-18
  3.31777853E-03  4.67294846E-02  5.98567976E-02  1.26773437E-02 -9.15890444E-17
  9.72510126E-02  2.99489650E-04  3.68939406E-04  5.95224800E-02  0.00000000E+00
  3.34526976E-07  9.60700852E-07  1.80945759E-25 -2.82592895E-22  0.00000000E+00
  4.91024659E-09  1.63527108E-08  2.68763158E-09  6.44287622E-25  3.29935096E-07
  1.73241010E-10  2.26349678E-07  7.18554879E-02  8.38743577E-01  0.00000000E+00
  1.10885517E+00  7.21433130E-18  8.17142993E-17  1.10542165E-16  9.15087086E-17
  1.34373520E-01 -4.49639746E-18 -8.34309802E-17 -1.35017741E-16  1.05249778E-17
  3.41523296E-02 -5.55812308E-21 -1.57779586E-18 -3.21346351E-18 -2.34321814E-19
  7.83333659E-04 -5.62653148E-23  5.47838941E-20  1.18212901E-19  1.35445444E-19
  2.74812716E-05 -1.75484471E-20 -1.82323187E-18 -3.31855749E-18 -2.82496356E-19
 -3.53880843E-04 -5.95667158E-18 -2.99479770E-17 -4.56706935E-17  1.52240212E-17
 -8.18491511E-03 -1.56247207E-16 -4.44029761E-19 -4.75001509E-19 -7.12622427E-17
  0.00000000E+00  9.57801088E-26  0.00000000E+00  2.82592895E-22  1.29246971E-26
  0.00000000E+00 -1.17161298E-24 -3.90185055E-24 -9.05549517E-25  2.79863376E-09
 -2.80276828E-22  5.54534937E-27 -3.06963465E-22  0.00000000E+00  0.00000000E+00
  0.00000000E+00  0.00000000E+00  1.10885517E+00  0.00000000E+00 -7.95993567E-04
 -1.84570713E-03  5.56496979E-04 -1.14568083E-18  0.00000000E+00 -1.85568843E-06
 -5.92877113E-06  3.17825510E-06 -6.44237121E-21  0.00000000E+00 -8.86523072E-10
 -3.97093632E-09  1.28080397E-09 -2.72946412E-24  0.00000000E+00 -1.79693030E-10
 -8.78450241E-10  3.06520573E-11 -1.20211968E-25  0.00000000E+00 -7.29652158E-08
 -2.93149818E-07 -6.07512521E-08  9.89599147E-23  0.00000000E+00 -1.53712092E-04
 -4.19938098E-04 -8.79305957E-05  1.50440676E-19 -2.71007111E-06 -7.29641785E-11
 -3.10727293E-08 -1.16501035E-03  0.00000000E+00  0.00000000E+00  0.00000000E+00
  0.00000000E+00  0.00000000E+00  0.00000000E+00  0.00000000E+00  0.00000000E+00
  0.00000000E+00  0.00000000E+00  0.00000000E+00  0.00000000E+00  0.00000000E+00
  6.44145881E-07 -2.64425215E-02 -2.89706365E-02  3.29362737E-02 -6.12328052E-17
 -6.86446481E-01  5.94324297E-04 -3.93277728E-03 -3.67876810E-03  3.31795626E-02
 -2.28351184E-18  8.19107170E-06  1.71608111E-03  3.06856631E-03 -3.92255669E-04
  3.33439137E-18  2.96046719E-09  2.04528429E-05  4.86519065E-05  4.43308582E-06
  3.34413908E-20 -1.41772483E-10 -7.42533371E-06 -1.92101551E-05  7.59393285E-06
 -2.62882340E-21 -2.26255929E-07 -4.36423996E-04 -9.42593544E-04 -4.92697577E-05
  3.18195581E-19 -3.93538857E-04 -2.34218137E-02 -3.85232430E-02  2.00130179E-03
  1.38007548E-17  1.72536083E-03  2.35855093E-06 -1.32876737E-04 -7.75489747E-02
  0.00000000E+00 -8.92910009E-09 -2.97367941E-08  4.91024659E-09 -1.17161298E-24
  0.00000000E+00  0.00000000E+00  0.00000000E+00  0.00000000E+00  0.00000000E+00
 -2.20219345E-08  0.00000000E+00  7.08742032E-10  4.53344549E-02  8.50674470E-02
  8.53523880E-02  2.10878466E-01  1.80402186E-16 -1.70487489E-01 -6.86446481E-01
 -1.37839151E-03  7.79094982E-03  7.55832485E-03 -4.87691826E-02  5.69030432E-18
 -2.61253753E-05 -2.95077316E-03 -4.86500127E-03  7.19059886E-04 -5.91106816E-18
 -1.32471870E-08 -4.83648632E-05 -1.09097082E-04 -1.04607188E-05 -7.94348251E-20
  6.92966398E-10  1.92146032E-05  4.75086497E-05 -1.96508503E-05  6.82158648E-21
  9.09960853E-07  9.38020962E-04  1.91156240E-03  1.10979335E-04 -6.92695638E-19
  1.07616502E-03  3.73816795E-02  5.69829678E-02 -2.33800179E-03 -2.35537001E-17
 -2.31512716E-03 -5.54524981E-06  2.65682452E-04  8.98802502E-02  0.00000000E+00
  2.97367941E-08  9.62345178E-08 -1.63527108E-08  3.90185055E-24  0.00000000E+00
  0.00000000E+00  0.00000000E+00  0.00000000E+00  0.00000000E+00  6.56927895E-08
  0.00000000E+00 -2.24451809E-09 -5.08367621E-02 -3.67051120E-02 -7.28900026E-03
 -1.52340679E-01 -1.24003699E-16  0.00000000E+00  0.00000000E+00 -6.86446481E-01
  4.33230894E-04  3.01541400E-02  4.39330528E-02 -9.71006857E-04  2.72704459E-17
  1.33170906E-05  2.62949454E-03  4.74259969E-03 -7.96072062E-04  5.15344361E-18
  4.04370449E-09  3.33292092E-05  7.93020476E-05 -3.78412209E-06  5.45090821E-20
  4.96178197E-12  6.96574642E-06  1.80209454E-05 -2.32684302E-06  2.46608540E-21
  2.11440145E-07  3.76199904E-04  8.17498588E-04 -3.53866440E-05 -2.75966709E-19
  2.66360385E-04  1.99762856E-02  3.34772200E-02 -5.07749024E-03 -1.19930428E-17
  2.89182611E-03  3.68039597E-06  1.55184311E-04  9.14250769E-02  0.00000000E+00
  6.90137646E-09  2.29838179E-08 -2.68763158E-09  9.05549517E-25  0.00000000E+00
  0.00000000E+00  0.00000000E+00  0.00000000E+00  0.00000000E+00  2.08083656E-08
  0.00000000E+00  1.16224663E-09  5.53959121E-02  3.36248976E-01  2.72863541E-01
 -1.05171317E-02  5.76728787E-16  7.18554879E-02  8.38743577E-01  0.00000000E+00
 -6.86446481E-01 -8.55605263E-19  4.83605537E-18  5.69030432E-18 -3.02723638E-17
 -1.60883145E-03 -2.83885753E-20 -3.20639398E-18 -5.91106816E-18  7.81350909E-19
  5.74823453E-04 -9.10559090E-24 -3.32440887E-20 -7.94348251E-20 -7.19028321E-21
  6.46795873E-06  9.48293377E-26  2.62943211E-21  6.82158648E-21 -2.68913056E-21
 -2.34016626E-06 -3.07179616E-22 -3.16651994E-19 -6.92695638E-19 -3.74637980E-20
 -1.40415928E-04 -3.85530615E-19 -1.33917955E-17 -2.35537001E-17  8.37577182E-19
 -8.76451689E-03 -4.34733683E-18 -5.01603186E-21 -1.98797440E-19 -1.13738666E-16
  0.00000000E+00  1.17161298E-24  3.90185055E-24 -6.44287622E-25 -2.79863376E-09
  0.00000000E+00  0.00000000E+00  0.00000000E+00  0.00000000E+00  0.00000000E+00
 -1.71076515E-23  0.00000000E+00 -1.30770149E-24 -1.07449401E-16 -7.75805174E-17
 -1.24003699E-16 -3.21989718E-16  5.13799774E-02  0.00000000E+00  0.00000000E+00
  0.00000000E+00  0.00000000E+00 -6.86446481E-01  2.74986349E-03  1.47719365E-01
  1.51227197E-01  1.79432414E-01 -2.16076425E-16  2.89951500E-03  9.21309994E-02
  1.32792837E-01  4.04889857E-02 -1.83760621E-17  9.46657662E-06  2.55587358E-03
  4.69765080E-03  1.43475754E-03 -8.96933343E-19 -2.88787661E-08  9.00115941E-05
  1.75372413E-04  1.34671119E-04 -1.29426409E-19 -6.53148996E-07 -1.63431695E-05
 -3.30601718E-05  1.04910378E-04  5.05658445E-20 -1.24364996E-04  1.25217778E-03
  1.06925834E-03  5.17664320E-03 -2.45640604E-18  2.10832753E-01  6.88698258E-04
 -1.00170910E-05 -5.56572050E-04 -3.42133405E-12  1.73267416E-07  4.47436382E-07
  3.29935096E-07 -2.80276828E-22  0.00000000E+00  2.20219345E-08  6.56927895E-08
  2.08083656E-08 -1.71076515E-23  5.49299626E-26  7.00646654E-10  8.28298229E-07
  7.55598187E-02  1.05390586E+00  2.24553390E-01  1.31886931E+00 -1.87120065E-15
 -3.18621290E-03  1.14767259E-01 -4.57723315E-02  2.09881552E-01 -2.71900794E-16
  3.13067751E+00  2.79217786E-05  8.62046518E-04  1.50451942E-03  3.19233942E-03
  5.12145006E-19  5.97226773E-07  2.32738245E-04  4.60240680E-04 -3.00215411E-05
  3.45979001E-19  2.16067287E-10  1.86594088E-06  4.68750142E-06  2.96614188E-07
  2.36908871E-21 -6.07606960E-12 -2.01029222E-07 -5.41827638E-07  3.14324736E-07
 -3.39472594E-23 -6.31645618E-09 -1.82422810E-05 -4.22182196E-05 -1.31408824E-06
  1.38762513E-20 -1.09245217E-05 -1.45077838E-03 -2.64382811E-03  2.14623251E-04
  9.00606897E-19  4.17597253E-04  2.47174502E-07 -6.61462976E-06 -7.91769177E-03
  0.00000000E+00 -2.43339655E-10 -8.12468190E-10  1.73241010E-10  5.54534937E-27
  0.00000000E+00  0.00000000E+00  0.00000000E+00  0.00000000E+00  0.00000000E+00
 -7.00646654E-10  0.00000000E+00  5.64176087E-11  6.12773720E-03  4.61607839E-02
  5.66654596E-02  5.26125654E-02  4.64114049E-17 -4.03279828E-02 -2.28071239E-01
 -2.16075217E-01  3.05985767E-01  6.34422499E-17  6.90536276E-02 -2.72072857E-01
  3.74701266E-04 -2.60473481E-02 -2.94177846E-02  4.35141300E-02 -4.81395519E-17
  8.06952047E-06  2.32510097E-04  3.69538127E-04  2.77133849E-04  6.78994048E-19
  3.55663950E-08 -1.54201192E-06 -2.12053922E-06  2.80194702E-05 -2.51686861E-21
 -1.76137931E-08 -7.21196678E-05 -1.54463534E-04  6.98937107E-05 -8.70814013E-20
 -1.87397734E-05 -3.55233682E-03 -6.50517333E-03  1.14230197E-03 -1.03285881E-18
 -2.65553869E-03 -8.41071677E-02 -1.19630534E-01  4.41288718E-02 -4.71664263E-17
  2.33798992E-04  8.58319652E-07 -1.96100803E-03 -4.04902198E-01 -2.36721577E-12
 -3.05670054E-07 -8.47151686E-07  2.26349678E-07 -3.06963465E-22  0.00000000E+00
 -7.08742032E-10 -2.24451809E-09  1.16224663E-09 -1.30770149E-24 -8.28298229E-07
 -5.64176087E-11  0.00000000E+00  5.62822122E-03 -7.17276409E-02 -2.82342255E-02
  1.57550321E-01 -1.67719409E-16 -4.97567342E-02 -8.48611001E-01  1.80259344E-01
  1.12775891E+00 -1.50209892E-15  2.98735885E-03 -2.26814007E-01 -2.70826884E+00
Multipole Matrix (0,0,1)                   R   N=        1830
 -7.59359635E-16 -1.88596374E-16 -7.59359635E-16  0.00000000E+00  0.00000000E+00
 -7.59359635E-16  0.00000000E+00  0.00000000E+00  0.00000000E+00 -7.59359635E-16
  7.18554879E-02  8.38743577E-01  0.00000000E+00  0.00000000E+00 -7.59359635E-16
 -2.58188384E-21 -1.74331331E-16  1.89115804E-16 -2.13466621E-16  2.56497136E-03
 -4.80205391E-15 -3.67149097E-17 -1.02071784E-15  6.71138745E-16 -7.57555515E-16
  2.69819690E-01 -1.19264959E-15 -4.80205391E-15 -4.29063493E-17 -7.65831895E-16
  6.63748853E-17 -7.49449716E-16  1.87858434E-01  0.00000000E+00  0.00000000E+00
 -4.80205391E-15  4.84310313E-17  8.64441489E-16 -7.49449716E-16  2.48367202E-16
 -2.12047351E-01  0.00000000E+00  0.00000000E+00  0.00000000E+00 -4.80205391E-15
  2.56497136E-03  2.69819690E-01 -1.87858434E-01  2.12047351E-01 -5.97582715E-16
  7.18554879E-02  8.38743577E-01  0.00000000E+00  0.00000000E+00 -4.80205391E-15
  0.00000000E+00 -7.16888258E-18  1.56582164E-17 -5.23036630E-18  1.01330663E-04
 -4.13864263E-21 -1.55061139E-16  2.52592882E-16  5.15281249E-17  2.56851859E-03
 -4.04262387E-15 -1.67913538E-18 -1.47122806E-16  1.98098405E-16 -6.61714716E-17
  4.04238045E-02 -1.80939955E-16 -1.62430934E-15  1.70221622E-15  3.47246561E-16
  2.69999593E-01 -1.00403573E-15 -4.04262387E-15 -3.66313659E-18 -2.12468907E-16
  2.54653976E-16 -1.05643902E-16  5.55671733E-02 -2.93216782E-16 -1.67591594E-15
  1.35502161E-15  4.70450659E-16  2.77712217E-01  0.00000000E+00  0.00000000E+00
 -4.04262387E-15  1.22360974E-18  7.09716983E-17 -1.05643902E-16 -2.63249769E-17
 -1.85612884E-02 -5.98152680E-17 -3.41881391E-16  4.70450659E-16 -8.55175508E-16
  5.66523874E-02  0.00000000E+00  0.00000000E+00  0.00000000E+00 -4.04262387E-15
  1.01330663E-04  4.04238045E-02 -5.55671733E-02  1.85612884E-02 -6.16135621E-17
  2.56851859E-03  2.69999593E-01 -2.77712217E-01 -5.66523874E-02 -9.51145910E-16
  7.18554879E-02  8.38743577E-01  0.00000000E+00  0.00000000E+00 -4.04262387E-15
  0.00000000E+00  2.90718893E-19 -7.56421793E-19 -1.54276559E-19  2.34975779E-05
  0.00000000E+00  9.26132617E-19 -1.60070784E-18 -1.41781250E-18  1.01457197E-04
 -1.53128457E-21  1.94456367E-17 -8.76853305E-18 -2.62533964E-17  2.56704084E-03
  7.59359635E-16 -2.90718893E-19  1.92592994E-34  1.16130133E-18  2.36854061E-19
  1.68668986E-02 -8.38446036E-18 -1.23949972E-16  1.46101274E-16  1.29407883E-16
  4.04545156E-02 -1.44118050E-16 -6.02811759E-16  2.29563552E-16  6.87323968E-16
  2.69924669E-01  1.88596374E-16  7.59359635E-16 -7.56421793E-19  1.16130133E-18
  0.00000000E+00  3.85185989E-34  2.63135807E-02 -1.44529889E-17 -1.26872403E-16
  1.14034862E-16  1.46987040E-16  4.38849454E-02 -7.42475060E-17 -1.75809752E-16
 -2.63481981E-16  2.67898389E-16  8.97710268E-02  0.00000000E+00  0.00000000E+00
  7.59359635E-16 -1.54276559E-19  2.36854061E-19 -1.92592994E-34  4.81482486E-35
  5.36680554E-03 -1.28016043E-17 -1.12376084E-16  1.46987040E-16  7.82791933E-17
  3.88706938E-02 -2.22300491E-16 -5.26382587E-16  2.67898389E-16  4.49141245E-16
  2.68778636E-01  0.00000000E+00  0.00000000E+00  0.00000000E+00  7.59359635E-16
  2.34975779E-05  1.68668986E-02 -2.63135807E-02 -5.36680554E-03  1.15555797E-33
  1.01457197E-04  4.04545156E-02 -4.38849454E-02 -3.88706938E-02 -5.19132489E-17
  2.56704084E-03  2.69924669E-01 -8.97710268E-02 -2.68778636E-01 -3.52959009E-16
  7.18554879E-02  8.38743577E-01  0.00000000E+00  0.00000000E+00  7.59359635E-16
  0.00000000E+00  8.38446036E-18 -1.44529889E-17 -1.28016043E-17  1.01457197E-04
  0.00000000E+00  1.84040989E-18 -1.54729593E-18 -4.63527798E-18  2.35223426E-05
  0.00000000E+00  8.09509336E-18  3.72972016E-18 -1.82703946E-17  1.01344527E-04
  2.58188384E-21  1.74331331E-16  1.89115804E-16 -2.13466621E-16  2.56497136E-03
  4.80205391E-15 -9.26132617E-19  1.23949972E-16 -1.26872403E-16 -1.12376084E-16
  4.04545156E-02 -1.84040989E-18  2.31111593E-33  2.37506198E-18  7.11504002E-18
  1.68773487E-02 -6.69559345E-18  2.32692170E-17  2.76455508E-18 -1.35424402E-17
  4.04271700E-02  3.67149097E-17  1.02071784E-15  6.71138745E-16 -7.57555515E-16
  2.69819690E-01  1.19264959E-15  4.80205391E-15 -1.60070784E-18  1.46101274E-16
 -1.14034862E-16 -1.46987040E-16  4.38849454E-02 -1.54729593E-18  2.37506198E-18
  9.62964972E-35  0.00000000E+00  8.50804914E-03  3.08526837E-18 -1.09289510E-17
  7.52059381E-18  1.08964830E-17 -1.17187881E-02 -4.29063493E-17 -7.65831895E-16
 -6.63748853E-17  7.49449716E-16 -1.87858434E-01  0.00000000E+00  0.00000000E+00
  4.80205391E-15 -1.41781250E-18  1.29407883E-16 -1.46987040E-16 -7.82791933E-17
  3.88706938E-02 -4.63527798E-18  7.11504002E-18 -3.08148791E-33 -6.16297582E-33
  2.54878022E-02 -1.51134852E-17  5.35365223E-17  1.08964830E-17 -4.36324719E-17
  5.74056159E-02  4.84310313E-17  8.64441489E-16  7.49449716E-16 -2.48367202E-16
  2.12047351E-01  0.00000000E+00  0.00000000E+00  0.00000000E+00  4.80205391E-15
  1.01457197E-04  4.04545156E-02 -4.38849454E-02 -3.88706938E-02  5.19132489E-17
  2.35223426E-05  1.68773487E-02 -8.50804914E-03 -2.54878022E-02  1.54074396E-33
  1.01344527E-04  4.04271700E-02  1.17187881E-02 -5.74056159E-02  9.74500293E-18
  2.56497136E-03  2.69819690E-01  1.87858434E-01 -2.12047351E-01  5.97582715E-16
  7.18554879E-02  8.38743577E-01  0.00000000E+00  0.00000000E+00  4.80205391E-15
  1.53128457E-21  1.44118050E-16 -7.42475060E-17 -2.22300491E-16  2.56704084E-03
  0.00000000E+00  6.69559345E-18  3.08526837E-18 -1.51134852E-17  1.01344527E-04
  0.00000000E+00  1.54717947E-18  2.72411633E-18 -3.07567827E-18  2.34896254E-05
  0.00000000E+00  7.16888258E-18  1.56582164E-17 -5.23036630E-18  1.01330663E-04
  4.13864263E-21  1.55061139E-16  2.52592882E-16  5.15281249E-17  2.56851859E-03
  4.04262387E-15 -1.94456367E-17  6.02811759E-16 -1.75809752E-16 -5.26382587E-16
  2.69924669E-01 -8.09509336E-18 -2.32692170E-17 -1.09289510E-17  5.35365223E-17
  4.04271700E-02 -1.54717947E-18 -7.70371978E-34 -4.18246230E-18  4.72223167E-18
  1.68635419E-02  1.67913538E-18  1.47122806E-16  1.98098405E-16 -6.61714716E-17
  4.04238045E-02  1.80939955E-16  1.62430934E-15  1.70221622E-15  3.47246561E-16
  2.69999593E-01  1.00403573E-15  4.04262387E-15 -8.76853305E-18  2.29563552E-16
  2.63481981E-16 -2.67898389E-16  8.97710268E-02  3.72972016E-18  2.76455508E-18
 -7.52059381E-18 -1.08964830E-17 -1.17187881E-02  2.72411633E-18 -4.18246230E-18
  6.16297582E-33 -6.16297582E-33 -1.78026033E-02 -3.66313659E-18 -2.12468907E-16
 -2.54653976E-16  1.05643902E-16 -5.55671733E-02 -2.93216782E-16 -1.67591594E-15
 -1.35502161E-15 -4.70450659E-16 -2.77712217E-01  0.00000000E+00  0.00000000E+00
  4.04262387E-15 -2.62533964E-17  6.87323968E-16 -2.67898389E-16 -4.49141245E-16
  2.68778636E-01 -1.82703946E-17 -1.35424402E-17 -1.08964830E-17  4.36324719E-17
  5.74056159E-02 -3.07567827E-18  4.72223167E-18  0.00000000E+00 -1.54074396E-33
  2.01001255E-02  1.22360974E-18  7.09716983E-17  1.05643902E-16  2.63249769E-17
  1.85612884E-02 -5.98152680E-17 -3.41881391E-16 -4.70450659E-16  8.55175508E-16
 -5.66523874E-02  0.00000000E+00  0.00000000E+00  0.00000000E+00  4.04262387E-15
  2.56704084E-03  2.69924669E-01 -8.97710268E-02 -2.68778636E-01  3.52959009E-16
  1.01344527E-04  4.04271700E-02  1.17187881E-02 -5.74056159E-02 -9.74500293E-18
  2.34896254E-05  1.68635419E-02  1.78026033E-02 -2.01001255E-02 -1.54074396E-33
  1.01330663E-04  4.04238045E-02  5.55671733E-02 -1.85612884E-02  6.16135621E-17
  2.56851859E-03  2.69999593E-01  2.77712217E-01  5.66523874E-02  9.51145910E-16
  7.18554879E-02  8.38743577E-01  0.00000000E+00  0.00000000E+00  4.04262387E-15
 -5.48250643E-18 -4.26684531E-16  1.45278967E-16 -5.25903600E-16  6.88213560E-02
 -3.06968844E-16 -3.29250244E-15 -9.90477572E-16 -2.96355676E-15  3.49417246E-01
 -2.22433479E-17 -5.92107380E-16 -6.03610582E-16 -4.65154722E-16  6.88317426E-02
  3.89580926E-20 -2.11981332E-17 -2.16510805E-17 -2.65467446E-17  4.61570854E-03
  5.25560400E-20 -1.74000172E-18 -8.83669257E-19 -2.64631274E-18  1.30153776E-03
  3.30076581E-19 -9.18578867E-18  5.53703051E-19 -1.40187982E-17  4.61470797E-03
 -8.58735257E-15 -9.11305889E-20 -2.29398441E-17  3.31202696E-17 -1.74160898E-17
  4.61145632E-03 -2.58626971E-17 -5.68850067E-16  7.10081982E-16 -1.84408293E-16
  6.88261926E-02 -2.58405947E-16 -2.77162999E-15  1.74442458E-15 -1.96875184E-15
  3.49406516E-01  2.52335163E-18 -2.88837430E-16  4.87401379E-17 -3.63973785E-16
  6.88382076E-02  4.01722915E-19 -2.61560771E-18  1.13479494E-18 -2.98581555E-18
  4.61336453E-03  4.41731286E-20 -1.46307440E-18  1.55560834E-18 -1.75616623E-18
  1.30023861E-03 -3.95459651E-16 -7.22893583E-15 -3.89580926E-20  2.11981332E-17
 -2.16510805E-17 -2.65467446E-17  4.61570854E-03 -5.25560400E-20  1.74000172E-18
 -8.83669257E-19 -2.64631274E-18  1.30153776E-03 -3.30076581E-19  9.18578867E-18
  5.53703051E-19 -1.40187982E-17  4.61470797E-03  5.48250643E-18  4.26684531E-16
  1.45278967E-16 -5.25903600E-16  6.88213560E-02  3.06968844E-16  3.29250244E-15
 -9.90477572E-16 -2.96355676E-15  3.49417246E-01  2.22433479E-17  5.92107380E-16
 -6.03610582E-16 -4.65154722E-16  6.88317426E-02  0.00000000E+00  5.17310477E-19
  8.58735257E-15 -2.52335163E-18  2.88837430E-16  4.87401379E-17 -3.63973785E-16
  6.88382076E-02 -4.01722915E-19  2.61560771E-18  1.13479494E-18 -2.98581555E-18
  4.61336453E-03 -4.41731286E-20  1.46307440E-18  1.55560834E-18 -1.75616623E-18
  1.30023861E-03  9.11305889E-20  2.29398441E-17  3.31202696E-17 -1.74160898E-17
  4.61145632E-03  2.58626971E-17  5.68850067E-16  7.10081982E-16 -1.84408293E-16
  6.88261926E-02  2.58405947E-16  2.77162999E-15  1.74442458E-15 -1.96875184E-15
  3.49406516E-01 -5.17310477E-19 -8.27548023E-36  3.95459651E-16  7.22893583E-15
  0.00000000E+00  1.58077988E-22 -6.36005532E-22 -1.29751844E-22  6.32765727E-09
  0.00000000E+00  3.01972404E-21 -9.52302886E-21 -5.48226471E-21  1.36181928E-07
  0.00000000E+00  1.52993083E-18 -2.84538439E-18 -2.37885424E-18  6.31570064E-05
  7.47333086E-23  4.14108392E-17 -6.76738376E-17 -1.38128988E-17  1.64835203E-03
  0.00000000E+00  1.99876498E-18 -4.62834839E-18  1.39994124E-18  6.31121590E-05
  0.00000000E+00  4.02838667E-21 -1.45207940E-20  1.74788147E-21  1.35990924E-07
  2.49874299E-22  1.30881666E-18  1.87744537E-18  3.70586071E-22  1.59859989E-15
 -6.84929411E-23  1.23044200E-19 -2.61990153E-19 -5.34487573E-20  1.75600623E-04
 -1.05419881E-20 -2.44788038E-18  4.30616531E-18  2.47899470E-18  9.25318841E-04
 -4.32753296E-18 -5.68889136E-17  7.32868316E-17  6.12706987E-17  3.03664320E-02
  2.12834963E-17  3.51918163E-16 -3.76828185E-16 -7.69143551E-17  2.15710392E-01
  5.32263219E-18  1.48925099E-16 -2.21315371E-16  6.69414854E-17  3.03534562E-02
  9.19946398E-21  4.30739772E-18 -8.54728922E-18  1.02884515E-18  9.24609145E-04
 -4.38150865E-19 -7.20554202E-17  1.44355909E-16  6.34093067E-19  3.97032089E-16
  1.59859989E-15 -2.75764844E-22  2.68580627E-19 -5.39921648E-19 -1.18233413E-19
  3.78538078E-04 -3.32025004E-20 -4.13680770E-18  6.66888157E-18  4.30822528E-18
  1.59450928E-03 -8.04073773E-18 -5.91719289E-17  6.12381499E-17  7.05418401E-17
  3.49031267E-02  3.53363943E-17  4.00277236E-16 -3.47774651E-16 -1.10522988E-16
  2.34274100E-01  1.23359781E-17  2.11320494E-16 -2.83272510E-16  1.04002021E-16
  4.35292983E-02  3.31852008E-20  8.47328630E-18 -1.58502607E-17  2.08048311E-18
  1.82535833E-03 -6.98610069E-19 -4.56759623E-17  1.59136391E-16  1.26081711E-18
  0.00000000E+00  0.00000000E+00  1.59859989E-15 -5.62589397E-23  5.47932835E-20
 -1.18233413E-19  1.55030473E-20  7.72257644E-05 -1.91141809E-20 -2.38149807E-18
  4.30822528E-18  1.66541156E-18  9.17935050E-04 -6.72237573E-18 -4.94700800E-17
  7.05418401E-17  3.58377393E-17  2.91803986E-02  7.21250716E-18  8.17005381E-17
 -1.10522988E-16  1.71154211E-16  4.78176581E-02 -3.73127583E-18 -6.39183247E-17
  1.04002021E-16  2.91111707E-17 -1.31663511E-02 -3.99453347E-21 -1.01993735E-18
  2.08048311E-18  1.18324280E-18 -2.19720079E-04 -5.62684295E-19 -9.17563644E-17
 -1.35756723E-16 -3.56411363E-19  0.00000000E+00  0.00000000E+00  0.00000000E+00
  1.59859989E-15  6.32765727E-09  1.75600623E-04 -3.78538078E-04 -7.72257644E-05
  3.96239119E-20  1.36181928E-07  9.25318841E-04 -1.59450928E-03 -9.17935050E-04
 -8.14769035E-19  6.31570064E-05  3.03664320E-02 -3.49031267E-02 -2.91803986E-02
 -2.31380375E-17  1.64835203E-03  2.15710392E-01 -2.34274100E-01 -4.78176581E-02
  1.93713044E-16  6.31121590E-05  3.03534562E-02 -4.35292983E-02  1.31663511E-02
  6.05687677E-17  1.35990924E-07  9.24609145E-04 -1.82535833E-03  2.19720079E-04
  1.43367249E-18  1.08729170E-04  2.20841071E-02  2.20813743E-02  1.08644829E-04
  7.18554879E-02  8.38743577E-01  0.00000000E+00  0.00000000E+00  1.59859989E-15
  0.00000000E+00 -5.36951507E-25  2.62526523E-24 -4.29190991E-26  1.62907301E-11
  0.00000000E+00 -2.09479024E-22  8.41932751E-22  1.90478613E-22  5.57087484E-09
  0.00000000E+00 -4.50058527E-19  1.22995771E-18  2.91265298E-19  1.15146085E-05
  0.00000000E+00 -2.47992047E-18  5.74939097E-18 -1.51654448E-18  6.96459408E-05
  0.00000000E+00 -6.14690565E-21  1.96239195E-20 -9.85134387E-21  2.01970823E-07
  0.00000000E+00 -2.87024487E-24  1.28511417E-23 -3.82766996E-24  9.80737454E-11
 -8.77079632E-23 -3.37157920E-18 -9.28331757E-21 -2.41977997E-25 -7.58051686E-22
 -8.49662950E-17  9.49787076E-17 -9.75567173E-17  3.17928639E-03 -2.09570409E-15
 -2.19536302E-25 -1.74736456E-20  4.51928604E-20 -7.38834626E-22  7.27987600E-06
 -4.38205644E-22 -9.44669637E-19  2.03877087E-18  4.61250910E-19  1.63982323E-04
 -8.12868387E-19 -5.40520558E-17  8.84488629E-17  2.09455043E-17  1.11239601E-02
  7.91841116E-19 -3.29194434E-17  4.31653381E-17 -1.13859287E-17  3.22091962E-02
  1.55999949E-20  2.56058194E-18 -4.61824425E-18  2.31839068E-18  1.14818593E-03
  6.00770692E-24  3.09410547E-20 -7.37146845E-20  2.19556745E-20  1.89238949E-05
 -2.80679038E-19 -1.73670682E-16  2.81086012E-18  4.01324991E-21  6.27336574E-17
 -1.00110120E-16  2.17683408E-17 -2.23591995E-17  2.98547576E-01 -5.20494076E-16
 -2.09570409E-15 -1.07266654E-24 -4.52300935E-20  1.11799596E-19 -1.91778450E-21
  1.88358978E-05 -1.76228272E-21 -2.03194807E-18  4.13770777E-18  1.00487704E-18
  3.53259626E-04 -2.22269761E-18 -8.67219059E-17  1.31503333E-16  3.59310083E-17
  1.79076109E-02  1.83771004E-18 -5.28423182E-17  6.32672102E-17 -2.02404926E-17
  4.63511177E-02  4.97594764E-20  4.36327289E-18 -7.25911748E-18  4.07469867E-18
  2.01176990E-03  2.68842509E-23  7.30522561E-20 -1.65042033E-19  5.20715709E-20
  4.48813832E-05 -5.61700688E-19 -2.01718730E-16  3.74705998E-18  9.42703015E-21
  6.92459445E-17 -1.21872869E-16  8.57793103E-18 -7.09175996E-17  2.12602110E-01
  0.00000000E+00  0.00000000E+00 -2.09570409E-15  1.75364686E-26  7.39443330E-22
 -1.91778450E-21 -5.47563677E-21 -3.07938321E-07 -3.98698314E-22 -4.59707322E-19
  1.00487704E-18 -7.65968152E-20  7.99213520E-05 -5.26355238E-19 -2.05365450E-17
  3.59310083E-17 -1.17176573E-17  4.24068698E-03 -4.84741609E-19  1.39384722E-17
 -2.02404926E-17 -8.12784528E-18 -1.22262570E-02 -2.49796027E-20 -2.19039329E-18
  4.07469867E-18 -1.18782716E-18 -1.00992246E-03 -8.00738506E-24 -2.17583724E-20
  5.20715709E-20 -5.72461879E-21 -1.33677713E-05 -2.45032945E-19 -1.41343184E-16
 -3.39693357E-18 -3.85481314E-21 -7.11254891E-17  1.25180868E-16 -7.09175996E-17
  1.23769004E-17 -2.18372775E-01  0.00000000E+00  0.00000000E+00  0.00000000E+00
 -2.09570409E-15  1.62907301E-11  7.27987600E-06 -1.88358978E-05  3.07938321E-07
 -5.50698963E-21  5.57087484E-09  1.63982323E-04 -3.53259626E-04 -7.99213520E-05
 -3.03939895E-19  1.15146085E-05  1.11239601E-02 -1.79076109E-02 -4.24068698E-03
 -2.02264506E-17  6.96459408E-05  3.22091962E-02 -4.63511177E-02  1.22262570E-02
 -1.34667773E-17  2.01970823E-07  1.14818593E-03 -2.01176990E-03  1.00992246E-03
  8.57699874E-19  9.80737454E-11  1.89238949E-05 -4.48813832E-05  1.33677713E-05
  9.78472606E-21  3.92845890E-05  2.84464891E-02  7.93025129E-04  1.41288420E-06
  3.17928639E-03  2.98547576E-01 -2.12602110E-01  2.18372775E-01 -6.04656176E-17
  7.18554879E-02  8.38743577E-01  0.00000000E+00  0.00000000E+00 -2.09570409E-15
 -3.88667633E-23  1.66434632E-19 -3.24547652E-19 -1.39878849E-19  5.90862505E-05
 -1.25988909E-21 -7.34421754E-20  1.29168530E-19  1.07948628E-19  1.32539400E-04
 -2.57044374E-19  4.38707548E-19  1.64785890E-20  2.02409454E-20  3.86325406E-03
  4.11916488E-18  2.52221768E-16 -2.58043609E-16 -2.02366322E-16  6.08350507E-02
  5.54826877E-18  1.69361672E-16 -2.44281612E-16 -3.03849767E-17  2.39715440E-02
  1.92361258E-20  4.83226131E-18 -8.89104536E-18 -1.34482583E-18  7.24208683E-04
 -2.30461686E-20 -2.41230704E-18  3.90803571E-16  1.31673923E-18  1.12763769E-16
  1.77156547E-15 -3.76753543E-16 -1.62553502E-15  3.50014722E-01 -1.05582971E-17
  1.54188594E-16  6.08512782E-17 -1.81571619E-16  7.33033803E-02  5.50345343E-15
 -9.26974472E-27 -5.19880140E-22  1.40038938E-21  3.02326060E-23  3.26022098E-07
 -1.22294243E-23 -4.00108946E-20  9.25285061E-20  2.05127554E-20  8.04531946E-06
 -2.25763217E-20 -3.44232403E-18  6.25118703E-18  1.42408136E-18  8.16913077E-04
  3.80110715E-20 -1.01606138E-18  1.55170524E-18 -1.86880427E-19  3.37353700E-03
  1.13799074E-21  3.72674857E-19 -7.39656156E-19  2.44651450E-19  1.22209396E-04
  4.38430960E-25  3.06945246E-21 -7.71757736E-21  1.58061036E-21  1.25664516E-06
 -1.40654400E-20 -1.81806301E-17  7.04982063E-19  4.34914768E-22  8.60742007E-18
  1.30098307E-17 -1.80547955E-17  6.59325781E-18  7.33056817E-02 -1.25705456E-16
 -8.66438671E-16  8.14919256E-16  1.66047944E-16  3.50013253E-01  9.67427758E-17
 -1.49860446E-15 -2.76796389E-23 -1.48337361E-19  3.17489212E-19 -7.44984595E-20
  3.36490292E-05 -3.62107320E-20 -7.29263666E-18  1.33405337E-17 -3.67689393E-19
  9.63007553E-04 -5.46121217E-18 -1.79757353E-16  2.55523437E-16 -3.78117609E-17
  2.64262250E-02  4.72695431E-19 -6.40810977E-17  7.26928895E-17 -5.69279917E-17
  2.04761766E-02  1.53962312E-20  1.50240311E-19 -2.97996127E-19  2.63997804E-19
  6.04511439E-04  7.25201839E-23 -1.08111541E-20  1.92143191E-20 -1.06308906E-20
  2.68462191E-05 -3.98461107E-18 -8.58843281E-16  3.43078017E-19  1.28497444E-21
  7.68446248E-18 -2.04839005E-16  8.14906867E-17 -2.43156700E-16  7.33033790E-02
 -1.43129668E-16 -2.01316307E-15 -4.28880201E-16 -1.85043991E-15  3.50014718E-01
 -3.51562084E-18 -5.70711411E-16 -6.00055767E-15 -7.47333086E-23 -4.14108392E-17
 -6.76738376E-17 -1.38128988E-17  1.64835203E-03  0.00000000E+00 -1.99876498E-18
 -4.62834839E-18  1.39994124E-18  6.31121590E-05  0.00000000E+00 -4.02838667E-21
 -1.45207940E-20  1.74788147E-21  1.35990924E-07  0.00000000E+00 -1.58077988E-22
 -6.36005532E-22 -1.29751844E-22  6.32765727E-09  0.00000000E+00 -3.01972404E-21
 -9.52302886E-21 -5.48226471E-21  1.36181928E-07  0.00000000E+00 -1.52993083E-18
 -2.84538439E-18 -2.37885424E-18  6.31570064E-05 -1.87744537E-18 -3.70586071E-22
 -2.49874299E-22 -1.30881666E-18  0.00000000E+00  0.00000000E+00  0.00000000E+00
  0.00000000E+00  0.00000000E+00  0.00000000E+00  0.00000000E+00  0.00000000E+00
  0.00000000E+00  0.00000000E+00 -4.79023313E-27  0.00000000E+00 -3.58043679E-27
 -1.59859989E-15 -2.12834963E-17 -3.51918163E-16 -3.76828185E-16 -7.69143551E-17
  2.15710392E-01 -5.32263219E-18 -1.48925099E-16 -2.21315371E-16  6.69414854E-17
  3.03534562E-02 -9.19946398E-21 -4.30739772E-18 -8.54728922E-18  1.02884515E-18
  9.24609145E-04  6.84929411E-23 -1.23044200E-19 -2.61990153E-19 -5.34487573E-20
  1.75600623E-04  1.05419881E-20  2.44788038E-18  4.30616531E-18  2.47899470E-18
  9.25318841E-04  4.32753296E-18  5.68889136E-17  7.32868316E-17  6.12706987E-17
  3.03664320E-02 -1.44355909E-16 -6.34093067E-19  4.38150865E-19  7.20554202E-17
  0.00000000E+00 -2.29588740E-41  4.69426079E-25  9.57801088E-26  3.34593413E-07
  0.00000000E+00 -1.83739651E-23 -6.11912523E-23 -2.04863594E-24  5.90581152E-09
  3.52566928E-22 -5.06270678E-25 -5.94342353E-22 -3.97032089E-16 -1.59859989E-15
  3.53363943E-17  4.00277236E-16  3.47774651E-16  1.10522988E-16 -2.34274100E-01
  1.23359781E-17  2.11320494E-16  2.83272510E-16 -1.04002021E-16 -4.35292983E-02
  3.31852008E-20  8.47328630E-18  1.58502607E-17 -2.08048311E-18 -1.82535833E-03
 -2.75764844E-22  2.68580627E-19  5.39921648E-19  1.18233413E-19 -3.78538078E-04
 -3.32025004E-20 -4.13680770E-18 -6.66888157E-18 -4.30822528E-18 -1.59450928E-03
 -8.04073773E-18 -5.91719289E-17 -6.12381499E-17 -7.05418401E-17 -3.49031267E-02
  1.59136391E-16  1.26081711E-18 -6.98610069E-19 -4.56759623E-17  0.00000000E+00
  4.69426079E-25  1.46936794E-39  0.00000000E+00 -9.60700852E-07  0.00000000E+00
  6.11912523E-23  1.98027758E-22  6.82262093E-24 -1.96682644E-08 -9.10786538E-22
  1.69034850E-24  1.64700767E-21  0.00000000E+00  0.00000000E+00 -1.59859989E-15
  7.21250716E-18  8.17005381E-17  1.10522988E-16 -1.71154211E-16 -4.78176581E-02
 -3.73127583E-18 -6.39183247E-17 -1.04002021E-16 -2.91111707E-17  1.31663511E-02
 -3.99453347E-21 -1.01993735E-18 -2.08048311E-18 -1.18324280E-18  2.19720079E-04
 -5.62589397E-23  5.47932835E-20  1.18233413E-19 -1.55030473E-20 -7.72257644E-05
 -1.91141809E-20 -2.38149807E-18 -4.30822528E-18 -1.66541156E-18 -9.17935050E-04
 -6.72237573E-18 -4.94700800E-17 -7.05418401E-17 -3.58377393E-17 -2.91803986E-02
 -1.35756723E-16 -3.56411363E-19 -5.62684295E-19 -9.17563644E-17  0.00000000E+00
  9.57801088E-26  1.83670992E-40 -4.59177481E-41 -1.96018151E-07  0.00000000E+00
  2.04863594E-24  6.82262093E-24 -5.53050681E-24 -6.58478325E-10 -3.40570135E-22
  9.65453045E-26 -2.16838333E-22  0.00000000E+00  0.00000000E+00  0.00000000E+00
 -1.59859989E-15  1.64835203E-03  2.15710392E-01  2.34274100E-01  4.78176581E-02
 -1.93713044E-16  6.31121590E-05  3.03534562E-02  4.35292983E-02 -1.31663511E-02
 -6.05687677E-17  1.35990924E-07  9.24609145E-04  1.82535833E-03 -2.19720079E-04
 -1.43367249E-18  6.32765727E-09  1.75600623E-04  3.78538078E-04  7.72257644E-05
 -3.96239119E-20  1.36181928E-07  9.25318841E-04  1.59450928E-03  9.17935050E-04
  8.14769035E-19  6.31570064E-05  3.03664320E-02  3.49031267E-02  2.91803986E-02
  2.31380375E-17  2.20813743E-02  1.08644829E-04  1.08729170E-04  2.20841071E-02
  0.00000000E+00  3.34593413E-07  9.60700852E-07  1.96018151E-07 -9.18354962E-41
  0.00000000E+00  5.90581152E-09  1.96682644E-08  6.58478325E-10 -5.75892289E-24
  1.62625345E-07  2.19645635E-10  1.14817132E-07  7.18554879E-02  8.38743577E-01
  0.00000000E+00  0.00000000E+00 -1.59859989E-15  0.00000000E+00  2.47992047E-18
  5.74939097E-18 -1.51654448E-18  6.96459408E-05  0.00000000E+00  6.14690565E-21
  1.96239195E-20 -9.85134387E-21  2.01970823E-07  0.00000000E+00  2.87024487E-24
  1.28511417E-23 -3.82766996E-24  9.80737454E-11  0.00000000E+00  5.36951507E-25
  2.62526523E-24 -4.29190991E-26  1.62907301E-11  0.00000000E+00  2.09479024E-22
  8.41932751E-22  1.90478613E-22  5.57087484E-09  0.00000000E+00  4.50058527E-19
  1.22995771E-18  2.91265298E-19  1.15146085E-05  9.28331757E-21  2.41977997E-25
  8.77079632E-23  3.37157920E-18  0.00000000E+00  0.00000000E+00  0.00000000E+00
  0.00000000E+00  0.00000000E+00  0.00000000E+00  0.00000000E+00  0.00000000E+00
  0.00000000E+00  0.00000000E+00  0.00000000E+00  0.00000000E+00  0.00000000E+00
  7.58051686E-22  8.49662950E-17  9.49787076E-17 -9.75567173E-17  3.17928639E-03
  2.09570409E-15 -7.91841116E-19  3.29194434E-17  4.31653381E-17 -1.13859287E-17
  3.22091962E-02 -1.55999949E-20 -2.56058194E-18 -4.61824425E-18  2.31839068E-18
  1.14818593E-03 -6.00770692E-24 -3.09410547E-20 -7.37146845E-20  2.19556745E-20
  1.89238949E-05  2.19536302E-25  1.74736456E-20  4.51928604E-20 -7.38834626E-22
  7.27987600E-06  4.38205644E-22  9.44669637E-19  2.03877087E-18  4.61250910E-19
  1.63982323E-04  8.12868387E-19  5.40520558E-17  8.84488629E-17  2.09455043E-17
  1.11239601E-02 -2.81086012E-18 -4.01324991E-21  2.80679038E-19  1.73670682E-16
  0.00000000E+00  1.83739651E-23  6.11912523E-23  2.04863594E-24  5.90581152E-09
  0.00000000E+00  0.00000000E+00  0.00000000E+00  0.00000000E+00  0.00000000E+00
  4.51026866E-23  0.00000000E+00 -1.27314100E-24 -6.27336574E-17  1.00110120E-16
  2.17683408E-17 -2.23591995E-17  2.98547576E-01  5.20494076E-16  2.09570409E-15
  1.83771004E-18 -5.28423182E-17 -6.32672102E-17  2.02404926E-17 -4.63511177E-02
  4.97594764E-20  4.36327289E-18  7.25911748E-18 -4.07469867E-18 -2.01176990E-03
  2.68842509E-23  7.30522561E-20  1.65042033E-19 -5.20715709E-20 -4.48813832E-05
 -1.07266654E-24 -4.52300935E-20 -1.11799596E-19  1.91778450E-21 -1.88358978E-05
 -1.76228272E-21 -2.03194807E-18 -4.13770777E-18 -1.00487704E-18 -3.53259626E-04
 -2.22269761E-18 -8.67219059E-17 -1.31503333E-16 -3.59310083E-17 -1.79076109E-02
  3.74705998E-18  9.42703015E-21 -5.61700688E-19 -2.01718730E-16  0.00000000E+00
 -6.11912523E-23 -1.98027758E-22 -6.82262093E-24 -1.96682644E-08  0.00000000E+00
  0.00000000E+00  0.00000000E+00  0.00000000E+00  0.00000000E+00 -1.34550432E-22
  0.00000000E+00  4.03191554E-24  6.92459445E-17 -1.21872869E-16 -8.57793103E-18
  7.09175996E-17 -2.12602110E-01  0.00000000E+00  0.00000000E+00  2.09570409E-15
 -4.84741609E-19  1.39384722E-17  2.02404926E-17  8.12784528E-18  1.22262570E-02
 -2.49796027E-20 -2.19039329E-18 -4.07469867E-18  1.18782716E-18  1.00992246E-03
 -8.00738506E-24 -2.17583724E-20 -5.20715709E-20  5.72461879E-21  1.33677713E-05
  1.75364686E-26  7.39443330E-22  1.91778450E-21  5.47563677E-21  3.07938321E-07
 -3.98698314E-22 -4.59707322E-19 -1.00487704E-18  7.65968152E-20 -7.99213520E-05
 -5.26355238E-19 -2.05365450E-17 -3.59310083E-17  1.17176573E-17 -4.24068698E-03
 -3.39693357E-18 -3.85481314E-21 -2.45032945E-19 -1.41343184E-16  0.00000000E+00
 -2.04863594E-24 -6.82262093E-24  5.53050681E-24 -6.58478325E-10  0.00000000E+00
  0.00000000E+00  0.00000000E+00  0.00000000E+00  0.00000000E+00 -2.51323094E-23
  0.00000000E+00 -9.84953555E-25 -7.11254891E-17  1.25180868E-16  7.09175996E-17
 -1.23769004E-17  2.18372775E-01  0.00000000E+00  0.00000000E+00  0.00000000E+00
  2.09570409E-15  6.96459408E-05  3.22091962E-02  4.63511177E-02 -1.22262570E-02
  1.34667773E-17  2.01970823E-07  1.14818593E-03  2.01176990E-03 -1.00992246E-03
 -8.57699874E-19  9.80737454E-11  1.89238949E-05  4.48813832E-05 -1.33677713E-05
 -9.78472606E-21  1.62907301E-11  7.27987600E-06  1.88358978E-05 -3.07938321E-07
  5.50698963E-21  5.57087484E-09  1.63982323E-04  3.53259626E-04  7.99213520E-05
  3.03939895E-19  1.15146085E-05  1.11239601E-02  1.79076109E-02  4.24068698E-03
  2.02264506E-17  7.93025129E-04  1.41288420E-06  3.92845890E-05  2.84464891E-02
  0.00000000E+00  5.90581152E-09  1.96682644E-08  6.58478325E-10  5.75892289E-24
  0.00000000E+00  0.00000000E+00  0.00000000E+00  0.00000000E+00  0.00000000E+00
  8.53778804E-09  0.00000000E+00  6.13935030E-10  3.17928639E-03  2.98547576E-01
  2.12602110E-01 -2.18372775E-01  6.04656176E-17  7.18554879E-02  8.38743577E-01
  0.00000000E+00  0.00000000E+00  2.09570409E-15 -4.11916488E-18 -2.52221768E-16
 -2.58043609E-16 -2.02366322E-16  6.08350507E-02 -5.54826877E-18 -1.69361672E-16
 -2.44281612E-16 -3.03849767E-17  2.39715440E-02 -1.92361258E-20 -4.83226131E-18
 -8.89104536E-18 -1.34482583E-18  7.24208683E-04  3.88667633E-23 -1.66434632E-19
 -3.24547652E-19 -1.39878849E-19  5.90862505E-05  1.25988909E-21  7.34421754E-20
  1.29168530E-19  1.07948628E-19  1.32539400E-04  2.57044374E-19 -4.38707548E-19
  1.64785890E-20  2.02409454E-20  3.86325406E-03 -3.90803571E-16 -1.31673923E-18
  2.30461686E-20  2.41230704E-18  4.79023313E-27 -3.52566928E-22 -9.10786538E-22
 -3.40570135E-22  1.62625345E-07  0.00000000E+00 -4.51026866E-23 -1.34550432E-22
 -2.51323094E-23  8.53778804E-09 -9.75752147E-41 -1.44176560E-24 -1.63193005E-21
 -1.12763769E-16 -1.77156547E-15 -3.76753543E-16 -1.62553502E-15  3.50014722E-01
  1.05582971E-17 -1.54188594E-16  6.08512782E-17 -1.81571619E-16  7.33033803E-02
 -5.50345343E-15 -3.80110715E-20  1.01606138E-18  1.55170524E-18 -1.86880427E-19
  3.37353700E-03 -1.13799074E-21 -3.72674857E-19 -7.39656156E-19  2.44651450E-19
  1.22209396E-04 -4.38430960E-25 -3.06945246E-21 -7.71757736E-21  1.58061036E-21
  1.25664516E-06  9.26974472E-27  5.19880140E-22  1.40038938E-21  3.02326060E-23
  3.26022098E-07  1.22294243E-23  4.00108946E-20  9.25285061E-20  2.05127554E-20
  8.04531946E-06  2.25763217E-20  3.44232403E-18  6.25118703E-18  1.42408136E-18
  8.16913077E-04 -7.04982063E-19 -4.34914768E-22  1.40654400E-20  1.81806301E-17
  0.00000000E+00  5.06270678E-25  1.69034850E-24  9.65453045E-26  2.19645635E-10
  0.00000000E+00  0.00000000E+00  0.00000000E+00  0.00000000E+00  0.00000000E+00
  1.44176560E-24  0.00000000E+00 -1.04256569E-25 -8.60742007E-18 -1.30098307E-17
 -1.80547955E-17  6.59325781E-18  7.33056817E-02  1.25705456E-16  8.66438671E-16
  8.14919256E-16  1.66047944E-16  3.50013253E-01 -9.67427758E-17  1.49860446E-15
 -4.72695431E-19  6.40810977E-17  7.26928895E-17 -5.69279917E-17  2.04761766E-02
 -1.53962312E-20 -1.50240311E-19 -2.97996127E-19  2.63997804E-19  6.04511439E-04
 -7.25201839E-23  1.08111541E-20  1.92143191E-20 -1.06308906E-20  2.68462191E-05
  2.76796389E-23  1.48337361E-19  3.17489212E-19 -7.44984595E-20  3.36490292E-05
  3.62107320E-20  7.29263666E-18  1.33405337E-17 -3.67689393E-19  9.63007553E-04
  5.46121217E-18  1.79757353E-16  2.55523437E-16 -3.78117609E-17  2.64262250E-02
 -3.43078017E-19 -1.28497444E-21  3.98461107E-18  8.58843281E-16  3.58043679E-27
  5.94342353E-22  1.64700767E-21 -2.16838333E-22  1.14817132E-07  0.00000000E+00
  1.27314100E-24  4.03191554E-24 -9.84953555E-25  6.13935030E-10  1.63193005E-21
  1.04256569E-25  0.00000000E+00 -7.68446248E-18  2.04839005E-16  8.14906867E-17
 -2.43156700E-16  7.33033790E-02  1.43129668E-16  2.01316307E-15 -4.28880201E-16
 -1.85043991E-15  3.50014718E-01  3.51562084E-18  5.70711411E-16  6.00055767E-15
Multipole Matrix (2,0,0)                   R   N=        1830
  6.70245180E+00  1.68327484E+00  7.51273710E+00  3.71191477E-01  4.33278622E+00
  8.19655734E+00  0.00000000E+00  0.00000000E+00  0.00000000E+00  7.17977692E+00
  0.00000000E+00  0.00000000E+00  0.00000000E+00  0.00000000E+00  7.17977692E+00
  2.77710771E-06  3.63970559E-02 -3.71557177E-02  4.75886870E-02 -9.74887738E-17
  7.27614078E-01  2.39785126E-01  1.42691677E+00 -4.59306809E-02  1.17975669E+00
 -2.41681460E-15  1.99349858E-01  1.53789938E+00  2.70775297E-01  1.75019683E+00
  3.32300677E-01  1.64620791E+00 -3.37237274E-15  1.19940477E-01  1.40002257E+00
  2.22171962E+00 -2.91500494E-01 -1.02178622E+00  1.96865169E-01 -2.99920747E-01
  2.25577321E-15  0.00000000E+00  0.00000000E+00  0.00000000E+00  1.20493920E+00
  5.97159274E-16  2.09320096E-15 -4.03292152E-16  2.25577321E-15  8.01224349E-01
  0.00000000E+00  0.00000000E+00  0.00000000E+00  0.00000000E+00  1.20493920E+00
  0.00000000E+00  4.61772224E-03 -1.04022153E-02  3.37252139E-03 -7.65434589E-18
  2.62145594E-07  1.03178605E-01 -1.68258611E-01 -3.27108044E-02  4.71548000E-17
  3.08601892E+00  1.06645405E-02  8.64789026E-02 -8.58380958E-02  4.58115626E-02
 -1.03974892E-16  2.28121166E-02  4.56002078E-01 -5.38675988E-01 -8.28495338E-02
  1.19433113E-16  7.85088922E-01  3.89630422E+00  2.37837281E-02  1.37521966E-01
 -7.62453911E-02  7.83158784E-02 -1.77747374E-16  3.74099799E-02  1.27198399E-01
  2.13096957E-01 -3.76586000E-02  5.42873765E-17 -2.51184169E-01 -2.93198355E+00
  4.58012446E+00 -7.78586284E-03 -4.05242337E-02  4.73162939E-02  1.63414986E-02
  5.42672013E-17  6.97513744E-03  9.95110344E-02 -1.41133904E-01  2.24419885E-01
  3.25557776E-17  0.00000000E+00  0.00000000E+00  0.00000000E+00  3.56334404E+00
  1.76709590E-17  9.19746580E-17 -1.07390062E-16  5.42672013E-17  4.02517451E-02
 -1.00551245E-17 -1.43451774E-16  2.03453910E-16  3.25557776E-17  2.47003496E-01
  0.00000000E+00  0.00000000E+00  0.00000000E+00  0.00000000E+00  3.56334404E+00
  0.00000000E+00  2.36372579E-03 -6.26258087E-03 -1.25526279E-03  1.80941503E-18
  0.00000000E+00  1.10474783E-02 -1.95352293E-02 -1.68727774E-02  3.09996496E-17
  4.43973970E-06  2.48820842E-01 -1.42303098E-01 -3.87393489E-01  7.44040662E-16
  6.70245180E+00  2.36372579E-03  3.38965356E-02 -5.28300838E-02 -1.20850339E-02
  1.74201308E-17  1.04475480E-03  1.17400733E-01 -1.77820920E-01 -1.07138238E-01
  1.96840613E-16  1.25639016E-01  2.06128282E+00 -1.78761725E+00 -1.96260885E+00
  3.76945103E-15  1.68327484E+00  7.51273710E+00  6.26258087E-03  5.28300838E-02
 -5.67791270E-02 -2.09438738E-02  3.01898219E-17  1.93337663E-03  5.70253476E-02
 -3.36577185E-02 -6.12221547E-02  1.12480909E-16  5.75482967E-02 -5.09850132E-01
  1.19609684E+00  3.31478005E-01 -6.36647548E-16 -3.71191477E-01 -4.33278622E+00
  8.19655734E+00  1.25526279E-03  1.20850339E-02 -2.09438738E-02  1.05565945E-02
  6.84186725E-18  1.59631805E-03  1.25436147E-01 -1.97138019E-01 -7.67725717E-02
  2.33793803E-16  2.00204497E-01  2.08381578E+00 -1.99654567E+00 -1.42705632E+00
  4.97544801E-15  0.00000000E+00  0.00000000E+00  0.00000000E+00  7.17977692E+00
 -1.80941503E-18 -1.74201308E-17  3.01898219E-17  6.84186725E-18  1.53030685E-02
 -2.93284850E-18 -2.30458596E-16  3.62193452E-16  2.33793803E-16  5.04788927E-02
 -3.84519334E-16 -4.00224505E-15  3.83463121E-15  4.97544801E-15  1.16346898E+00
  0.00000000E+00  0.00000000E+00  0.00000000E+00  0.00000000E+00  7.17977692E+00
  0.00000000E+00  1.04475480E-03 -1.93337663E-03 -1.59631805E-03  2.93284850E-18
  0.00000000E+00  2.86955389E-04 -2.76014482E-04 -7.22214981E-04  1.38712402E-18
  0.00000000E+00  1.60916757E-03  5.60493324E-04 -3.62426252E-03  7.16541725E-18
  2.77710771E-06  3.63970559E-02  3.71557177E-02 -4.75886870E-02  9.74887738E-17
  7.27614078E-01  1.10474783E-02  1.17400733E-01 -5.70253476E-02 -1.25436147E-01
  2.30458596E-16  2.86955389E-04  2.81012620E-02 -1.16080407E-02 -4.09973516E-02
  7.87416665E-17  5.55305656E-03  1.64535481E-01 -6.00085676E-02 -2.35592286E-01
  4.65782217E-16  2.39785126E-01  1.42691677E+00  4.59306809E-02 -1.17975669E+00
  2.41681460E-15  1.99349858E-01  1.53789938E+00  1.95352293E-02  1.77820920E-01
 -3.36577185E-02 -1.97138019E-01  3.62193452E-16  2.76014482E-04  1.16080407E-02
  2.47160402E-02 -1.76063093E-02  3.38156023E-17 -2.90111992E-03 -1.46615720E-01
  9.89875338E-02  2.14544084E-01 -4.24168467E-16 -2.70775297E-01 -1.75019683E+00
  3.32300677E-01  1.64620791E+00 -3.37237274E-15 -1.19940477E-01 -1.40002257E+00
  2.22171962E+00  1.68727774E-02  1.07138238E-01 -6.12221547E-02 -7.67725717E-02
  2.33793803E-16  7.22214981E-04  4.09973516E-02 -1.76063093E-02 -5.32512298E-02
  1.21863397E-16  1.25259665E-02  2.24927993E-01 -8.19487729E-02 -2.86733748E-01
  6.97443510E-16  2.91500494E-01  1.02178622E+00  1.96865169E-01 -2.99920747E-01
  2.25577321E-15  0.00000000E+00  0.00000000E+00  0.00000000E+00  1.20493920E+00
 -3.09996496E-17 -1.96840613E-16  1.12480909E-16  2.33793803E-16  5.04788927E-02
 -1.38712402E-18 -7.87416665E-17  3.38156023E-17  1.21863397E-16  1.01977262E-02
 -2.47647007E-17 -4.44698173E-16  1.62018383E-16  6.97443510E-16  6.60326416E-02
 -5.97159274E-16 -2.09320096E-15 -4.03292152E-16  2.25577321E-15  8.01224349E-01
  0.00000000E+00  0.00000000E+00  0.00000000E+00  0.00000000E+00  1.20493920E+00
  4.43973970E-06  1.25639016E-01 -5.75482967E-02 -2.00204497E-01  3.84519334E-16
  0.00000000E+00  5.55305656E-03  2.90111992E-03 -1.25259665E-02  2.47647007E-17
  0.00000000E+00  1.10614142E-03  2.02159606E-03 -2.20000966E-03  4.50682137E-18
  0.00000000E+00  4.61772224E-03  1.04022153E-02 -3.37252139E-03  7.65434589E-18
  2.62145594E-07  1.03178605E-01  1.68258611E-01  3.27108044E-02 -4.71548000E-17
  3.08601892E+00  2.48820842E-01  2.06128282E+00  5.09850132E-01 -2.08381578E+00
  4.00224505E-15  1.60916757E-03  1.64535481E-01  1.46615720E-01 -2.24927993E-01
  4.44698173E-16  1.10614142E-03  3.03729144E-02  2.88115947E-02 -3.74360039E-02
  7.66893824E-17  1.06645405E-02  8.64789026E-02  8.58380958E-02 -4.58115626E-02
  1.03974892E-16  2.28121166E-02  4.56002078E-01  5.38675988E-01  8.28495338E-02
 -1.19433113E-16  7.85088922E-01  3.89630422E+00  1.42303098E-01  1.78761725E+00
  1.19609684E+00 -1.99654567E+00  3.83463121E-15 -5.60493324E-04  6.00085676E-02
  9.89875338E-02 -8.19487729E-02  1.62018383E-16 -2.02159606E-03 -2.88115947E-02
  2.47348227E-03  3.85526666E-02 -7.89769176E-17 -2.37837281E-02 -1.37521966E-01
 -7.62453911E-02  7.83158784E-02 -1.77747374E-16 -3.74099799E-02 -1.27198399E-01
  2.13096957E-01 -3.76586000E-02  5.42873765E-17  2.51184169E-01  2.93198355E+00
  4.58012446E+00  3.87393489E-01  1.96260885E+00  3.31478005E-01 -1.42705632E+00
  4.97544801E-15  3.62426252E-03  2.35592286E-01  2.14544084E-01 -2.86733748E-01
  6.97443510E-16  2.20000966E-03  3.74360039E-02  3.85526666E-02 -3.79833254E-02
  1.02816127E-16  7.78586284E-03  4.05242337E-02  4.73162939E-02  1.63414986E-02
  5.42672013E-17 -6.97513744E-03 -9.95110344E-02 -1.41133904E-01  2.24419885E-01
  3.25557776E-17  0.00000000E+00  0.00000000E+00  0.00000000E+00  3.56334404E+00
 -7.44040662E-16 -3.76945103E-15 -6.36647548E-16  4.97544801E-15  1.16346898E+00
 -7.16541725E-18 -4.65782217E-16 -4.24168467E-16  6.97443510E-16  6.60326416E-02
 -4.50682137E-18 -7.66893824E-17 -7.89769176E-17  1.02816127E-16  1.22064766E-02
 -1.76709590E-17 -9.19746580E-17 -1.07390062E-16  5.42672013E-17  4.02517451E-02
  1.00551245E-17  1.43451774E-16  2.03453910E-16  3.25557776E-17  2.47003496E-01
  0.00000000E+00  0.00000000E+00  0.00000000E+00  0.00000000E+00  3.56334404E+00
  3.47995535E-02  5.10012953E-01  1.24517400E-01  6.24259281E-01 -1.23892437E-15
  5.28659130E-02  1.09420594E+00  1.06707072E+00  8.90315812E-01 -1.70994897E-15
  1.46787295E-02  1.29707787E-01  6.77011451E-02  1.03357274E-01 -1.88065856E-16
  5.56315570E-04  1.29524404E-02  5.64224883E-03  1.75278374E-02 -3.27792848E-17
  8.17743927E-06  2.37086376E-03  1.64585469E-03  3.95744672E-03 -7.60083184E-18
  2.87843181E-04  2.50084045E-02  1.35737908E-02  4.07469362E-02 -7.98559426E-17
  2.87947634E+00  5.29896781E-04  9.58784361E-03 -1.31489751E-02  8.26360221E-03
 -1.78088770E-17  3.12406279E-03  2.41883103E-01 -4.03504051E-01  7.93503750E-02
 -1.87226058E-16  2.11372441E-01  3.40416727E+00 -3.68063089E+00  2.33565556E+00
 -4.78478643E-15  3.63832305E-02  8.70363944E-01 -5.31603549E-01  1.09631031E+00
 -2.15940669E-15  8.71970375E-05  2.95045340E-02 -3.32028263E-02  4.46432999E-02
 -8.90865344E-17  3.13673036E-05  2.69123735E-03 -3.95736116E-03  3.70299332E-03
 -7.58579229E-18  1.26972338E-01  1.04213395E+01  5.56315570E-04  1.29524404E-02
 -5.64224883E-03 -1.75278374E-02  3.27792848E-17  8.17743927E-06  2.37086376E-03
 -1.64585469E-03 -3.95744672E-03  7.60083184E-18  2.87843181E-04  2.50084045E-02
 -1.35737908E-02 -4.07469362E-02  7.98559426E-17  3.47995535E-02  5.10012953E-01
 -1.24517400E-01 -6.24259281E-01  1.23892437E-15  5.28659130E-02  1.09420594E+00
 -1.06707072E+00 -8.90315812E-01  1.70994897E-15  1.46787295E-02  1.29707787E-01
 -6.77011451E-02 -1.03357274E-01  1.88065856E-16  1.64834345E-04  5.15832497E-03
  2.87947634E+00  3.63832305E-02  8.70363944E-01  5.31603549E-01 -1.09631031E+00
  2.15940669E-15  8.71970375E-05  2.95045340E-02  3.32028263E-02 -4.46432999E-02
  8.90865344E-17  3.13673036E-05  2.69123735E-03  3.95736116E-03 -3.70299332E-03
  7.58579229E-18  5.29896781E-04  9.58784361E-03  1.31489751E-02 -8.26360221E-03
  1.78088770E-17  3.12406279E-03  2.41883103E-01  4.03504051E-01 -7.93503750E-02
  1.87226058E-16  2.11372441E-01  3.40416727E+00  3.68063089E+00 -2.33565556E+00
  4.78478643E-15  5.15832497E-03  1.71275753E-04  1.26972338E-01  1.04213395E+01
  0.00000000E+00  2.71960134E-06 -1.10107149E-05 -2.23343668E-06  3.21972528E-21
  0.00000000E+00  6.20479164E-05 -1.96875533E-04 -1.12541130E-04  1.99590412E-19
  0.00000000E+00  3.18362844E-02 -5.98104349E-02 -4.94514218E-02  9.05069534E-17
  1.02315176E-06  7.48296512E-01 -1.23387426E+00 -2.48326235E-01  3.58049547E-16
  0.00000000E+00  3.13082224E-02 -7.32408069E-02  2.19554031E-02 -5.05497345E-17
  0.00000000E+00  6.09020238E-05 -2.21231972E-04  2.64651246E-05 -7.48145872E-20
  5.52003002E-06  2.92598874E-02  2.86317168E-02  5.38541893E-06  2.95658240E+01
  5.22712281E-07  9.46656148E-04 -2.53807564E-03 -4.18371955E-04  6.03125565E-19
  9.45486377E-07  9.93286969E-03 -2.10887196E-02 -9.76097175E-03  1.73109723E-17
  4.34145239E-03  6.54898398E-01 -9.39711187E-01 -6.11815872E-01  1.11975730E-15
  1.99968509E-01  5.11624249E+00 -6.94857514E+00 -1.08497075E+00  1.56436666E-15
  1.38602603E-03  5.15661325E-01 -8.89464117E-01  2.15325233E-01 -4.95761034E-16
  4.87592914E-06  7.08848088E-03 -1.72042894E-02  1.67753934E-03 -4.74225667E-18
  1.16826479E-03  6.26796300E-01  4.52046220E-01  7.05391643E-04  7.36167661E+00
  3.03761093E+01  2.13386967E-06  1.60046274E-03 -4.10916151E-03 -7.31945801E-04
  1.05517404E-18  3.12236007E-06  1.33388398E-02 -2.63530527E-02 -1.36628407E-02
  2.42308924E-17  7.80392742E-03  5.69756643E-01 -6.50498652E-01 -5.97568772E-01
  1.09368198E-15  3.26475915E-01  4.12848361E+00 -4.56676197E+00 -1.19031547E+00
  1.71625811E-15  3.06367633E-03  5.98857421E-01 -9.30853853E-01  2.79925593E-01
 -6.44495767E-16  1.80095211E-05  1.11884759E-02 -2.59961828E-02  2.78532648E-03
 -7.87387380E-18  1.39493965E-03  2.11967582E-01  3.43135602E-01  1.08348472E-03
 -7.81010105E-01 -9.11645344E+00  3.10599295E+01  4.29829060E-07  4.31408821E-04
 -1.17239312E-03  1.18234843E-04  2.82236545E-19  1.72159731E-06  1.02002438E-02
 -2.21078322E-02 -7.01818460E-03  1.84154688E-17  6.73040842E-03  6.67207768E-01
 -1.01674121E+00 -4.16092393E-01  1.25163588E-15  6.85121589E-02  1.21536044E+00
 -1.95707084E+00  2.48278592E+00  4.68941959E-16 -9.68207534E-04 -2.42540402E-01
  4.45010154E-01  1.01658940E-01  2.56671450E-16 -2.12374856E-06 -1.77405100E-03
  4.40543095E-03  2.00464370E-03  1.23759614E-18  1.56176226E-03  8.27396019E-01
 -4.39032102E-01 -4.17516920E-04  0.00000000E+00  0.00000000E+00  0.00000000E+00
  3.00431491E+01 -6.19642142E-22 -6.21919527E-19  1.69012347E-18  2.82236545E-19
  3.14014731E-04 -3.05323322E-21 -1.80900163E-17  3.92079886E-17  1.84154688E-17
  3.36556900E-03 -1.23181243E-17 -1.22113663E-15  1.86085953E-15  1.25163588E-15
  2.67779637E-01 -9.87843569E-17 -1.75236924E-15  2.82180547E-15  4.68941959E-16
  2.80802189E+00  2.22918402E-18  5.58420761E-16 -1.02458356E-15  2.56671450E-16
  2.13139747E-01  6.00365103E-21  5.01508668E-18 -1.24537671E-17  1.23759614E-18
  2.44243447E-03 -2.85092331E-18 -1.57491075E-15  9.12569772E-16  9.71417184E-19
  0.00000000E+00  0.00000000E+00  0.00000000E+00  0.00000000E+00  3.00431491E+01
  0.00000000E+00  1.18496991E-08 -5.81887123E-08  9.47767607E-10 -7.93332036E-24
  0.00000000E+00  4.33120551E-06 -1.75036062E-05 -3.94304414E-06  5.88345593E-21
  0.00000000E+00  9.89447819E-03 -2.72250108E-02 -6.40960079E-03  9.69644219E-18
  0.00000000E+00  6.14921335E-02 -1.43518809E-01  3.76020561E-02 -8.84869323E-17
  0.00000000E+00  1.65447284E-04 -5.30539291E-04  2.64949843E-04 -5.73502087E-19
  0.00000000E+00  7.30979549E-08 -3.28517657E-07  9.74579109E-08 -2.24910014E-22
  1.76574913E-06  7.35396168E-02  2.65524459E-04  6.43935982E-09  1.21594898E-04
  2.25271792E+00 -2.62967194E+00  2.65511568E+00 -5.46359681E-15  5.16186327E+01
  1.18098356E-09  7.87851267E-05 -2.37243359E-04  3.33340397E-06 -2.79023691E-20
  3.01611425E-08  3.08606739E-03 -7.65147143E-03 -1.49830661E-03  2.23563842E-18
  8.50391785E-04  3.73767975E-01 -6.83776440E-01 -1.39299329E-01  2.10731984E-16
  1.00204154E-02  1.23654318E+00 -2.03627526E+00  4.57783430E-01 -1.07727756E-15
  5.00066891E-06  3.27163462E-02 -6.57677945E-02  2.84807967E-02 -6.16486355E-17
  2.90453934E-09  2.71396206E-04 -7.45492883E-04  1.91568741E-04 -4.42095749E-19
  7.62264329E-04  1.17746960E+00  2.70222160E-02  1.83547798E-05  1.37103661E+00
  1.64165580E+01 -1.51245261E+01  1.17551957E+01 -2.41893980E-14  1.28387649E+01
  5.24289180E+01  5.85410033E-09  1.71526561E-04 -4.99185998E-04  7.30109013E-06
 -6.11140184E-20  1.26341541E-07  5.69789782E-03 -1.34702363E-02 -2.81799864E-03
  4.20476420E-18  2.27243639E-03  5.28145438E-01 -8.98124037E-01 -2.12971980E-01
  3.22183949E-16  2.27974560E-02  1.55944636E+00 -2.32296727E+00  6.43073083E-01
 -1.51330992E-15  1.53966148E-05  4.92388361E-02 -9.19773882E-02  4.44820615E-02
 -9.62844696E-17  1.32842847E-08  5.45042541E-04 -1.43537091E-03  3.87719106E-04
 -8.94764815E-19  1.28371079E-03  1.08103213E+00  3.01826525E-02  3.58463948E-05
  1.56912159E+00  8.18851889E+00 -9.28867337E-01  8.73895163E+00 -1.79826848E-14
 -1.03219669E+00 -1.20484652E+01  5.31127382E+01 -9.46261725E-11 -3.35386325E-06
  1.01338430E-05  2.48068020E-05  1.19396989E-21  2.76180659E-08  1.52733270E-03
 -3.83265671E-03  2.47172048E-04  1.12507594E-18  5.49303261E-04  1.49493824E-01
 -2.88713119E-01  8.15075559E-02  9.04647241E-17 -6.11760012E-03 -4.97940330E-01
  8.81860475E-01  3.06902760E-01  4.76859363E-16 -7.97035131E-06 -2.94251495E-02
  6.06752465E-02 -1.54454344E-02  5.73360283E-17 -3.88419545E-09 -1.93128707E-04
  5.33016245E-04 -5.10228820E-05  3.16768559E-19  6.79509718E-04  9.80353682E-01
 -3.42957913E-02 -1.78335675E-05 -1.64818272E+00 -1.23689802E+01  1.42493867E+01
 -1.98836970E+00  2.44117908E-14  0.00000000E+00  0.00000000E+00  0.00000000E+00
  5.20959578E+01  7.92071532E-25  2.80736242E-20 -8.48256704E-20  1.19396989E-21
  2.49494417E-05 -4.12091947E-23 -2.27894852E-18  5.71874574E-18  1.12507594E-18
  1.00118876E-03 -8.30985811E-19 -2.26154212E-16  4.36765122E-16  9.04647241E-17
  1.41307094E-01  1.43962252E-17  1.17177667E-15 -2.07523567E-15  4.76859363E-16
  5.09541637E-01  1.72523715E-20  6.36927521E-17 -1.31335728E-16  5.73360283E-17
  1.10429988E-02  8.96381264E-24  4.45695787E-19 -1.23007655E-18  3.16768559E-19
  8.62391343E-05 -1.16553163E-18 -1.77050842E-15  7.10383491E-17  3.94501779E-20
  3.39156818E-15  2.54524206E-14 -2.93218500E-14  2.44117908E-14  9.87490107E+00
  0.00000000E+00  0.00000000E+00  0.00000000E+00  0.00000000E+00  5.20959578E+01
  3.89535432E-07  2.12639961E-04 -5.41437817E-04 -1.81217580E-04  3.10304712E-19
  1.31296197E-07  1.06879586E-03 -2.20003929E-03 -1.39262782E-03  2.54874754E-18
  2.57892623E-04  7.51444061E-02 -1.04907607E-01 -9.63026130E-02  1.80112895E-16
  3.28783983E-02  1.56042277E+00 -2.07072886E+00 -1.25379772E+00  2.28433518E-15
  1.30855721E-03  3.73650069E-01 -6.72547242E-01 -6.67948226E-02  7.43108912E-17
  1.06836262E-05  3.91890544E-03 -9.29974506E-03 -1.09330386E-03  1.38008903E-18
  9.52134663E-05  6.10556837E-02  8.59414904E-01  7.46128594E-04  1.83001065E+00
  1.60966042E+01 -7.38030300E+00 -1.48559143E+01  2.86920213E-14  2.95082148E-01
  4.51358590E+00  8.58868672E-01 -5.48622805E+00  1.09220217E-14  3.54971880E+01
  5.44515568E-11  3.65115432E-06 -1.14526985E-05 -2.12048833E-07 -6.15393175E-22
  8.77229006E-10  1.59908449E-04 -4.23175316E-04 -8.14249790E-05  1.20720617E-19
  2.40430491E-05  3.02345501E-02 -6.17423494E-02 -1.22621415E-02  1.83356396E-17
  4.53110699E-04  1.47511110E-01 -2.80288396E-01  2.94702146E-02 -8.32959432E-17
  3.59240406E-07  3.72619674E-03 -8.29883206E-03  2.39090590E-03 -5.43387075E-18
  2.15761296E-10  1.88712801E-05 -5.46542235E-05  9.66524839E-06 -2.38511376E-20
  4.57865359E-05  1.66311616E-01  6.02433857E-03  1.63319851E-06  1.79902769E-01
  5.47110574E+00 -7.56801449E+00  2.39367367E+00 -5.36863350E-15  3.27204369E+00
  3.35479587E+01 -3.67303641E+01 -6.34231005E+00  9.13907337E-15  2.83411229E+00
  8.55857357E+01  1.47743955E-07  1.64085758E-04 -4.45083969E-04  8.26423241E-05
 -1.98556287E-19  3.23736948E-06  9.91658624E-03 -2.23624042E-02  4.94836387E-04
 -2.85059695E-18  5.05915371E-03  6.38676133E-01 -1.09993432E+00  1.33844942E-01
 -3.56612639E-16  6.86725541E-03  5.95311420E-01 -8.57650328E-01  5.36623312E-01
 -1.12131514E-15  4.26317812E-06  1.09081147E-02 -1.91353555E-02  1.34366279E-02
 -2.78680967E-17  4.28571116E-08  1.92401198E-04 -4.73581020E-04  2.06674799E-04
 -4.43360616E-19  4.67869421E-03  3.34834937E+00  4.87385411E-03  9.86759509E-06
  1.74206802E-01  3.82867051E+00 -2.42111204E+00  4.62836974E+00 -9.21419131E-15
  3.13135590E+00  2.38025365E+01  2.27206269E-01  2.21009696E+01 -4.26847839E-14
  5.80905049E-01  9.85085318E+00  4.57252620E+01  1.02315176E-06  7.48296512E-01
  1.23387426E+00  2.48326235E-01 -3.58049547E-16  0.00000000E+00  3.13082224E-02
  7.32408069E-02 -2.19554031E-02  5.05497345E-17  0.00000000E+00  6.09020238E-05
  2.21231972E-04 -2.64651246E-05  7.48145872E-20  0.00000000E+00  2.71960134E-06
  1.10107149E-05  2.23343668E-06 -3.21972528E-21  0.00000000E+00  6.20479164E-05
  1.96875533E-04  1.12541130E-04 -1.99590412E-19  0.00000000E+00  3.18362844E-02
  5.98104349E-02  4.94514218E-02 -9.05069534E-17  2.86317168E-02  5.38541893E-06
  5.52003002E-06  2.92598874E-02  0.00000000E+00  0.00000000E+00  0.00000000E+00
  0.00000000E+00  0.00000000E+00  0.00000000E+00  0.00000000E+00  0.00000000E+00
  0.00000000E+00  0.00000000E+00  9.08812682E-11  0.00000000E+00  4.98336489E-11
  2.95658240E+01  1.99968509E-01  5.11624249E+00  6.94857514E+00  1.08497075E+00
 -1.56436666E-15  1.38602603E-03  5.15661325E-01  8.89464117E-01 -2.15325233E-01
  4.95761034E-16  4.87592914E-06  7.08848088E-03  1.72042894E-02 -1.67753934E-03
  4.74225667E-18  5.22712281E-07  9.46656148E-04  2.53807564E-03  4.18371955E-04
 -6.03125565E-19  9.45486377E-07  9.93286969E-03  2.10887196E-02  9.76097175E-03
 -1.73109723E-17  4.34145239E-03  6.54898398E-01  9.39711187E-01  6.11815872E-01
 -1.11975730E-15  4.52046220E-01  7.05391643E-04  1.16826479E-03  6.26796300E-01
  0.00000000E+00  6.37017736E-07  1.83666064E-06  3.75046300E-07 -5.40691865E-22
  0.00000000E+00  1.87843728E-08  5.22355142E-08  2.09439503E-09  2.46475175E-24
  3.80578072E-07  6.73902121E-10  2.24923844E-07  7.36167661E+00  3.03761093E+01
 -3.26475915E-01 -4.12848361E+00 -4.56676197E+00 -1.19031547E+00  1.71625811E-15
 -3.06367633E-03 -5.98857421E-01 -9.30853853E-01  2.79925593E-01 -6.44495767E-16
 -1.80095211E-05 -1.11884759E-02 -2.59961828E-02  2.78532648E-03 -7.87387380E-18
 -2.13386967E-06 -1.60046274E-03 -4.10916151E-03 -7.31945801E-04  1.05517404E-18
 -3.12236007E-06 -1.33388398E-02 -2.63530527E-02 -1.36628407E-02  2.42308924E-17
 -7.80392742E-03 -5.69756643E-01 -6.50498652E-01 -5.97568772E-01  1.09368198E-15
 -3.43135602E-01 -1.08348472E-03 -1.39493965E-03 -2.11967582E-01  0.00000000E+00
 -1.83666064E-06 -4.71670304E-06 -1.08561564E-06  1.56509622E-21  0.00000000E+00
 -7.28805712E-08 -1.95438220E-07 -8.12594108E-09 -9.56287003E-24 -8.15489187E-07
 -2.64102306E-09 -5.83553992E-07  7.81010105E-01  9.11645344E+00  3.10599295E+01
 -6.85121589E-02 -1.21536044E+00 -1.95707084E+00  2.48278592E+00  4.68941959E-16
  9.68207534E-04  2.42540402E-01  4.45010154E-01  1.01658940E-01  2.56671450E-16
  2.12374856E-06  1.77405100E-03  4.40543095E-03  2.00464370E-03  1.23759614E-18
 -4.29829060E-07 -4.31408821E-04 -1.17239312E-03  1.18234843E-04  2.82236545E-19
 -1.72159731E-06 -1.02002438E-02 -2.21078322E-02 -7.01818460E-03  1.84154688E-17
 -6.73040842E-03 -6.67207768E-01 -1.01674121E+00 -4.16092393E-01  1.25163588E-15
  4.39032102E-01  4.17516920E-04 -1.56176226E-03 -8.27396019E-01  0.00000000E+00
 -3.75046300E-07 -1.08561564E-06 -2.04028101E-08  3.19663551E-22  0.00000000E+00
 -2.09439503E-09 -5.82408595E-09  5.65403825E-09 -2.74811615E-25 -3.71523363E-07
 -1.28512450E-10  8.27848666E-08  0.00000000E+00  0.00000000E+00  0.00000000E+00
  3.00431491E+01  9.87843569E-17  1.75236924E-15  2.82180547E-15  4.68941959E-16
  2.80802189E+00 -2.22918402E-18 -5.58420761E-16 -1.02458356E-15  2.56671450E-16
  2.13139747E-01 -6.00365103E-21 -5.01508668E-18 -1.24537671E-17  1.23759614E-18
  2.44243447E-03  6.19642142E-22  6.21919527E-19  1.69012347E-18  2.82236545E-19
  3.14014731E-04  3.05323322E-21  1.80900163E-17  3.92079886E-17  1.84154688E-17
  3.36556900E-03  1.23181243E-17  1.22113663E-15  1.86085953E-15  1.25163588E-15
  2.67779637E-01 -9.12569772E-16 -9.71417184E-19  2.85092331E-18  1.57491075E-15
  0.00000000E+00  5.40691865E-22  1.56509622E-21  3.19663551E-22  2.01329085E-07
  0.00000000E+00 -2.46475175E-24 -6.85397253E-24 -2.74811615E-25  5.88755632E-09
  6.22374901E-22  1.53572285E-26 -2.27843175E-22  0.00000000E+00  0.00000000E+00
  0.00000000E+00  0.00000000E+00  3.00431491E+01  0.00000000E+00  6.14921335E-02
  1.43518809E-01 -3.76020561E-02  8.84869323E-17  0.00000000E+00  1.65447284E-04
  5.30539291E-04 -2.64949843E-04  5.73502087E-19  0.00000000E+00  7.30979549E-08
  3.28517657E-07 -9.74579109E-08  2.24910014E-22  0.00000000E+00  1.18496991E-08
  5.81887123E-08 -9.47767607E-10  7.93332036E-24  0.00000000E+00  4.33120551E-06
  1.75036062E-05  3.94304414E-06 -5.88345593E-21  0.00000000E+00  9.89447819E-03
  2.72250108E-02  6.40960079E-03 -9.69644219E-18  2.65524459E-04  6.43935982E-09
  1.76574913E-06  7.35396168E-02  0.00000000E+00  0.00000000E+00  0.00000000E+00
  0.00000000E+00  0.00000000E+00  0.00000000E+00  0.00000000E+00  0.00000000E+00
  0.00000000E+00  0.00000000E+00  0.00000000E+00  0.00000000E+00  0.00000000E+00
  1.21594898E-04  2.25271792E+00  2.62967194E+00 -2.65511568E+00  5.46359681E-15
  5.16186327E+01  1.00204154E-02  1.23654318E+00  2.03627526E+00 -4.57783430E-01
  1.07727756E-15  5.00066891E-06  3.27163462E-02  6.57677945E-02 -2.84807967E-02
  6.16486355E-17  2.90453934E-09  2.71396206E-04  7.45492883E-04 -1.91568741E-04
  4.42095749E-19  1.18098356E-09  7.87851267E-05  2.37243359E-04 -3.33340397E-06
  2.79023691E-20  3.01611425E-08  3.08606739E-03  7.65147143E-03  1.49830661E-03
 -2.23563842E-18  8.50391785E-04  3.73767975E-01  6.83776440E-01  1.39299329E-01
 -2.10731984E-16  2.70222160E-02  1.83547798E-05  7.62264329E-04  1.17746960E+00
  0.00000000E+00  1.87843728E-08  7.28805712E-08  2.09439503E-09  2.46475175E-24
  0.00000000E+00  0.00000000E+00  0.00000000E+00  0.00000000E+00  0.00000000E+00
  4.59889683E-08  0.00000000E+00  2.43722361E-09  1.37103661E+00  1.64165580E+01
  1.51245261E+01 -1.17551957E+01  2.41893980E-14  1.28387649E+01  5.24289180E+01
 -2.27974560E-02 -1.55944636E+00 -2.32296727E+00  6.43073083E-01 -1.51330992E-15
 -1.53966148E-05 -4.92388361E-02 -9.19773882E-02  4.44820615E-02 -9.62844696E-17
 -1.32842847E-08 -5.45042541E-04 -1.43537091E-03  3.87719106E-04 -8.94764815E-19
 -5.85410033E-09 -1.71526561E-04 -4.99185998E-04  7.30109013E-06 -6.11140184E-20
 -1.26341541E-07 -5.69789782E-03 -1.34702363E-02 -2.81799864E-03  4.20476420E-18
 -2.27243639E-03 -5.28145438E-01 -8.98124037E-01 -2.12971980E-01  3.22183949E-16
 -3.01826525E-02 -3.58463948E-05 -1.28371079E-03 -1.08103213E+00  0.00000000E+00
 -5.22355142E-08 -1.95438220E-07 -5.82408595E-09 -6.85397253E-24  0.00000000E+00
  0.00000000E+00  0.00000000E+00  0.00000000E+00  0.00000000E+00 -1.11286290E-07
  0.00000000E+00 -6.26528183E-09 -1.56912159E+00 -8.18851889E+00 -9.28867337E-01
  8.73895163E+00 -1.79826848E-14  1.03219669E+00  1.20484652E+01  5.31127382E+01
  6.11760012E-03  4.97940330E-01  8.81860475E-01  3.06902760E-01  4.76859363E-16
  7.97035131E-06  2.94251495E-02  6.06752465E-02 -1.54454344E-02  5.73360283E-17
  3.88419545E-09  1.93128707E-04  5.33016245E-04 -5.10228820E-05  3.16768559E-19
  9.46261725E-11  3.35386325E-06  1.01338430E-05  2.48068020E-05  1.19396989E-21
 -2.76180659E-08 -1.52733270E-03 -3.83265671E-03  2.47172048E-04  1.12507594E-18
 -5.49303261E-04 -1.49493824E-01 -2.88713119E-01  8.15075559E-02  9.04647241E-17
  3.42957913E-02  1.78335675E-05 -6.79509718E-04 -9.80353682E-01  0.00000000E+00
 -2.09439503E-09 -8.12594108E-09  5.65403825E-09 -2.74811615E-25  0.00000000E+00
  0.00000000E+00  0.00000000E+00  0.00000000E+00  0.00000000E+00 -2.56858732E-08
  0.00000000E+00  1.88553511E-09  1.64818272E+00  1.23689802E+01  1.42493867E+01
 -1.98836970E+00  2.44117908E-14  0.00000000E+00  0.00000000E+00  0.00000000E+00
  5.20959578E+01 -1.43962252E-17 -1.17177667E-15 -2.07523567E-15  4.76859363E-16
  5.09541637E-01 -1.72523715E-20 -6.36927521E-17 -1.31335728E-16  5.73360283E-17
  1.10429988E-02 -8.96381264E-24 -4.45695787E-19 -1.23007655E-18  3.16768559E-19
  8.62391343E-05 -7.92071532E-25 -2.80736242E-20 -8.48256704E-20  1.19396989E-21
  2.49494417E-05  4.12091947E-23  2.27894852E-18  5.71874574E-18  1.12507594E-18
  1.00118876E-03  8.30985811E-19  2.26154212E-16  4.36765122E-16  9.04647241E-17
  1.41307094E-01 -7.10383491E-17 -3.94501779E-20  1.16553163E-18  1.77050842E-15
  0.00000000E+00 -2.46475175E-24 -9.56287003E-24 -2.74811615E-25  5.88755632E-09
  0.00000000E+00  0.00000000E+00  0.00000000E+00  0.00000000E+00  0.00000000E+00
  3.58112700E-23  0.00000000E+00 -4.49692666E-24 -3.39156818E-15 -2.54524206E-14
 -2.93218500E-14  2.44117908E-14  9.87490107E+00  0.00000000E+00  0.00000000E+00
  0.00000000E+00  0.00000000E+00  5.20959578E+01  3.28783983E-02  1.56042277E+00
  2.07072886E+00  1.25379772E+00 -2.28433518E-15  1.30855721E-03  3.73650069E-01
  6.72547242E-01  6.67948226E-02 -7.43108912E-17  1.06836262E-05  3.91890544E-03
  9.29974506E-03  1.09330386E-03 -1.38008903E-18  3.89535432E-07  2.12639961E-04
  5.41437817E-04  1.81217580E-04 -3.10304712E-19  1.31296197E-07  1.06879586E-03
  2.20003929E-03  1.39262782E-03 -2.54874754E-18  2.57892623E-04  7.51444061E-02
  1.04907607E-01  9.63026130E-02 -1.80112895E-16  8.59414904E-01  7.46128594E-04
  9.52134663E-05  6.10556837E-02  9.08812682E-11  3.80578072E-07  8.15489187E-07
  3.71523363E-07 -6.22374901E-22  0.00000000E+00  4.59889683E-08  1.11286290E-07
  2.56858732E-08 -3.58112700E-23  8.29995348E-08  1.73964710E-09  4.69411743E-07
  1.83001065E+00  1.60966042E+01  7.38030300E+00  1.48559143E+01 -2.86920213E-14
  2.95082148E-01  4.51358590E+00 -8.58868672E-01  5.48622805E+00 -1.09220217E-14
  3.54971880E+01  4.53110699E-04  1.47511110E-01  2.80288396E-01 -2.94702146E-02
  8.32959432E-17  3.59240406E-07  3.72619674E-03  8.29883206E-03 -2.39090590E-03
  5.43387075E-18  2.15761296E-10  1.88712801E-05  5.46542235E-05 -9.66524839E-06
  2.38511376E-20  5.44515568E-11  3.65115432E-06  1.14526985E-05  2.12048833E-07
  6.15393175E-22  8.77229006E-10  1.59908449E-04  4.23175316E-04  8.14249790E-05
 -1.20720617E-19  2.40430491E-05  3.02345501E-02  6.17423494E-02  1.22621415E-02
 -1.83356396E-17  6.02433857E-03  1.63319851E-06  4.57865359E-05  1.66311616E-01
  0.00000000E+00  6.73902121E-10  2.64102306E-09  1.28512450E-10 -1.53572285E-26
  0.00000000E+00  0.00000000E+00  0.00000000E+00  0.00000000E+00  0.00000000E+00
  1.73964710E-09  0.00000000E+00  1.41072279E-10  1.79902769E-01  5.47110574E+00
  7.56801449E+00 -2.39367367E+00  5.36863350E-15  3.27204369E+00  3.35479587E+01
  3.67303641E+01  6.34231005E+00 -9.13907337E-15  2.83411229E+00  8.55857357E+01
  6.86725541E-03  5.95311420E-01  8.57650328E-01 -5.36623312E-01  1.12131514E-15
  4.26317812E-06  1.09081147E-02  1.91353555E-02 -1.34366279E-02  2.78680967E-17
  4.28571116E-08  1.92401198E-04  4.73581020E-04 -2.06674799E-04  4.43360616E-19
  1.47743955E-07  1.64085758E-04  4.45083969E-04 -8.26423241E-05  1.98556287E-19
  3.23736948E-06  9.91658624E-03  2.23624042E-02 -4.94836387E-04  2.85059695E-18
  5.05915371E-03  6.38676133E-01  1.09993432E+00 -1.33844942E-01  3.56612639E-16
  4.87385411E-03  9.86759509E-06  4.67869421E-03  3.34834937E+00  4.98336489E-11
  2.24923844E-07  5.83553992E-07 -8.27848666E-08  2.27843175E-22  0.00000000E+00
  2.43722361E-09  6.26528183E-09 -1.88553511E-09  4.49692666E-24  4.69411743E-07
  1.41072279E-10  6.02008385E-09  1.74206802E-01  3.82867051E+00  2.42111204E+00
 -4.62836974E+00  9.21419131E-15  3.13135590E+00  2.38025365E+01 -2.27206269E-01
 -2.21009696E+01  4.26847839E-14  5.80905049E-01  9.85085318E+00  4.57252620E+01
Multipole Matrix (1,1,0)                   R   N=        1830
  1.36066755E+00  3.37938644E-01  1.36066755E+00  3.78533143E-02  4.41848287E-01
  1.36066755E+00  1.85595739E-01  2.16639311E+00  5.08390209E-01  1.36066755E+00
  0.00000000E+00  0.00000000E+00  0.00000000E+00  0.00000000E+00  1.36066755E+00
  2.40087839E-06  8.40159741E-02 -8.76292496E-02  1.08192885E-01 -2.16514830E-16
  2.08667141E+00  5.93022445E-02  9.26337276E-01 -2.68387393E-01  1.21438481E+00
 -1.46423842E-15  5.18250698E-01  2.08667141E+00  6.91365615E-02  1.10214180E+00
 -1.12501659E-01  1.50906849E+00 -2.07790684E-15  1.79654531E-01  2.09704350E+00
  2.08667141E+00 -6.97893231E-02 -3.11471623E-01  2.25191574E-01 -2.73479090E-01
  8.45916210E-16  5.99702384E-02  7.00011283E-01  5.08390209E-01  2.08667141E+00
  1.55799756E-16  1.50356079E-15 -7.62988687E-16  2.33045650E-15  5.28785334E-01
  0.00000000E+00  0.00000000E+00  0.00000000E+00  0.00000000E+00  2.08667141E+00
  0.00000000E+00 -5.44050185E-03  1.20843233E-02 -4.12539635E-03  9.01600086E-18
 -9.55696037E-07 -1.22669975E-01  2.00298242E-01  3.58494377E-02 -5.73800019E-17
 -3.44921213E+00  2.60180654E-03  2.72863775E-02  4.33104246E-03  4.01083861E-02
 -3.28053201E-17  6.59742786E-02 -3.66080968E-01  8.94372040E-01 -9.39754005E-03
 -8.19885581E-17 -8.56654571E-01 -3.44921213E+00  5.74144221E-03  7.56845794E-02
 -4.04063382E-02  9.72262439E-02 -8.68065955E-17  1.07321257E-01  1.21790075E-01
  3.18890991E-01  5.41467189E-02  3.05640587E-17  1.41800422E-01  1.65518594E+00
 -3.44921213E+00 -1.65975980E-03  6.80104562E-04  4.41721190E-03 -4.28832675E-03
  2.65179818E-18  2.22141985E-02 -2.76288457E-01  5.61208600E-01 -1.66630236E-01
 -8.30424540E-17 -1.25592084E-01 -1.46599177E+00  5.08390209E-01 -3.44921213E+00
  4.30616090E-18  1.68449300E-17  1.85199402E-17  3.78304545E-17  9.01212415E-03
 -2.97040642E-17  1.38367560E-16 -3.34789279E-16 -8.45918748E-18 -2.09021860E-01
  0.00000000E+00  0.00000000E+00  0.00000000E+00  0.00000000E+00 -3.44921213E+00
  0.00000000E+00  4.73018492E-04 -1.24288432E-03 -3.05245311E-04  3.62163527E-19
  0.00000000E+00  1.73767827E-03 -3.03915866E-03 -2.90250386E-03  4.88629358E-18
 -1.46069810E-06  3.84790255E-02 -1.90983372E-02 -6.11393392E-02  1.05023575E-16
  1.36066755E+00  4.73018492E-04  1.32352884E-03 -3.19958850E-03  2.42539949E-03
  1.13323369E-18  2.95311143E-03 -4.51280764E-02  8.75454544E-02  8.31676063E-03
 -6.75151600E-17 -1.25353618E-01 -5.61208725E-01  4.63055716E-01  7.05818076E-02
 -1.22274891E-15  3.37938644E-01  1.36066755E+00  1.24288432E-03  3.19958850E-03
 -7.08193687E-03  1.33838159E-02  2.76653175E-18  5.33507501E-03 -1.02218099E-02
  4.14670580E-02 -2.34386089E-03 -9.48868909E-18 -6.03406943E-02 -1.87368979E-02
 -2.06517484E-01  5.85809548E-02 -1.87498350E-16 -3.78533143E-02 -4.41848287E-01
  1.36066755E+00  3.05245311E-04 -2.42539949E-03  1.33838159E-02  3.05244191E-03
 -1.04395961E-18  4.58137144E-03 -8.12670832E-02  1.51088816E-01  3.24414701E-02
 -1.36115035E-16 -1.98940460E-01 -1.07835080E+00  8.36175176E-01  4.40120768E-01
 -2.54710859E-15 -1.85595739E-01 -2.16639311E+00  5.08390209E-01  1.36066755E+00
 -3.62163527E-19 -1.13323369E-18  2.76653175E-18 -1.04395961E-18  1.16410291E-03
 -8.29669682E-18  7.16000886E-17 -1.50421630E-16 -1.12587637E-17 -1.49088175E-02
  3.73142172E-16  9.13131318E-16 -9.34276435E-16 -3.11469206E-16 -3.20401052E-01
  0.00000000E+00  0.00000000E+00  0.00000000E+00  0.00000000E+00  1.36066755E+00
  0.00000000E+00  2.95311143E-03 -5.33507501E-03 -4.58137144E-03  8.29669682E-18
  0.00000000E+00  7.26176789E-04 -6.63403948E-04 -1.84809378E-03  3.51599902E-18
  0.00000000E+00  3.70252196E-03  1.47690152E-03 -8.44326171E-03  1.65156039E-17
  2.40087839E-06  8.40159741E-02  8.76292496E-02 -1.08192885E-01  2.16514830E-16
  2.08667141E+00  1.73767827E-03 -4.51280764E-02  1.02218099E-02  8.12670832E-02
 -7.16000886E-17  7.26176789E-04  2.03137513E-03  1.19973396E-03 -4.68824255E-03
  1.09993037E-17 -5.55496844E-03  1.77790362E-02  3.61490017E-04 -6.35715886E-02
  1.88224655E-17  5.93022445E-02  9.26337276E-01  2.68387393E-01 -1.21438481E+00
  1.46423842E-15  5.18250698E-01  2.08667141E+00  3.03915866E-03 -8.75454544E-02
  4.14670580E-02  1.51088816E-01 -1.50421630E-16  6.63403948E-04 -1.19973396E-03
  3.66568565E-03  1.04738842E-02 -5.30403440E-19  2.73521039E-03 -2.67689773E-02
 -1.02296600E-03  7.32651865E-02 -6.89783875E-17 -6.91365615E-02 -1.10214180E+00
 -1.12501659E-01  1.50906849E+00 -2.07790684E-15 -1.79654531E-01 -2.09704350E+00
  2.08667141E+00  2.90250386E-03 -8.31676063E-03 -2.34386089E-03  3.24414701E-02
 -1.12587637E-17  1.84809378E-03  4.68824255E-03  1.04738842E-02 -9.84744725E-03
  2.57769794E-17 -1.27134235E-02 -1.57967656E-02  1.27603577E-02 -2.80999407E-02
 -8.50351877E-17  6.97893231E-02  3.11471623E-01  2.25191574E-01 -2.73479090E-01
  8.45916210E-16 -5.99702384E-02 -7.00011283E-01  5.08390209E-01  2.08667141E+00
 -4.88629358E-18  6.75151600E-17 -9.48868909E-18 -1.36115035E-16 -1.49088175E-02
 -3.51599902E-18 -1.09993037E-17 -5.30403440E-19  2.57769794E-17  1.78675087E-03
  2.47951931E-17 -6.83130406E-17 -9.18828390E-18  2.08058237E-16  5.87059624E-03
 -1.55799756E-16 -1.50356079E-15 -7.62988687E-16  2.33045650E-15  5.28785334E-01
  0.00000000E+00  0.00000000E+00  0.00000000E+00  0.00000000E+00  2.08667141E+00
 -1.46069810E-06 -1.25353618E-01  6.03406943E-02  1.98940460E-01 -3.73142172E-16
  0.00000000E+00 -5.55496844E-03 -2.73521039E-03  1.27134235E-02 -2.47951931E-17
  0.00000000E+00 -1.19866402E-03 -2.15365497E-03  2.42155913E-03 -4.88584636E-18
  0.00000000E+00 -5.44050185E-03 -1.20843233E-02  4.12539635E-03 -9.01600086E-18
 -9.55696037E-07 -1.22669975E-01 -2.00298242E-01 -3.58494377E-02  5.73800019E-17
 -3.44921213E+00  3.84790255E-02 -5.61208725E-01  1.87368979E-02  1.07835080E+00
 -9.13131318E-16  3.70252196E-03  1.77790362E-02  2.67689773E-02  1.57967656E-02
  6.83130406E-17 -1.19866402E-03 -3.35418730E-03 -4.15730209E-03  5.29079896E-03
 -1.52892494E-17  2.60180654E-03  2.72863775E-02 -4.33104246E-03 -4.01083861E-02
  3.28053201E-17  6.59742786E-02 -3.66080968E-01 -8.94372040E-01  9.39754005E-03
  8.19885581E-17 -8.56654571E-01 -3.44921213E+00  1.90983372E-02 -4.63055716E-01
 -2.06517484E-01  8.36175176E-01 -9.34276435E-16 -1.47690152E-03 -3.61490017E-04
 -1.02296600E-03  1.27603577E-02 -9.18828390E-18  2.15365497E-03  4.15730209E-03
  3.42081066E-03  1.68248650E-03  2.15588796E-17 -5.74144221E-03 -7.56845794E-02
 -4.04063382E-02  9.72262439E-02 -8.68065955E-17 -1.07321257E-01 -1.21790075E-01
  3.18890991E-01  5.41467189E-02  3.05640587E-17 -1.41800422E-01 -1.65518594E+00
 -3.44921213E+00  6.11393392E-02 -7.05818076E-02  5.85809548E-02  4.40120768E-01
 -3.11469206E-16  8.44326171E-03  6.35715886E-02  7.32651865E-02 -2.80999407E-02
  2.08058237E-16 -2.42155913E-03 -5.29079896E-03  1.68248650E-03  6.79251521E-03
 -2.60017086E-17  1.65975980E-03 -6.80104562E-04  4.41721190E-03 -4.28832675E-03
  2.65179818E-18 -2.22141985E-02  2.76288457E-01  5.61208600E-01 -1.66630236E-01
 -8.30424540E-17  1.25592084E-01  1.46599177E+00  5.08390209E-01 -3.44921213E+00
 -1.05023575E-16  1.22274891E-15 -1.87498350E-16 -2.54710859E-15 -3.20401052E-01
 -1.65156039E-17 -1.88224655E-17 -6.89783875E-17 -8.50351877E-17  5.87059624E-03
  4.88584636E-18  1.52892494E-17  2.15588796E-17 -2.60017086E-17 -2.95012330E-03
 -4.30616090E-18 -1.68449300E-17  1.85199402E-17  3.78304545E-17  9.01212415E-03
  2.97040642E-17 -1.38367560E-16 -3.34789279E-16 -8.45918748E-18 -2.09021860E-01
  0.00000000E+00  0.00000000E+00  0.00000000E+00  0.00000000E+00 -3.44921213E+00
  8.96281275E-03  4.61961432E-01 -1.37193250E-02  7.13016631E-01 -1.12039023E-15
  1.40263737E-01  2.04469506E+00  1.76446469E+00  2.21644481E+00 -3.51796070E-15
 -1.78059978E-02 -4.38825245E-02  1.62933921E-01 -6.40490393E-02  5.61129082E-17
  7.82616024E-05 -7.51148246E-03 -1.54047850E-04 -1.29526532E-02  1.61318519E-17
  2.05620503E-05  2.86253992E-04  7.03182147E-04  8.16901608E-04 -1.25747957E-18
 -2.78581530E-04  8.52876168E-03  2.38473752E-03  2.06126256E-02 -2.55186566E-17
  6.67671062E+00  1.38283186E-04  3.67177808E-04  7.79694695E-03  1.39919552E-03
 -2.50455213E-19  9.31481607E-03 -3.07270679E-01  5.81231715E-01 -1.48057955E-01
  2.33775650E-16 -2.31825391E-01 -3.37858027E+00  3.02578302E+00 -3.19406774E+00
  4.89306979E-15  5.27568380E-03 -3.83713244E-01  1.37804446E-01 -6.78360172E-01
  9.57202169E-16  1.92204591E-04 -2.05407986E-03  9.01304161E-04 -1.12943073E-02
  6.33877371E-18 -3.39347545E-05 -4.72033050E-04  1.13693534E-03 -1.19090377E-03
  1.74593381E-18 -1.55747665E-01 -1.10309448E+01  7.82616024E-05 -7.51148246E-03
  1.54047850E-04  1.29526532E-02 -1.61318519E-17  2.05620503E-05  2.86253992E-04
 -7.03182147E-04 -8.16901608E-04  1.25747957E-18 -2.78581530E-04  8.52876168E-03
 -2.38473752E-03 -2.06126256E-02  2.55186566E-17  8.96281275E-03  4.61961432E-01
  1.37193250E-02 -7.13016631E-01  1.12039023E-15  1.40263737E-01  2.04469506E+00
 -1.76446469E+00 -2.21644481E+00  3.51796070E-15 -1.78059978E-02 -4.38825245E-02
 -1.62933921E-01  6.40490393E-02 -5.61129082E-17  5.88316794E-06  7.72673795E-04
  6.67671062E+00  5.27568380E-03 -3.83713244E-01 -1.37804446E-01  6.78360172E-01
 -9.57202169E-16  1.92204591E-04 -2.05407986E-03 -9.01304161E-04  1.12943073E-02
 -6.33877371E-18 -3.39347545E-05 -4.72033050E-04 -1.13693534E-03  1.19090377E-03
 -1.74593381E-18  1.38283186E-04  3.67177808E-04 -7.79694695E-03 -1.39919552E-03
  2.50455213E-19  9.31481607E-03 -3.07270679E-01 -5.81231715E-01  1.48057955E-01
 -2.33775650E-16 -2.31825391E-01 -3.37858027E+00 -3.02578302E+00  3.19406774E+00
 -4.89306979E-15  7.72673795E-04 -9.70221895E-06 -1.55747665E-01 -1.10309448E+01
  0.00000000E+00  5.52458166E-07 -2.23040948E-06 -4.85245810E-07  6.54075509E-22
  0.00000000E+00  1.12489005E-05 -3.56009475E-05 -2.11161757E-05  3.62214113E-20
  0.00000000E+00  5.82323855E-03 -1.08885550E-02 -9.38408729E-03  1.65702130E-17
  2.07818218E-07  1.52128643E-01 -2.49102982E-01 -5.91073579E-02  7.27923207E-17
  0.00000000E+00  7.00507869E-03 -1.63042216E-02  4.58192088E-03 -1.13022213E-17
  0.00000000E+00  1.37167226E-05 -4.96379203E-05  5.27157926E-06 -1.68371466E-20
  9.57672893E-07  5.14839319E-03  6.60964275E-03  1.25574300E-06  6.02617227E+00
  1.04160504E-07  1.26590299E-04 -3.25991999E-04 -3.00028571E-04  8.12474102E-20
  2.90188182E-06 -2.34864536E-03  4.62844189E-03  2.06876237E-04 -4.03208632E-18
 -4.01535736E-03 -6.63399026E-02  1.00769685E-01 -3.42447320E-02 -1.27583941E-16
  4.02367109E-02  9.87400033E-01 -1.19809635E+00 -1.02702281E+00  3.03575637E-16
  2.91749771E-03  2.59882936E-01 -4.24031173E-01  2.23195137E-02 -2.55813089E-16
 -6.33133972E-06  4.31184583E-03 -9.76093336E-03 -6.31547135E-04 -2.83366759E-18
 -4.91971600E-04 -1.24687550E-01  2.85445819E-01  5.93051192E-04  1.49667455E+00
  6.02617227E+00  4.22679761E-07  2.36822404E-04 -6.03685884E-04 -5.27900747E-04
  1.58871087E-19  9.49354084E-06 -3.23674884E-03  5.88266226E-03  1.36383218E-04
 -5.54942213E-18 -7.34191589E-03 -5.08078505E-02  6.89125274E-02 -4.12430040E-02
 -1.10756661E-16  6.66365227E-02  9.75626977E-01 -9.66110311E-01 -1.04358609E+00
  3.92275137E-16  6.59785925E-03  3.26774633E-01 -4.87798815E-01  4.50561312E-02
 -3.55307492E-16 -2.31424072E-05  7.19794812E-03 -1.56642432E-02 -9.33841990E-04
 -4.85014111E-18 -6.40545957E-04 -6.02438653E-02  2.58868208E-01  9.62420945E-04
 -7.96773295E-02 -9.30045156E-01  6.02617227E+00  9.91567512E-08 -1.98069023E-04
  5.06621299E-04  2.31894816E-05 -1.24887541E-19  5.35101763E-06 -4.40332974E-03
  8.74829896E-03  1.55772811E-03 -7.68101941E-18 -6.35658055E-03 -1.64038968E-01
  2.34674410E-01  4.42112055E-02 -3.06677389E-16  9.19880927E-03 -6.75826156E-01
  7.56491510E-01  5.04359002E-01 -1.98450660E-16 -2.11058515E-03 -2.16328705E-01
  3.65467673E-01  4.43197785E-02  2.25416946E-16  2.93723765E-06 -2.81178758E-03
  6.47302725E-03  1.13454433E-03  1.90201073E-18 -8.97703624E-04 -2.52752176E-01
 -3.52402743E-01 -5.34322543E-04 -3.90505053E-01 -4.55822672E+00  5.08390209E-01
  6.02617227E+00 -1.23501976E-22 -8.50825104E-20  2.23670814E-19  1.92587177E-19
  4.29270859E-05 -9.37306018E-21  3.92566347E-18 -7.81449089E-18 -1.92471300E-19
 -7.37985793E-04  1.14084375E-17  9.13069339E-17 -1.56929599E-16  7.69113874E-17
 -2.39763304E-02 -1.98866095E-17 -3.41939484E-16  5.05046804E-16  3.54323020E-16
  5.48540577E-01  4.70129671E-18  2.64372846E-16 -4.64712909E-16  3.53730493E-17
  1.04004107E-01 -7.78577148E-21  2.93129554E-18 -6.76462736E-18 -3.87935929E-19
  1.42315860E-03  1.14210818E-18  2.90845391E-16  5.54257287E-16  7.85419739E-19
  0.00000000E+00  0.00000000E+00  0.00000000E+00  0.00000000E+00  6.02617227E+00
  0.00000000E+00 -1.19988875E-09  5.87927770E-09 -2.03881397E-10  8.03042706E-25
  0.00000000E+00 -4.94407304E-07  1.99149573E-06  4.12064772E-07 -6.70795192E-22
  0.00000000E+00 -1.06410731E-03  2.91671551E-03  6.09393755E-04 -1.04177347E-18
  0.00000000E+00 -5.55007442E-03  1.29155025E-02 -3.87799033E-03  7.99021737E-18
  0.00000000E+00 -1.27794177E-05  4.09473709E-05 -2.18833424E-05  4.43829906E-20
  0.00000000E+00 -5.97250661E-09  2.68166586E-08 -8.62628682E-09  1.83966151E-23
 -2.12757830E-07 -8.19669471E-03 -1.89361695E-05 -4.95951644E-10  4.06116874E-06
 -1.87648029E-01  2.06636376E-01 -2.32864674E-01  4.33168886E-16 -4.93036655E+00
  2.94389079E-10 -1.70816200E-05  4.85366415E-05 -1.73945712E-05  6.03784714E-21
  9.86362716E-08 -1.38025558E-03  3.21780429E-03  1.54163317E-04 -9.97585187E-19
 -7.88093151E-04 -1.03604722E-01  1.81097220E-01 -8.49537888E-03 -5.94161390E-17
  1.65913899E-03 -2.23417469E-02  2.64442547E-02 -1.57159446E-01  1.59458173E-17
  9.34354268E-06  6.76088425E-03 -1.28814922E-02  1.40534555E-03 -1.28192411E-17
 -3.83029173E-09  5.52547796E-05 -1.42674271E-04 -1.23123189E-05 -8.96442576E-20
 -4.57476634E-04 -4.05599058E-01  8.06660860E-03  6.44324098E-06  2.50399374E-01
  5.13574689E-01 -6.14238279E-01 -1.31963690E+00 -1.07075302E-15 -1.22451762E+00
 -4.93036655E+00  1.44956906E-09 -3.98796533E-05  1.09367685E-04 -4.04613498E-05
  1.41403480E-20  4.12544988E-07 -2.71293749E-03  5.99733741E-03  3.20819398E-04
 -1.98245792E-18 -2.13084347E-03 -1.52822884E-01  2.48528522E-01 -7.96177004E-03
 -9.39203603E-17  3.81353091E-03 -4.26249902E-02  4.90690953E-02 -2.12831852E-01
  3.66133384E-17  2.92695129E-05  1.05395625E-02 -1.85131544E-02  2.23501942E-03
 -2.04356557E-17 -1.73548819E-08  1.18160045E-04 -2.90736317E-04 -2.68500833E-05
 -1.91739943E-19 -8.27465805E-04 -4.14917439E-01  9.60138072E-03  1.35571874E-05
  2.79076899E-01  1.91239934E-01 -9.77675423E-02 -8.17760683E-01 -6.79296930E-16
  4.93249468E-02  5.75752577E-01 -4.93036655E+00  9.45904680E-12 -1.60866864E-05
  4.58016208E-05 -5.36240032E-06  5.70247919E-21  9.24452582E-08 -1.19910130E-03
  2.81794244E-03 -1.05221916E-04 -8.75298451E-19 -5.33373641E-04 -9.11559470E-02
  1.63238034E-01 -2.06251465E-02 -5.41060478E-17 -1.21189140E-03 -1.51750230E-01
  2.37851192E-01 -1.19336491E-02  1.36523794E-16 -1.51691297E-05 -1.04801915E-02
  2.01952373E-02 -3.15116671E-03  2.01677958E-17  5.23754238E-09 -9.04839851E-05
  2.34266399E-04 -1.04321628E-05  1.47354615E-19 -5.37340919E-04 -4.85683110E-01
 -1.35731170E-02 -1.00776351E-05 -3.07524916E-01 -2.14220139E+00  1.95689071E+00
 -1.16392237E-01  3.62686115E-15 -5.16098347E-01 -6.02423261E+00  5.08390209E-01
 -4.93036655E+00  1.97172339E-25 -6.06183341E-21  1.72676162E-20 -6.15334680E-21
 -5.38559155E-06 -1.34754948E-22  1.00355694E-18 -2.36247254E-18 -1.18307685E-19
 -4.41922572E-04  7.71210879E-19  5.98868061E-17 -1.10984172E-16  3.18453880E-18
 -3.82951061E-02  2.38704882E-18 -2.91815179E-17  4.12066547E-17 -1.44439083E-16
 -1.07354157E-02  3.23147349E-20  1.25373909E-17 -2.44006487E-17  2.64216673E-18
  2.21098276E-03 -1.18062083E-23  8.95343890E-20 -2.31442395E-19 -2.03012538E-20
  1.73352974E-05  6.86719139E-19  5.89909309E-16  2.01937127E-17  1.37033563E-20
  5.96281032E-16  4.43243101E-16 -8.69110185E-16 -2.04272148E-15  2.96328686E-01
  0.00000000E+00  0.00000000E+00  0.00000000E+00  0.00000000E+00 -4.93036655E+00
  6.58597346E-08  9.82319459E-05 -2.53097394E-04 -1.43402013E-04  1.41976493E-19
  3.83347350E-07 -2.27287354E-05  4.77211724E-05 -2.40267862E-04 -4.86104532E-20
 -2.35636498E-04  5.33967340E-03 -5.87503652E-03 -2.00260187E-02  1.26678384E-17
  7.43549126E-03  6.30819406E-01 -7.46978374E-01 -7.48160746E-01  9.33147706E-16
  2.94007865E-03  2.89031833E-01 -4.78993223E-01 -1.19159030E-01  5.71678032E-17
 -1.38824519E-05  3.94372483E-03 -8.83771140E-03 -2.10372556E-03  1.34806218E-18
 -2.15554916E-05 -1.94804574E-03  7.68003175E-01  9.54255693E-04  4.13035641E-01
  6.00262403E+00 -1.95290533E+00 -7.48440728E+00  1.06530529E-14 -2.27490179E-02
  7.41021936E-01  2.34073315E-01 -1.36417421E+00  1.74054452E-15  1.84809872E+01
  1.28821393E-11 -5.03698138E-07  1.49020739E-06 -7.86009143E-07  8.48474833E-23
  2.85333888E-09 -6.35959606E-05  1.58656808E-04  4.47416533E-06 -4.80610971E-20
 -2.20643502E-05 -7.12525048E-03  1.37900008E-02 -1.05250171E-03 -4.34469037E-18
  7.87293158E-05  4.50862914E-03 -8.21138873E-03 -1.68890383E-02 -2.56257501E-18
  6.83980652E-07  1.02515191E-03 -2.16133380E-03  1.26023937E-04 -1.50277118E-18
 -2.86049261E-10  5.54953264E-06 -1.51435996E-05 -8.88822243E-07 -7.01387011E-21
 -2.55113207E-05 -4.77704547E-02  2.21624480E-03  7.52334810E-07  3.41138339E-02
  3.19261303E-01 -4.23867265E-01 -3.67084051E-01 -3.12962218E-16 -2.94711071E-01
 -1.86674246E+00  1.94125891E+00 -2.44344110E+00 -5.16664429E-16  5.03346970E-01
 -2.50744641E+00  3.91895276E-08 -1.02644373E-04  2.66842907E-04 -9.75563958E-05
  1.22802369E-19  1.04687129E-05 -8.53850289E-03  1.77865042E-02 -2.62593883E-03
  2.42860082E-18 -5.10818774E-03 -3.38255805E-01  5.38629635E-01 -1.68579792E-01
  1.88796692E-16  1.01963898E-03 -1.21877682E-01  1.57244942E-01 -1.97364861E-01
  2.32264916E-16  8.45293820E-06  6.96716956E-04 -1.19383510E-03 -1.10423047E-03
 -1.82501253E-18 -5.09303084E-08 -4.00314786E-06  9.11068914E-06 -5.46953703E-05
  1.00338675E-20 -5.08138308E-03 -1.97533936E+00  9.27649339E-04  1.51341735E-06
  3.08335994E-02 -4.46949876E-01  2.06647092E-01 -9.68136900E-01  1.06139623E-15
 -3.55742175E-01 -5.87044507E+00 -7.20603513E-01 -7.82891353E+00  1.03932376E-14
  1.73511999E-02 -1.76478073E+00 -1.81829019E+01  2.07818218E-07  1.52128643E-01
  2.49102982E-01  5.91073579E-02 -7.27923207E-17  0.00000000E+00  7.00507869E-03
  1.63042216E-02 -4.58192088E-03  1.13022213E-17  0.00000000E+00  1.37167226E-05
  4.96379203E-05 -5.27157926E-06  1.68371466E-20  0.00000000E+00  5.52458166E-07
  2.23040948E-06  4.85245810E-07 -6.54075509E-22  0.00000000E+00  1.12489005E-05
  3.56009475E-05  2.11161757E-05 -3.62214113E-20  0.00000000E+00  5.82323855E-03
  1.08885550E-02  9.38408729E-03 -1.65702130E-17  6.60964275E-03  1.25574300E-06
  9.57672893E-07  5.14839319E-03  0.00000000E+00  0.00000000E+00  0.00000000E+00
  0.00000000E+00  0.00000000E+00  0.00000000E+00  0.00000000E+00  0.00000000E+00
  0.00000000E+00  0.00000000E+00  1.70902444E-11  0.00000000E+00  1.17189971E-11
  6.02617227E+00  4.02367109E-02  9.87400033E-01  1.19809635E+00  1.02702281E+00
 -3.03575637E-16  2.91749771E-03  2.59882936E-01  4.24031173E-01 -2.23195137E-02
  2.55813089E-16 -6.33133972E-06  4.31184583E-03  9.76093336E-03  6.31547135E-04
  2.83366759E-18  1.04160504E-07  1.26590299E-04  3.25991999E-04  3.00028571E-04
 -8.12474102E-20  2.90188182E-06 -2.34864536E-03 -4.62844189E-03 -2.06876237E-04
  4.03208632E-18 -4.01535736E-03 -6.63399026E-02 -1.00769685E-01  3.42447320E-02
  1.27583941E-16  2.85445819E-01  5.93051192E-04 -4.91971600E-04 -1.24687550E-01
  0.00000000E+00  7.57497421E-10  4.03066188E-09  1.17194176E-10 -1.22979443E-24
  0.00000000E+00 -7.80340602E-09 -2.06865118E-08 -6.03131806E-09 -1.02390742E-24
 -9.33721274E-08 -2.16579776E-10  5.88851405E-08  1.49667455E+00  6.02617227E+00
 -6.66365227E-02 -9.75626977E-01 -9.66110311E-01 -1.04358609E+00  3.92275137E-16
 -6.59785925E-03 -3.26774633E-01 -4.87798815E-01  4.50561312E-02 -3.55307492E-16
  2.31424072E-05 -7.19794812E-03 -1.56642432E-02 -9.33841990E-04 -4.85014111E-18
 -4.22679761E-07 -2.36822404E-04 -6.03685884E-04 -5.27900747E-04  1.58871087E-19
 -9.49354084E-06  3.23674884E-03  5.88266226E-03  1.36383218E-04 -5.54942213E-18
  7.34191589E-03  5.08078505E-02  6.89125274E-02 -4.12430040E-02 -1.10756661E-16
 -2.58868208E-01 -9.62420945E-04  6.40545957E-04  6.02438653E-02  0.00000000E+00
 -4.03066188E-09 -2.03375324E-08  1.96952931E-07  6.30895706E-24  0.00000000E+00
  3.12892250E-08  8.41022060E-08  2.41837048E-08  4.10554949E-24  1.23571955E-07
  8.87333268E-10  4.07852301E-08  7.96773295E-02  9.30045156E-01  6.02617227E+00
 -9.19880927E-03  6.75826156E-01  7.56491510E-01  5.04359002E-01 -1.98450660E-16
  2.11058515E-03  2.16328705E-01  3.65467673E-01  4.43197785E-02  2.25416946E-16
 -2.93723765E-06  2.81178758E-03  6.47302725E-03  1.13454433E-03  1.90201073E-18
 -9.91567512E-08  1.98069023E-04  5.06621299E-04  2.31894816E-05 -1.24887541E-19
 -5.35101763E-06  4.40332974E-03  8.74829896E-03  1.55772811E-03 -7.68101941E-18
  6.35658055E-03  1.64038968E-01  2.34674410E-01  4.42112055E-02 -3.06677389E-16
  3.52402743E-01  5.34322543E-04  8.97703624E-04  2.52752176E-01  0.00000000E+00
 -1.17194176E-10  1.96952931E-07  7.49523278E-10  5.20198246E-25  0.00000000E+00
 -4.29121047E-09 -1.13758243E-08 -2.34880114E-09 -5.63062107E-25  1.78941664E-07
 -1.54189826E-10  4.44373620E-08  3.90505053E-01  4.55822672E+00  5.08390209E-01
  6.02617227E+00  1.98866095E-17  3.41939484E-16  5.05046804E-16  3.54323020E-16
  5.48540577E-01 -4.70129671E-18 -2.64372846E-16 -4.64712909E-16  3.53730493E-17
  1.04004107E-01  7.78577148E-21 -2.93129554E-18 -6.76462736E-18 -3.87935929E-19
  1.42315860E-03  1.23501976E-22  8.50825104E-20  2.23670814E-19  1.92587177E-19
  4.29270859E-05  9.37306018E-21 -3.92566347E-18 -7.81449089E-18 -1.92471300E-19
 -7.37985793E-04 -1.14084375E-17 -9.13069339E-17 -1.56929599E-16  7.69113874E-17
 -2.39763304E-02 -5.54257287E-16 -7.85419739E-19 -1.14210818E-18 -2.90845391E-16
  0.00000000E+00  1.22979443E-24  6.30895706E-24  5.20198246E-25  5.55177176E-10
  0.00000000E+00  1.02390742E-24  2.71433690E-24  7.91386644E-25 -2.44580924E-09
 -1.50606741E-22 -4.93553144E-27 -6.00421980E-23  0.00000000E+00  0.00000000E+00
  0.00000000E+00  0.00000000E+00  6.02617227E+00  0.00000000E+00 -5.55007442E-03
 -1.29155025E-02  3.87799033E-03 -7.99021737E-18  0.00000000E+00 -1.27794177E-05
 -4.09473709E-05  2.18833424E-05 -4.43829906E-20  0.00000000E+00 -5.97250661E-09
 -2.68166586E-08  8.62628682E-09 -1.83966151E-23  0.00000000E+00 -1.19988875E-09
 -5.87927770E-09  2.03881397E-10 -8.03042706E-25  0.00000000E+00 -4.94407304E-07
 -1.99149573E-06 -4.12064772E-07  6.70795192E-22  0.00000000E+00 -1.06410731E-03
 -2.91671551E-03 -6.09393755E-04  1.04177347E-18 -1.89361695E-05 -4.95951644E-10
 -2.12757830E-07 -8.19669471E-03  0.00000000E+00  0.00000000E+00  0.00000000E+00
  0.00000000E+00  0.00000000E+00  0.00000000E+00  0.00000000E+00  0.00000000E+00
  0.00000000E+00  0.00000000E+00  0.00000000E+00  0.00000000E+00  0.00000000E+00
  4.06116874E-06 -1.87648029E-01 -2.06636376E-01  2.32864674E-01 -4.33168886E-16
 -4.93036655E+00  1.65913899E-03 -2.23417469E-02 -2.64442547E-02  1.57159446E-01
 -1.59458173E-17  9.34354268E-06  6.76088425E-03  1.28814922E-02 -1.40534555E-03
  1.28192411E-17 -3.83029173E-09  5.52547796E-05  1.42674271E-04  1.23123189E-05
  8.96442576E-20  2.94389079E-10 -1.70816200E-05 -4.85366415E-05  1.73945712E-05
 -6.03784714E-21  9.86362716E-08 -1.38025558E-03 -3.21780429E-03 -1.54163317E-04
  9.97585187E-19 -7.88093151E-04 -1.03604722E-01 -1.81097220E-01  8.49537888E-03
  5.94161390E-17  8.06660860E-03  6.44324098E-06 -4.57476634E-04 -4.05599058E-01
  0.00000000E+00 -7.80340602E-09 -3.12892250E-08  4.29121047E-09 -1.02390742E-24
  0.00000000E+00  0.00000000E+00  0.00000000E+00  0.00000000E+00  0.00000000E+00
 -3.37866122E-08  0.00000000E+00  8.38789019E-10  2.50399374E-01  5.13574689E-01
  6.14238279E-01  1.31963690E+00  1.07075302E-15 -1.22451762E+00 -4.93036655E+00
 -3.81353091E-03  4.26249902E-02  4.90690953E-02 -2.12831852E-01  3.66133384E-17
 -2.92695129E-05 -1.05395625E-02 -1.85131544E-02  2.23501942E-03 -2.04356557E-17
  1.73548819E-08 -1.18160045E-04 -2.90736317E-04 -2.68500833E-05 -1.91739943E-19
 -1.44956906E-09  3.98796533E-05  1.09367685E-04 -4.04613498E-05  1.41403480E-20
 -4.12544988E-07  2.71293749E-03  5.99733741E-03  3.20819398E-04 -1.98245792E-18
  2.13084347E-03  1.52822884E-01  2.48528522E-01 -7.96177004E-03 -9.39203603E-17
 -9.60138072E-03 -1.35571874E-05  8.27465805E-04  4.14917439E-01  0.00000000E+00
  2.06865118E-08  8.41022060E-08 -1.13758243E-08  2.71433690E-24  0.00000000E+00
  0.00000000E+00  0.00000000E+00  0.00000000E+00  0.00000000E+00  8.59828354E-08
  0.00000000E+00 -2.17808785E-09 -2.79076899E-01 -1.91239934E-01 -9.77675423E-02
 -8.17760683E-01 -6.79296930E-16 -4.93249468E-02 -5.75752577E-01 -4.93036655E+00
  1.21189140E-03  1.51750230E-01  2.37851192E-01 -1.19336491E-02  1.36523794E-16
  1.51691297E-05  1.04801915E-02  2.01952373E-02 -3.15116671E-03  2.01677958E-17
 -5.23754238E-09  9.04839851E-05  2.34266399E-04 -1.04321628E-05  1.47354615E-19
 -9.45904680E-12  1.60866864E-05  4.58016208E-05 -5.36240032E-06  5.70247919E-21
 -9.24452582E-08  1.19910130E-03  2.81794244E-03 -1.05221916E-04 -8.75298451E-19
  5.33373641E-04  9.11559470E-02  1.63238034E-01 -2.06251465E-02 -5.41060478E-17
  1.35731170E-02  1.00776351E-05  5.37340919E-04  4.85683110E-01  0.00000000E+00
  6.03131806E-09  2.41837048E-08 -2.34880114E-09  7.91386644E-25  0.00000000E+00
  0.00000000E+00  0.00000000E+00  0.00000000E+00  0.00000000E+00  3.19510493E-08
  0.00000000E+00  1.37550712E-09  3.07524916E-01  2.14220139E+00  1.95689071E+00
 -1.16392237E-01  3.62686115E-15  5.16098347E-01  6.02423261E+00  5.08390209E-01
 -4.93036655E+00 -2.38704882E-18  2.91815179E-17  4.12066547E-17 -1.44439083E-16
 -1.07354157E-02 -3.23147349E-20 -1.25373909E-17 -2.44006487E-17  2.64216673E-18
  2.21098276E-03  1.18062083E-23 -8.95343890E-20 -2.31442395E-19 -2.03012538E-20
  1.73352974E-05 -1.97172339E-25  6.06183341E-21  1.72676162E-20 -6.15334680E-21
 -5.38559155E-06  1.34754948E-22 -1.00355694E-18 -2.36247254E-18 -1.18307685E-19
 -4.41922572E-04 -7.71210879E-19 -5.98868061E-17 -1.10984172E-16  3.18453880E-18
 -3.82951061E-02 -2.01937127E-17 -1.37033563E-20 -6.86719139E-19 -5.89909309E-16
  0.00000000E+00  1.02390742E-24  4.10554949E-24 -5.63062107E-25 -2.44580924E-09
  0.00000000E+00  0.00000000E+00  0.00000000E+00  0.00000000E+00  0.00000000E+00
 -2.62628087E-23  0.00000000E+00 -1.54765147E-24 -5.96281032E-16 -4.43243101E-16
 -8.69110185E-16 -2.04272148E-15  2.96328686E-01  0.00000000E+00  0.00000000E+00
  0.00000000E+00  0.00000000E+00 -4.93036655E+00  7.43549126E-03  6.30819406E-01
  7.46978374E-01  7.48160746E-01 -9.33147706E-16  2.94007865E-03  2.89031833E-01
  4.78993223E-01  1.19159030E-01 -5.71678032E-17 -1.38824519E-05  3.94372483E-03
  8.83771140E-03  2.10372556E-03 -1.34806218E-18  6.58597346E-08  9.82319459E-05
  2.53097394E-04  1.43402013E-04 -1.41976493E-19  3.83347350E-07 -2.27287354E-05
 -4.77211724E-05  2.40267862E-04  4.86104532E-20 -2.35636498E-04  5.33967340E-03
  5.87503652E-03  2.00260187E-02 -1.26678384E-17  7.68003175E-01  9.54255693E-04
 -2.15554916E-05 -1.94804574E-03  1.70902444E-11 -9.33721274E-08 -1.23571955E-07
 -1.78941664E-07  1.50606741E-22  0.00000000E+00 -3.37866122E-08 -8.59828354E-08
 -3.19510493E-08  2.62628087E-23  1.05846442E-10 -1.16058384E-09 -3.35634128E-07
  4.13035641E-01  6.00262403E+00  1.95290533E+00  7.48440728E+00 -1.06530529E-14
 -2.27490179E-02  7.41021936E-01 -2.34073315E-01  1.36417421E+00 -1.74054452E-15
  1.84809872E+01  7.87293158E-05  4.50862914E-03  8.21138873E-03  1.68890383E-02
  2.56257501E-18  6.83980652E-07  1.02515191E-03  2.16133380E-03 -1.26023937E-04
  1.50277118E-18 -2.86049261E-10  5.54953264E-06  1.51435996E-05  8.88822243E-07
  7.01387011E-21  1.28821393E-11 -5.03698138E-07 -1.49020739E-06  7.86009143E-07
 -8.48474833E-23  2.85333888E-09 -6.35959606E-05 -1.58656808E-04 -4.47416533E-06
  4.80610971E-20 -2.20643502E-05 -7.12525048E-03 -1.37900008E-02  1.05250171E-03
  4.34469037E-18  2.21624480E-03  7.52334810E-07 -2.55113207E-05 -4.77704547E-02
  0.00000000E+00 -2.16579776E-10 -8.87333268E-10  1.54189826E-10  4.93553144E-27
  0.00000000E+00  0.00000000E+00  0.00000000E+00  0.00000000E+00  0.00000000E+00
 -1.16058384E-09  0.00000000E+00  7.05851328E-11  3.41138339E-02  3.19261303E-01
  4.23867265E-01  3.67084051E-01  3.12962218E-16 -2.94711071E-01 -1.86674246E+00
 -1.94125891E+00  2.44344110E+00  5.16664429E-16  5.03346970E-01 -2.50744641E+00
  1.01963898E-03 -1.21877682E-01 -1.57244942E-01  1.97364861E-01 -2.32264916E-16
  8.45293820E-06  6.96716956E-04  1.19383510E-03  1.10423047E-03  1.82501253E-18
 -5.09303084E-08 -4.00314786E-06 -9.11068914E-06  5.46953703E-05 -1.00338675E-20
  3.91895276E-08 -1.02644373E-04 -2.66842907E-04  9.75563958E-05 -1.22802369E-19
  1.04687129E-05 -8.53850289E-03 -1.77865042E-02  2.62593883E-03 -2.42860082E-18
 -5.10818774E-03 -3.38255805E-01 -5.38629635E-01  1.68579792E-01 -1.88796692E-16
  9.27649339E-04  1.51341735E-06 -5.08138308E-03 -1.97533936E+00  1.17189971E-11
  5.88851405E-08 -4.07852301E-08 -4.44373620E-08  6.00421980E-23  0.00000000E+00
  8.38789019E-10  2.17808785E-09 -1.37550712E-09  1.54765147E-24 -3.35634128E-07
  7.05851328E-11  0.00000000E+00  3.08335994E-02 -4.46949876E-01 -2.06647092E-01
  9.68136900E-01 -1.06139623E-15 -3.55742175E-01 -5.87044507E+00  7.20603513E-01
  7.82891353E+00 -1.03932376E-14  1.73511999E-02 -1.76478073E+00 -1.81829019E+01
Multipole Matrix (0,2,0)                   R   N=        1830
  3.08581032E-01  9.52778092E-02  1.11886633E+00  0.00000000E+00  0.00000000E+00
  7.85906151E-01  7.57066286E-02  8.83696574E-01  0.00000000E+00  1.80268657E+00
  0.00000000E+00  0.00000000E+00  0.00000000E+00  0.00000000E+00  7.85906151E-01
  2.19307637E-06  2.22320997E-01 -2.38630245E-01  2.81366558E-01 -5.51795972E-16
  6.28216534E+00  1.89755946E-02  1.20156876E+00 -7.49126095E-01  1.57526190E+00
 -1.73223961E-15  1.57889149E+00  7.09245064E+00  2.25875660E-02  8.89047019E-01
 -4.87944077E-02  1.32891531E+00 -1.66807281E-15  0.00000000E+00  0.00000000E+00
  6.75949046E+00 -2.19774908E-02 -9.97012012E-02  1.91613643E-01  1.75027550E-01
  4.43077265E-16  3.59309062E-01  4.19408700E+00  0.00000000E+00  7.77627088E+00
  5.22302943E-17  2.05578536E-15 -1.66807281E-15  3.07291356E-15  6.72582050E-01
  0.00000000E+00  0.00000000E+00  0.00000000E+00  0.00000000E+00  6.75949046E+00
  0.00000000E+00  6.89022342E-03 -1.50485891E-02  5.41050857E-03 -1.14087738E-17
  4.74861850E-06  1.55880591E-01 -2.55081468E-01 -4.16800736E-02  7.50130495E-17
  3.92541670E+00  8.42731644E-04  1.59063784E-01 -2.08425460E-01  1.64825967E-01
 -1.58013413E-16  2.36190642E-01  2.17452074E+00 -2.24654748E+00  7.72852420E-01
  6.60653160E-16  9.93563760E-01  4.73570200E+00  1.83483921E-03  2.24255969E-01
 -2.58217618E-01  2.37872155E-01 -2.44453956E-16  3.81150119E-01  2.16492951E+00
 -1.69260867E+00  6.67854180E-01  8.58939173E-16  0.00000000E+00  0.00000000E+00
  4.40274182E+00 -4.89979915E-04  3.20220335E-02 -3.99869363E-02  7.94218305E-02
 -3.03152613E-17  9.03788774E-02  1.62625499E+00 -1.81690990E+00  1.41521200E+00
  5.34307544E-16  2.83600843E-01  3.31037187E+00  0.00000000E+00  5.41952223E+00
  1.39104506E-18  1.70014983E-16 -2.44453956E-16  1.80337810E-16  6.42260741E-02
 -1.12086672E-16 -6.36651366E-16  8.58939173E-16 -1.96399132E-16  1.22820933E+00
  0.00000000E+00  0.00000000E+00  0.00000000E+00  0.00000000E+00  4.40274182E+00
  0.00000000E+00  1.40979227E-04 -3.65937270E-04 -9.66614649E-05  1.07583605E-19
  0.00000000E+00  4.74596979E-04 -8.17580327E-04 -7.97210646E-04  1.33047700E-18
  5.54750544E-07  1.01087993E-02 -4.86245768E-03 -1.62281090E-02  2.79613890E-17
  3.08581032E-01  1.40979227E-04  2.76771822E-02 -4.11401596E-02 -7.08073566E-03
  1.20949875E-17  1.04752221E-02  1.28356110E-01 -1.51988019E-01 -4.25074615E-02
  2.47335407E-16  1.33304344E-01  5.68652455E-01 -2.02052484E-01 -1.04112751E-01
  1.16189558E-15  9.52778092E-02  1.11886633E+00  3.65937270E-04  4.11401596E-02
 -5.45816044E-02 -1.08094950E-02  1.89375114E-17  1.80610581E-02  1.31334046E-01
 -1.18263165E-01 -5.15756361E-02  2.80486422E-16  6.73898217E-02  1.61565327E-01
  2.38271909E-01 -5.61263444E-02  4.20007697E-16  0.00000000E+00  0.00000000E+00
  7.85906151E-01  9.66614649E-05  7.08073566E-03 -1.08094950E-02  2.72939470E-02
  3.17793386E-18  1.64709011E-02  1.83881072E-01 -2.24782689E-01 -1.01112258E-02
  3.65796714E-16  2.10864980E-01  7.63845573E-01 -3.15854274E-01  1.52099480E-01
  1.81630871E-15 -7.57066286E-02 -8.83696574E-01  0.00000000E+00  1.80268657E+00
 -1.07583605E-19 -1.20949875E-17  1.89375114E-17  3.17793386E-18  9.83286847E-03
 -2.93913901E-17 -2.13724476E-16  2.80486422E-16  8.39308325E-17  5.40962077E-02
 -3.87522759E-16 -9.29075636E-16  4.20007697E-16  3.22752536E-16  3.11310829E-01
  0.00000000E+00  0.00000000E+00  0.00000000E+00  0.00000000E+00  7.85906151E-01
  0.00000000E+00  1.04752221E-02 -1.80610581E-02 -1.64709011E-02  2.93913901E-17
  0.00000000E+00  2.21997953E-03 -1.86772541E-03 -5.69984694E-03  1.07464303E-17
  0.00000000E+00  9.89753902E-03  4.56202429E-03 -2.28043149E-02  4.41825838E-17
  2.19307637E-06  2.22320997E-01  2.38630245E-01 -2.81366558E-01  5.51795972E-16
  6.28216534E+00  4.74596979E-04  1.28356110E-01 -1.31334046E-01 -1.83881072E-01
  2.13724476E-16  2.21997953E-03  3.35086191E-02 -1.87739952E-02 -5.00189684E-02
  1.08020927E-16  5.95641963E-03  8.09978313E-02  2.47773931E-02 -1.24538460E-01
  2.39965677E-16  1.89755946E-02  1.20156876E+00  7.49126095E-01 -1.57526190E+00
  1.73223961E-15  1.57889149E+00  7.09245064E+00  8.17580327E-04  1.51988019E-01
 -1.18263165E-01 -2.24782689E-01  2.80486422E-16  1.86772541E-03  1.87739952E-02
  3.37310802E-03 -3.11194422E-02  6.66330901E-17 -2.74610568E-03 -2.69528742E-02
  2.92758269E-02  4.53592444E-02 -8.87739456E-17 -2.25875660E-02 -8.89047019E-01
 -4.87944077E-02  1.32891531E+00 -1.66807281E-15  0.00000000E+00  0.00000000E+00
  6.75949046E+00  7.97210646E-04  4.25074615E-02 -5.15756361E-02 -1.01112258E-02
  8.39308325E-17  5.69984694E-03  5.00189684E-02 -3.11194422E-02 -4.83636493E-02
  1.79053578E-16  1.38020838E-02  9.26004802E-02  3.30121211E-02 -8.01898359E-02
  3.19717896E-16  2.19774908E-02  9.97012012E-02  1.91613643E-01  1.75027550E-01
  4.43077265E-16 -3.59309062E-01 -4.19408700E+00  0.00000000E+00  7.77627088E+00
 -1.33047700E-18 -2.47335407E-16  2.80486422E-16  3.65796714E-16  5.40962077E-02
 -1.07464303E-17 -1.08020927E-16  6.66330901E-17  1.79053578E-16  1.49539132E-02
 -2.65956594E-17 -2.61034915E-16 -8.87739456E-17  4.39298103E-16  3.84420834E-02
 -5.22302943E-17 -2.05578536E-15 -1.66807281E-15  3.07291356E-15  6.72582050E-01
  0.00000000E+00  0.00000000E+00  0.00000000E+00  0.00000000E+00  6.75949046E+00
  5.54750544E-07  1.33304344E-01 -6.73898217E-02 -2.10864980E-01  3.87522759E-16
  0.00000000E+00  5.95641963E-03  2.74610568E-03 -1.38020838E-02  2.65956594E-17
  0.00000000E+00  1.39784743E-03  2.46261530E-03 -2.86291342E-03  5.69583741E-18
  0.00000000E+00  6.89022342E-03  1.50485891E-02 -5.41050857E-03  1.14087738E-17
  4.74861850E-06  1.55880591E-01  2.55081468E-01  4.16800736E-02 -7.50130495E-17
  3.92541670E+00  1.01087993E-02  5.68652455E-01 -1.61565327E-01 -7.63845573E-01
  9.29075636E-16  9.89753902E-03  8.09978313E-02  2.69528742E-02 -9.26004802E-02
  2.61034915E-16  1.39784743E-03  3.11891870E-02  3.47656162E-02 -3.43461898E-02
  8.04101631E-17  8.42731644E-04  1.59063784E-01  2.08425460E-01 -1.64825967E-01
  1.58013413E-16  2.36190642E-01  2.17452074E+00  2.24654748E+00 -7.72852420E-01
 -6.60653160E-16  9.93563760E-01  4.73570200E+00  4.86245768E-03  2.02052484E-01
  2.38271909E-01 -3.15854274E-01  4.20007697E-16 -4.56202429E-03 -2.47773931E-02
  2.92758269E-02  3.30121211E-02 -8.87739456E-17 -2.46261530E-03 -3.47656162E-02
 -2.94336623E-02  4.19243712E-02 -9.79709376E-17 -1.83483921E-03 -2.24255969E-01
 -2.58217618E-01  2.37872155E-01 -2.44453956E-16 -3.81150119E-01 -2.16492951E+00
 -1.69260867E+00  6.67854180E-01  8.58939173E-16  0.00000000E+00  0.00000000E+00
  4.40274182E+00  1.62281090E-02  1.04112751E-01 -5.61263444E-02  1.52099480E-01
  3.22752536E-16  2.28043149E-02  1.24538460E-01  4.53592444E-02 -8.01898359E-02
  4.39298103E-16  2.86291342E-03  3.43461898E-02  4.19243712E-02 -8.56168849E-03
  9.69678058E-17  4.89979915E-04 -3.20220335E-02 -3.99869363E-02  7.94218305E-02
 -3.03152613E-17 -9.03788774E-02 -1.62625499E+00 -1.81690990E+00  1.41521200E+00
  5.34307544E-16 -2.83600843E-01 -3.31037187E+00  0.00000000E+00  5.41952223E+00
 -2.79613890E-17 -1.16189558E-15  4.20007697E-16  1.81630871E-15  3.11310829E-01
 -4.41825838E-17 -2.39965677E-16 -8.87739456E-17  3.19717896E-16  3.84420834E-02
 -5.69583741E-18 -8.04101631E-17 -9.79709376E-17  9.69678058E-17  1.29244165E-02
 -1.39104506E-18 -1.70014983E-16 -2.44453956E-16  1.80337810E-16  6.42260741E-02
  1.12086672E-16  6.36651366E-16  8.58939173E-16 -1.96399132E-16  1.22820933E+00
  0.00000000E+00  0.00000000E+00  0.00000000E+00  0.00000000E+00  4.40274182E+00
  2.92072724E-03  6.85752707E-01 -2.34609986E-01  1.13373993E+00 -1.68550360E-15
  4.26208573E-01  6.53450841E+00  1.92640669E+00  8.06845951E+00 -1.10702046E-14
  2.30518511E-02  1.06629306E+00  1.07698331E+00  1.23584893E+00 -1.51014438E-15
  2.14190671E-05  2.63716975E-02  2.73804273E-02  4.73340550E-02 -6.27831432E-17
  6.29145949E-05  3.13164229E-03  1.90275881E-03  6.66727749E-03 -1.09441292E-17
  2.89723358E-04  1.43053678E-02 -9.92366744E-04  3.09230635E-02 -4.92400347E-17
  2.06402965E+01  4.69831243E-05  2.96954937E-02 -4.25906654E-02  3.84319472E-02
 -4.82656712E-17  3.45942972E-02  9.54073676E-01 -1.17431865E+00  7.04406813E-01
 -7.19573600E-16  2.67780009E-01  4.22554625E+00 -2.58404284E+00  4.73519484E+00
 -5.97437183E-15  1.35106377E-03  3.25904585E-01 -5.61725916E-02  5.64934005E-01
 -8.26244834E-16  4.89960341E-04  9.79679849E-03 -6.44616066E-03  1.63488859E-02
 -3.38456209E-17  3.96265099E-05  2.80571270E-03 -3.46334409E-03  4.67384203E-03
 -8.00956667E-18  8.58305203E-01  1.31018413E+01  2.14190671E-05  2.63716975E-02
 -2.73804273E-02 -4.73340550E-02  6.27831432E-17  6.29145949E-05  3.13164229E-03
 -1.90275881E-03 -6.66727749E-03  1.09441292E-17  2.89723358E-04  1.43053678E-02
  9.92366744E-04 -3.09230635E-02  4.92400347E-17  2.92072724E-03  6.85752707E-01
  2.34609986E-01 -1.13373993E+00  1.68550360E-15  4.26208573E-01  6.53450841E+00
 -1.92640669E+00 -8.06845951E+00  1.10702046E-14  2.30518511E-02  1.06629306E+00
 -1.07698331E+00 -1.23584893E+00  1.51014438E-15  1.80484250E-04  1.52813873E-03
  2.06402965E+01  1.35106377E-03  3.25904585E-01  5.61725916E-02 -5.64934005E-01
  8.26244834E-16  4.89960341E-04  9.79679849E-03  6.44616066E-03 -1.63488859E-02
  3.38456209E-17  3.96265099E-05  2.80571270E-03  3.46334409E-03 -4.67384203E-03
  8.00956667E-18  4.69831243E-05  2.96954937E-02  4.25906654E-02 -3.84319472E-02
  4.82656712E-17  3.45942972E-02  9.54073676E-01  1.17431865E+00 -7.04406813E-01
  7.19573600E-16  2.67780009E-01  4.22554625E+00  2.58404284E+00 -4.73519484E+00
  5.97437183E-15  1.52813873E-03  1.73633376E-04  8.58305203E-01  1.31018413E+01
  0.00000000E+00  1.24709092E-07 -5.01652009E-07 -1.15209515E-07  1.47536804E-22
  0.00000000E+00  2.31077724E-06 -7.28698603E-06 -4.44205801E-06  7.43979969E-21
  0.00000000E+00  1.19133613E-03 -2.21514860E-03 -1.97057890E-03  3.38947874E-18
  4.68848429E-08  3.37342225E-02 -5.48311350E-02 -1.47099534E-02  1.61365908E-17
  0.00000000E+00  1.69549621E-03 -3.92320327E-03  1.03702073E-03 -2.73213427E-18
  0.00000000E+00  3.36511149E-06 -1.21232427E-05  1.14454964E-06 -4.12527359E-21
  1.90350723E-07  1.02011455E-03  1.64253521E-03  3.17551982E-07  1.26062489E+00
  3.32293791E-08  3.52275651E-04 -7.53613639E-04 -2.53217148E-04  2.21639196E-19
  1.29504225E-05  2.47565456E-03 -4.36511056E-03 -1.15457918E-03  4.45665026E-18
  3.95827504E-03  6.10699577E-02 -7.48815290E-02 -2.78261231E-02  1.14578928E-16
  1.09015318E-02  4.77758629E-01 -4.69759766E-01 -4.29012922E-01  1.38248480E-16
  6.90578908E-03  1.99936436E-01 -2.94073056E-01 -2.44450837E-02 -2.04793639E-16
  9.00329039E-06  5.30930573E-03 -1.04685215E-02 -1.60674937E-03 -3.56220826E-18
  4.67461902E-04  7.44474382E-02  2.49056728E-01  9.28993950E-04  3.31729697E-01
  2.07091019E+00  1.33517876E-07  7.56274592E-04 -1.52016179E-03 -5.45915457E-04
  4.80155291E-19  4.08066827E-05  4.23224349E-03 -6.87461029E-03 -2.06652891E-03
  7.86888258E-18  7.35751669E-03  6.82139550E-02 -6.66020528E-02 -3.57174542E-02
  1.40429250E-16  1.81471651E-02  4.96360641E-01 -3.67541639E-01 -4.85651391E-01
  1.76198295E-16  1.60052166E-02  2.78405691E-01 -3.66907898E-01 -2.81285394E-02
 -3.10985107E-16  3.24735987E-05  1.03878339E-02 -1.92277838E-02 -3.14251349E-03
 -7.13897833E-18  7.49094437E-04  5.00626710E-02  2.73823499E-01  1.84189088E-03
  0.00000000E+00  0.00000000E+00  1.73795001E+00  3.27401460E-08  4.93407420E-05
 -1.05253712E-04  2.54942613E-04  3.09553158E-20  2.41178015E-05  3.65300185E-03
 -6.50361731E-03 -4.61293838E-04  6.64000312E-18  6.37900816E-03  7.47587277E-02
 -9.60688685E-02  1.33552144E-02  1.46998440E-16  1.83012887E-03 -2.71212272E-01
  2.80730875E-01  4.52806134E-01 -8.26180096E-17 -5.14703265E-03 -1.89911806E-01
  2.86072484E-01  7.66832020E-02  1.99222009E-16 -4.43246141E-06 -4.08332147E-03
  8.10996758E-03  2.54274760E-03  2.75964409E-18  8.75845120E-04  1.32206096E-01
 -3.41001617E-01 -9.84193841E-04 -1.59354659E-01 -1.86009031E+00  0.00000000E+00
  2.75473043E+00 -3.92678597E-23 -2.22421787E-19  4.80155291E-19  1.60554768E-19
  1.12453661E-04 -4.16624300E-20 -4.32099687E-18  7.86888258E-18  2.10986560E-18
  8.32645258E-04 -1.12580016E-17 -1.04376632E-16  1.40429250E-16  5.46525647E-17
  2.51736096E-02 -5.34064042E-18 -1.46077015E-16  1.76198295E-16  1.42925324E-16
  2.31169245E-01  1.11460962E-17  1.93882825E-16 -3.10985107E-16 -1.95888261E-17
  7.96506040E-02  1.10500534E-20  3.53475204E-18 -7.13897833E-18 -1.06932841E-18
  1.75205303E-03 -1.10137988E-18 -1.91427809E-16  4.85548213E-16  1.21142086E-18
  0.00000000E+00  0.00000000E+00  0.00000000E+00  0.00000000E+00  1.73795001E+00
  0.00000000E+00  1.52725044E-10 -7.45818352E-10  3.42621000E-11 -1.02061890E-25
  0.00000000E+00  6.73500670E-08 -2.70171580E-07 -5.23369601E-08  9.12030468E-23
  0.00000000E+00  1.36779833E-04 -3.73005617E-04 -7.08853273E-05  1.33627355E-19
  0.00000000E+00  6.34133926E-04 -1.46829825E-03  4.73611126E-04 -9.11412831E-19
  0.00000000E+00  1.38083098E-06 -4.40755381E-06  2.41800362E-06 -4.78937324E-21
  0.00000000E+00  6.76708812E-10 -3.02864054E-09  1.00708778E-09 -2.08176738E-24
  3.00610640E-08  1.07407864E-03  1.97140391E-06  5.46489952E-11  3.54133027E-07
  2.03127640E-02 -2.17453189E-02  2.57241474E-02 -4.59612573E-17  5.02273861E-01
  1.06718156E-10  1.82421299E-05 -4.71288292E-05  9.60050289E-06 -6.44936850E-21
  5.55836453E-07  1.00151312E-03 -2.16140765E-03  3.63017658E-05  7.29636193E-19
  7.74684887E-04  4.98963420E-02 -8.10196160E-02  1.13014121E-02  2.90248630E-17
  4.12171539E-04  5.12113633E-02 -6.95218955E-02  1.98487844E-02 -4.31541395E-17
  1.96033789E-05  3.69114484E-03 -6.59412010E-03  1.14183527E-03 -7.16535832E-18
  5.62764940E-09  4.88834603E-05 -1.16070870E-04  1.00590656E-05 -7.97825125E-20
  3.80875212E-04  2.02539619E-01  4.14223667E-03  5.33540992E-06  5.06319827E-02
  4.06431160E-01 -2.68242524E-01  6.02422253E-02 -5.66961731E-16  1.43383823E-01
  1.31255916E+00  5.20781136E-10  4.71342258E-05 -1.16245038E-04  2.48392871E-05
 -1.66927065E-20  2.23574266E-06  2.14683636E-03 -4.36588442E-03  7.27594608E-05
  1.58231673E-18  2.11847582E-03  7.79832195E-02 -1.16326135E-01  1.74485792E-02
  4.82017203E-17  9.53575215E-04  7.01783998E-02 -8.28840865E-02  2.85179915E-02
 -6.32508706E-17  6.25465171E-05  6.38046999E-03 -1.05286781E-02  2.07298381E-03
 -1.27889160E-17  2.51877571E-08  1.15701456E-04 -2.60427172E-04  2.39278232E-05
 -1.89626308E-19  7.59639201E-04  2.32670785E-01  5.60806447E-03  1.25501025E-05
  5.54566579E-02  2.47693492E-01  2.06586526E-03  6.37202435E-02 -4.30341800E-16
  0.00000000E+00  0.00000000E+00  9.79598981E-01  8.94618745E-12  8.06394500E-06
 -2.08658043E-05  1.43396030E-05 -2.85539156E-21  5.32532212E-07  1.00551559E-03
 -2.17868179E-03  2.78598331E-04  7.35467501E-19  5.45483165E-04  4.71558417E-02
 -7.78148123E-02  2.42105069E-02  2.78767585E-17 -3.15602395E-04 -9.73764355E-03
  1.37182036E-02  5.12144642E-02  8.51526368E-18 -3.23368256E-05 -5.19967999E-03
  9.37077392E-03 -1.92990966E-04  1.01825493E-17 -7.85954210E-09 -5.86578054E-05
  1.39449333E-04  1.36921587E-05  9.58519404E-20  5.11977760E-04  2.65529951E-01
 -7.38916989E-03 -8.31576219E-06 -6.30364306E-02 -2.91353613E-01  2.43330202E-01
  4.37615442E-01  5.14306645E-16  9.86498936E-02  1.15150515E+00  0.00000000E+00
  1.99637940E+00  7.12665584E-26  6.45010701E-21 -1.66927065E-20  3.39914482E-21
  5.73709219E-06 -7.54729797E-22 -7.24717295E-19  1.58231673E-18 -2.45617414E-20
  3.21426228E-04 -7.58933126E-19 -2.79370895E-17  4.82017203E-17 -6.25086425E-18
  1.82235046E-02  5.91910183E-19  4.35616497E-17 -6.32508706E-17  1.77018963E-17
  1.90139114E-02  6.79648231E-20  6.93320003E-18 -1.27889160E-17  2.25256313E-18
  1.24067718E-03  1.73130652E-23  7.95285916E-20 -1.89626308E-19  1.64470366E-20
  1.54489552E-05 -5.68401591E-19 -2.94432476E-16  1.05308018E-17  1.13523676E-20
  1.17214088E-16  5.23528964E-16 -4.30341800E-16  1.34680136E-16  2.05670385E-01
  0.00000000E+00  0.00000000E+00  0.00000000E+00  0.00000000E+00  9.79598981E-01
  1.97022537E-08  2.04361264E-04 -3.98858613E-04 -2.93345907E-04  2.94361223E-19
  1.52930608E-06  2.53262934E-04 -4.10483253E-04 -3.11169870E-04  6.27838006E-19
  2.30396776E-04  7.90161331E-03 -8.86797478E-03 -1.16143017E-02  2.03723889E-17
  2.17005884E-03  3.61147916E-01 -3.64370424E-01 -4.73528448E-01  5.20619705E-16
  7.43433828E-03  2.93543539E-01 -4.17378434E-01 -1.83666863E-01  5.77574225E-17
  1.95939547E-05  7.60204628E-03 -1.38818525E-02 -5.65430081E-03  2.65049423E-18
  2.92914132E-05  5.29626345E-03  8.67151357E-01  2.59361236E-03  1.00196604E-01
  2.76746470E+00 -5.65891648E-01 -3.79055931E+00  4.71556818E-15  2.37965661E-03
  2.74095294E-01  1.11868989E-01 -4.51668227E-01  6.64533922E-16  1.04506659E+01
  4.50858763E-12  6.99584437E-07 -1.88331299E-06  2.31277959E-07 -1.17995669E-22
  1.55528258E-08  4.32111611E-05 -9.99839418E-05  2.69818553E-06  3.28626435E-20
  2.15015202E-05  3.26378149E-03 -5.89473395E-03  7.28514785E-04  2.00801180E-18
  1.99003029E-05  5.88788131E-03 -9.43611348E-03 -2.30270686E-04 -3.21209439E-18
  1.45935869E-06  5.31170829E-04 -1.04973487E-03  2.26877280E-05 -7.89122380E-19
  4.20819278E-10  4.24607060E-06 -1.06576248E-05 -3.49027966E-07 -5.38642152E-21
  1.98215743E-05  2.12447781E-02  1.17789456E-03  6.27255965E-07  7.09591361E-03
  1.30568854E-01 -1.43990164E-01 -3.09370557E-02 -1.17934026E-16  3.27131658E-02
  5.21956403E-01 -3.94038137E-01  2.82858513E-01  1.15694277E-16  1.72823413E-01
  7.23547876E-01  1.39925446E-08  1.68304435E-04 -3.59456108E-04  1.82382173E-04
 -2.02649393E-19  4.78046061E-05  1.08963859E-02 -1.98436632E-02  5.52820528E-03
 -3.15067737E-18  5.44829728E-03  2.34617774E-01 -3.27529701E-01  1.68017615E-01
 -1.29134302E-16  2.52006210E-04  6.07732696E-02 -6.94748694E-02  8.50264195E-02
 -1.13689360E-16  1.90334036E-05  1.21407972E-03 -1.79686255E-03  1.19069121E-03
 -3.30157807E-18  6.61910877E-08  5.06248600E-05 -9.94842987E-05  5.63563262E-05
 -1.18077943E-19  7.82993712E-03  1.39885200E+00  6.33825111E-04  3.46195632E-06
  6.10295011E-03  1.95318225E-01 -8.06079752E-02  2.96461808E-01 -4.78834524E-16
  4.72618015E-02  1.96382503E+00  3.94895227E-01  2.75708228E+00 -3.29065713E-15
  2.91832504E-02  5.30512393E-01  7.98424434E+00  4.68848429E-08  3.37342225E-02
  5.48311350E-02  1.47099534E-02 -1.61365908E-17  0.00000000E+00  1.69549621E-03
  3.92320327E-03 -1.03702073E-03  2.73213427E-18  0.00000000E+00  3.36511149E-06
  1.21232427E-05 -1.14454964E-06  4.12527359E-21  0.00000000E+00  1.24709092E-07
  5.01652009E-07  1.15209515E-07 -1.47536804E-22  0.00000000E+00  2.31077724E-06
  7.28698603E-06  4.44205801E-06 -7.43979969E-21  0.00000000E+00  1.19133613E-03
  2.21514860E-03  1.97057890E-03 -3.38947874E-18  1.64253521E-03  3.17551982E-07
  1.90350723E-07  1.02011455E-03  0.00000000E+00  0.00000000E+00  0.00000000E+00
  0.00000000E+00  0.00000000E+00  0.00000000E+00  0.00000000E+00  0.00000000E+00
  0.00000000E+00  0.00000000E+00  3.65690715E-12  0.00000000E+00  3.01265910E-12
  1.26062489E+00  1.09015318E-02  4.77758629E-01  4.69759766E-01  4.29012922E-01
 -1.38248480E-16  6.90578908E-03  1.99936436E-01  2.94073056E-01  2.44450837E-02
  2.04793639E-16  9.00329039E-06  5.30930573E-03  1.04685215E-02  1.60674937E-03
  3.56220826E-18  3.32293791E-08  3.52275651E-04  7.53613639E-04  2.53217148E-04
 -2.21639196E-19  1.29504225E-05  2.47565456E-03  4.36511056E-03  1.15457918E-03
 -4.45665026E-18  3.95827504E-03  6.10699577E-02  7.48815290E-02  2.78261231E-02
 -1.14578928E-16  2.49056728E-01  9.28993950E-04  4.67461902E-04  7.44474382E-02
  0.00000000E+00  6.33459737E-07  1.81849492E-06  3.70739272E-07 -5.34915466E-22
  0.00000000E+00  1.92023917E-08  6.39501811E-08  1.27437160E-08  2.51960122E-24
  4.32441233E-07  5.97992981E-10  7.66976434E-07  3.31729697E-01  2.07091019E+00
 -1.81471651E-02 -4.96360641E-01 -3.67541639E-01 -4.85651391E-01  1.76198295E-16
 -1.60052166E-02 -2.78405691E-01 -3.66907898E-01 -2.81285394E-02 -3.10985107E-16
 -3.24735987E-05 -1.03878339E-02 -1.92277838E-02 -3.14251349E-03 -7.13897833E-18
 -1.33517876E-07 -7.56274592E-04 -1.52016179E-03 -5.45915457E-04  4.80155291E-19
 -4.08066827E-05 -4.23224349E-03 -6.87461029E-03 -2.06652891E-03  7.86888258E-18
 -7.35751669E-03 -6.82139550E-02 -6.66020528E-02 -3.57174542E-02  1.40429250E-16
 -2.73823499E-01 -1.84189088E-03 -7.49094437E-04 -5.00626710E-02  0.00000000E+00
 -1.81849492E-06 -5.02406147E-06 -1.06452859E-06  1.53629647E-21  0.00000000E+00
 -6.39501811E-08 -2.06956232E-07 -4.24406999E-08 -8.39108778E-24 -1.11797787E-06
 -1.99659309E-09 -2.12504867E-06  0.00000000E+00  0.00000000E+00  1.73795001E+00
 -1.83012887E-03  2.71212272E-01  2.80730875E-01  4.52806134E-01 -8.26180096E-17
  5.14703265E-03  1.89911806E-01  2.86072484E-01  7.66832020E-02  1.99222009E-16
  4.43246141E-06  4.08332147E-03  8.10996758E-03  2.54274760E-03  2.75964409E-18
 -3.27401460E-08 -4.93407420E-05 -1.05253712E-04  2.54942613E-04  3.09553158E-20
 -2.41178015E-05 -3.65300185E-03 -6.50361731E-03 -4.61293838E-04  6.64000312E-18
 -6.37900816E-03 -7.47587277E-02 -9.60688685E-02  1.33552144E-02  1.46998440E-16
  3.41001617E-01  9.84193841E-04 -8.75845120E-04 -1.32206096E-01  0.00000000E+00
 -3.70739272E-07 -1.06452859E-06  3.78961369E-07  3.13134120E-22  0.00000000E+00
  8.46171045E-09  2.81802353E-08  1.27926195E-08  1.11028544E-24 -6.51761056E-07
  2.14386541E-10  6.92752262E-07  1.59354659E-01  1.86009031E+00  0.00000000E+00
  2.75473043E+00  5.34064042E-18  1.46077015E-16  1.76198295E-16  1.42925324E-16
  2.31169245E-01 -1.11460962E-17 -1.93882825E-16 -3.10985107E-16 -1.95888261E-17
  7.96506040E-02 -1.10500534E-20 -3.53475204E-18 -7.13897833E-18 -1.06932841E-18
  1.75205303E-03  3.92678597E-23  2.22421787E-19  4.80155291E-19  1.60554768E-19
  1.12453661E-04  4.16624300E-20  4.32099687E-18  7.86888258E-18  2.10986560E-18
  8.32645258E-04  1.12580016E-17  1.04376632E-16  1.40429250E-16  5.46525647E-17
  2.51736096E-02 -4.85548213E-16 -1.21142086E-18  1.10137988E-18  1.91427809E-16
  0.00000000E+00  5.34915466E-22  1.53629647E-21  3.13134120E-22  1.98721393E-07
  0.00000000E+00 -2.51960122E-24 -8.39108778E-24 -1.67213974E-24  6.01857534E-09
  7.00308030E-22  1.36273720E-26 -7.70006496E-22  0.00000000E+00  0.00000000E+00
  0.00000000E+00  0.00000000E+00  1.73795001E+00  0.00000000E+00  6.34133926E-04
  1.46829825E-03 -4.73611126E-04  9.11412831E-19  0.00000000E+00  1.38083098E-06
  4.40755381E-06 -2.41800362E-06  4.78937324E-21  0.00000000E+00  6.76708812E-10
  3.02864054E-09 -1.00708778E-09  2.08176738E-24  0.00000000E+00  1.52725044E-10
  7.45818352E-10 -3.42621000E-11  1.02061890E-25  0.00000000E+00  6.73500670E-08
  2.70171580E-07  5.23369601E-08 -9.12030468E-23  0.00000000E+00  1.36779833E-04
  3.73005617E-04  7.08853273E-05 -1.33627355E-19  1.97140391E-06  5.46489952E-11
  3.00610640E-08  1.07407864E-03  0.00000000E+00  0.00000000E+00  0.00000000E+00
  0.00000000E+00  0.00000000E+00  0.00000000E+00  0.00000000E+00  0.00000000E+00
  0.00000000E+00  0.00000000E+00  0.00000000E+00  0.00000000E+00  0.00000000E+00
  3.54133027E-07  2.03127640E-02  2.17453189E-02 -2.57241474E-02  4.59612573E-17
  5.02273861E-01  4.12171539E-04  5.12113633E-02  6.95218955E-02 -1.98487844E-02
  4.31541395E-17  1.96033789E-05  3.69114484E-03  6.59412010E-03 -1.14183527E-03
  7.16535832E-18  5.62764940E-09  4.88834603E-05  1.16070870E-04 -1.00590656E-05
  7.97825125E-20  1.06718156E-10  1.82421299E-05  4.71288292E-05 -9.60050289E-06
  6.44936850E-21  5.55836453E-07  1.00151312E-03  2.16140765E-03 -3.63017658E-05
 -7.29636193E-19  7.74684887E-04  4.98963420E-02  8.10196160E-02 -1.13014121E-02
 -2.90248630E-17  4.14223667E-03  5.33540992E-06  3.80875212E-04  2.02539619E-01
  0.00000000E+00  1.92023917E-08  6.39501811E-08 -8.46171045E-09  2.51960122E-24
  0.00000000E+00  0.00000000E+00  0.00000000E+00  0.00000000E+00  0.00000000E+00
  5.45126237E-08  0.00000000E+00  1.71509074E-09  5.06319827E-02  4.06431160E-01
  2.68242524E-01 -6.02422253E-02  5.66961731E-16  1.43383823E-01  1.31255916E+00
 -9.53575215E-04 -7.01783998E-02 -8.28840865E-02  2.85179915E-02 -6.32508706E-17
 -6.25465171E-05 -6.38046999E-03 -1.05286781E-02  2.07298381E-03 -1.27889160E-17
 -2.51877571E-08 -1.15701456E-04 -2.60427172E-04  2.39278232E-05 -1.89626308E-19
 -5.20781136E-10 -4.71342258E-05 -1.16245038E-04  2.48392871E-05 -1.66927065E-20
 -2.23574266E-06 -2.14683636E-03 -4.36588442E-03  7.27594608E-05  1.58231673E-18
 -2.11847582E-03 -7.79832195E-02 -1.16326135E-01  1.74485792E-02  4.82017203E-17
 -5.60806447E-03 -1.25501025E-05 -7.59639201E-04 -2.32670785E-01  0.00000000E+00
 -6.39501811E-08 -2.06956232E-07  2.81802353E-08 -8.39108778E-24  0.00000000E+00
  0.00000000E+00  0.00000000E+00  0.00000000E+00  0.00000000E+00 -1.62598551E-07
  0.00000000E+00 -5.43152801E-09 -5.54566579E-02 -2.47693492E-01  2.06586526E-03
  6.37202435E-02 -4.30341800E-16  0.00000000E+00  0.00000000E+00  9.79598981E-01
  3.15602395E-04  9.73764355E-03  1.37182036E-02  5.12144642E-02  8.51526368E-18
  3.23368256E-05  5.19967999E-03  9.37077392E-03 -1.92990966E-04  1.01825493E-17
  7.85954210E-09  5.86578054E-05  1.39449333E-04  1.36921587E-05  9.58519404E-20
 -8.94618745E-12 -8.06394500E-06 -2.08658043E-05  1.43396030E-05 -2.85539156E-21
 -5.32532212E-07 -1.00551559E-03 -2.17868179E-03  2.78598331E-04  7.35467501E-19
 -5.45483165E-04 -4.71558417E-02 -7.78148123E-02  2.42105069E-02  2.78767585E-17
  7.38916989E-03  8.31576219E-06 -5.11977760E-04 -2.65529951E-01  0.00000000E+00
 -1.27437160E-08 -4.24406999E-08  1.27926195E-08 -1.67213974E-24  0.00000000E+00
  0.00000000E+00  0.00000000E+00  0.00000000E+00  0.00000000E+00 -6.01022234E-08
  0.00000000E+00  2.28341700E-09  6.30364306E-02  2.91353613E-01  2.43330202E-01
  4.37615442E-01  5.14306645E-16 -9.86498936E-02 -1.15150515E+00  0.00000000E+00
  1.99637940E+00 -5.91910183E-19 -4.35616497E-17 -6.32508706E-17  1.77018963E-17
  1.90139114E-02 -6.79648231E-20 -6.93320003E-18 -1.27889160E-17  2.25256313E-18
  1.24067718E-03 -1.73130652E-23 -7.95285916E-20 -1.89626308E-19  1.64470366E-20
  1.54489552E-05 -7.12665584E-26 -6.45010701E-21 -1.66927065E-20  3.39914482E-21
  5.73709219E-06  7.54729797E-22  7.24717295E-19  1.58231673E-18 -2.45617414E-20
  3.21426228E-04  7.58933126E-19  2.79370895E-17  4.82017203E-17 -6.25086425E-18
  1.82235046E-02 -1.05308018E-17 -1.13523676E-20  5.68401591E-19  2.94432476E-16
  0.00000000E+00 -2.51960122E-24 -8.39108778E-24  1.11028544E-24  6.01857534E-09
  0.00000000E+00  0.00000000E+00  0.00000000E+00  0.00000000E+00  0.00000000E+00
  4.23437542E-23  0.00000000E+00 -3.16451770E-24 -1.17214088E-16 -5.23528964E-16
 -4.30341800E-16  1.34680136E-16  2.05670385E-01  0.00000000E+00  0.00000000E+00
  0.00000000E+00  0.00000000E+00  9.79598981E-01  2.17005884E-03  3.61147916E-01
  3.64370424E-01  4.73528448E-01 -5.20619705E-16  7.43433828E-03  2.93543539E-01
  4.17378434E-01  1.83666863E-01 -5.77574225E-17  1.95939547E-05  7.60204628E-03
  1.38818525E-02  5.65430081E-03 -2.65049423E-18  1.97022537E-08  2.04361264E-04
  3.98858613E-04  2.93345907E-04 -2.94361223E-19  1.52930608E-06  2.53262934E-04
  4.10483253E-04  3.11169870E-04 -6.27838006E-19  2.30396776E-04  7.90161331E-03
  8.86797478E-03  1.16143017E-02 -2.03723889E-17  8.67151357E-01  2.59361236E-03
  2.92914132E-05  5.29626345E-03  3.65690715E-12  4.32441233E-07  1.11797787E-06
  6.51761056E-07 -7.00308030E-22  0.00000000E+00  5.45126237E-08  1.62598551E-07
  6.01022234E-08 -4.23437542E-23  8.28560855E-08  1.80177381E-09  2.83806369E-06
  1.00196604E-01  2.76746470E+00  5.65891648E-01  3.79055931E+00 -4.71556818E-15
  2.37965661E-03  2.74095294E-01 -1.11868989E-01  4.51668227E-01 -6.64533922E-16
  1.04506659E+01  1.99003029E-05  5.88788131E-03  9.43611348E-03  2.30270686E-04
  3.21209439E-18  1.45935869E-06  5.31170829E-04  1.04973487E-03 -2.26877280E-05
  7.89122380E-19  4.20819278E-10  4.24607060E-06  1.06576248E-05  3.49027966E-07
  5.38642152E-21  4.50858763E-12  6.99584437E-07  1.88331299E-06 -2.31277959E-07
  1.17995669E-22  1.55528258E-08  4.32111611E-05  9.99839418E-05 -2.69818553E-06
 -3.28626435E-20  2.15015202E-05  3.26378149E-03  5.89473395E-03 -7.28514785E-04
 -2.00801180E-18  1.17789456E-03  6.27255965E-07  1.98215743E-05  2.12447781E-02
  0.00000000E+00  5.97992981E-10  1.99659309E-09 -2.14386541E-10 -1.36273720E-26
  0.00000000E+00  0.00000000E+00  0.00000000E+00  0.00000000E+00  0.00000000E+00
  1.80177381E-09  0.00000000E+00  1.37295863E-10  7.09591361E-03  1.30568854E-01
  1.43990164E-01  3.09370557E-02  1.17934026E-16  3.27131658E-02  5.21956403E-01
  3.94038137E-01 -2.82858513E-01 -1.15694277E-16  1.72823413E-01  7.23547876E-01
  2.52006210E-04  6.07732696E-02  6.94748694E-02 -8.50264195E-02  1.13689360E-16
  1.90334036E-05  1.21407972E-03  1.79686255E-03 -1.19069121E-03  3.30157807E-18
  6.61910877E-08  5.06248600E-05  9.94842987E-05 -5.63563262E-05  1.18077943E-19
  1.39925446E-08  1.68304435E-04  3.59456108E-04 -1.82382173E-04  2.02649393E-19
  4.78046061E-05  1.08963859E-02  1.98436632E-02 -5.52820528E-03  3.15067737E-18
  5.44829728E-03  2.34617774E-01  3.27529701E-01 -1.68017615E-01  1.29134302E-16
  6.33825111E-04  3.46195632E-06  7.82993712E-03  1.39885200E+00  3.01265910E-12
  7.66976434E-07  2.12504867E-06 -6.92752262E-07  7.70006496E-22  0.00000000E+00
  1.71509074E-09  5.43152801E-09 -2.28341700E-09  3.16451770E-24  2.83806369E-06
  1.37295863E-10  6.02008385E-09  6.10295011E-03  1.95318225E-01  8.06079752E-02
 -2.96461808E-01  4.78834524E-16  4.72618015E-02  1.96382503E+00 -3.94895227E-01
 -2.75708228E+00  3.29065713E-15  2.91832504E-02  5.30512393E-01  7.98424434E+00
Multipole Matrix (1,0,1)                   R   N=        1830
 -1.96135210E-15 -4.87126097E-16 -1.96135210E-15 -5.45641570E-17 -6.36908017E-16
 -1.96135210E-15  0.00000000E+00  0.00000000E+00  0.00000000E+00 -1.96135210E-15
  1.85595739E-01  2.16639311E+00  5.08390209E-01  0.00000000E+00 -1.96135210E-15
 -4.41094649E-21 -1.60890929E-16  1.67646354E-16 -2.02192353E-16  2.50218811E-03
 -4.00777069E-15 -9.12292668E-17 -1.69706376E-15  4.88351307E-16 -1.29745983E-15
  4.99623705E-01 -9.95379507E-16 -4.00777069E-15 -1.07899751E-16 -2.03686402E-15
  2.17422801E-16 -1.86279870E-15  4.94748030E-01 -3.45053927E-16 -4.02769188E-15
 -4.00777069E-15  1.18651063E-16  1.35156568E-15 -6.83515690E-16  4.00811619E-16
 -3.89334399E-01  0.00000000E+00  0.00000000E+00  0.00000000E+00 -4.00777069E-15
  6.26359604E-03  4.22484513E-01 -1.47257769E-01  3.35336971E-01 -8.55192533E-16
  5.99702384E-02  7.00011283E-01  5.08390209E-01  0.00000000E+00 -4.00777069E-15
  0.00000000E+00  1.11039546E-17 -2.46642218E-17  8.10796250E-18 -1.52926826E-04
  1.88956522E-21  2.50319737E-16 -4.08306899E-16 -8.11429778E-17 -3.95448497E-03
  7.06587031E-15 -3.98991702E-18 -5.07679386E-17 -1.19031757E-17 -2.62218177E-17
  2.56542909E-02 -1.27032627E-16  7.28624052E-16 -1.76804799E-15 -1.13677448E-16
 -6.62721675E-02  1.75489644E-15  7.06587031E-15 -8.80242693E-18 -1.42700065E-16
  7.23871861E-17 -7.06939171E-17  5.89790697E-02 -2.06768849E-16 -2.36513541E-16
 -6.27291153E-16  4.02382793E-17  7.53486950E-02 -2.90484711E-16 -3.39072481E-15
  7.06587031E-15  2.90847722E-18  1.30237589E-17  1.84370838E-17 -8.16163625E-18
 -1.21320629E-02 -3.96961297E-17  1.91909765E-16 -4.60833833E-16  3.76695415E-16
 -1.52140797E-02  0.00000000E+00  0.00000000E+00  0.00000000E+00  7.06587031E-15
  2.37544025E-04  8.10201724E-03  1.25771377E-02  3.36772939E-03  4.11205982E-18
  1.60879175E-03 -1.80304291E-01  3.28968688E-01  3.65235725E-02  3.88237244E-16
 -1.25592084E-01 -1.46599177E+00  5.08390209E-01  0.00000000E+00  7.06587031E-15
  0.00000000E+00 -6.81838717E-19  1.79157192E-18  3.62163527E-19 -5.39981447E-05
  0.00000000E+00 -2.25984080E-18  3.95467251E-18  3.46211725E-18 -2.42946570E-04
  3.31531902E-21 -4.95587675E-17  2.33099567E-17  6.69304691E-17 -6.45758410E-03
 -1.96135210E-15 -6.81838717E-19 -1.90781802E-18  4.61208887E-18  1.13323369E-18
  3.21156853E-03 -5.68583498E-18  9.40884817E-17 -1.80353676E-16 -7.73248638E-17
 -2.84310182E-02  2.57923709E-16  1.27858723E-15 -1.02380236E-15 -1.42127350E-15
 -5.66056738E-01 -4.87126097E-16 -1.96135210E-15 -1.79157192E-18 -4.61208887E-18
  1.02083509E-17  2.76653175E-18  1.53030685E-02 -1.02720691E-17  2.38840340E-17
 -8.64682015E-17 -1.46377936E-17 -7.50845279E-03  1.24323166E-16  3.65168687E-17
  4.84372838E-16 -2.08850806E-16 -3.90422579E-02  5.45641570E-17  6.36908017E-16
 -1.96135210E-15 -3.62163527E-19 -1.13323369E-18  2.76653175E-18 -1.04395961E-18
  1.16410291E-03 -8.69439831E-18  8.35920097E-17 -1.71780125E-16 -4.00461674E-17
 -2.67356689E-02  4.00324619E-16  1.11872068E-15 -1.09132209E-15 -9.32067220E-16
 -5.65660109E-01  0.00000000E+00  0.00000000E+00  0.00000000E+00 -1.96135210E-15
  5.39981447E-05 -3.21156853E-03  1.53030685E-02  1.16410291E-03 -5.03403430E-18
  6.55681745E-05 -4.22959214E-02  6.92159336E-02  4.12222631E-02  5.45674333E-18
 -4.65961618E-03 -6.02918279E-01  3.49733203E-01  5.98351729E-01  6.70104903E-16
 -1.85595739E-01 -2.16639311E+00  5.08390209E-01  0.00000000E+00 -1.96135210E-15
  0.00000000E+00 -5.68583498E-18  1.02720691E-17  8.69439831E-18 -6.55681745E-05
  0.00000000E+00 -1.39473328E-18  1.27416846E-18  3.51599902E-18 -1.74664332E-05
  0.00000000E+00 -7.09221312E-18 -2.82930279E-18  1.60016014E-17 -8.96819930E-05
 -4.41094649E-21 -1.60890929E-16 -1.67646354E-16  2.02192353E-16 -2.50218811E-03
 -4.00777069E-15 -2.25984080E-18  9.40884817E-17 -2.38840340E-17 -8.35920097E-17
  4.22959214E-02 -1.39473328E-18 -3.90156576E-18 -2.30427206E-18  1.09993037E-17
  1.03861516E-03  1.14259014E-17 -2.39892441E-17 -3.07357776E-18  2.44392550E-18
 -5.40512001E-02 -9.12292668E-17 -1.69706376E-15 -4.88351307E-16  1.29745983E-15
 -4.99623705E-01 -9.95379507E-16 -4.00777069E-15 -3.95467251E-18  1.80353676E-16
 -8.64682015E-17 -1.71780125E-16  6.92159336E-02 -1.27416846E-18  2.30427206E-18
 -7.04050837E-18 -5.30403440E-19  1.01977262E-02 -5.62617922E-18  4.39971051E-17
  5.62974604E-18 -5.56545850E-17  3.83759713E-02  1.07899751E-16  2.03686402E-15
  2.17422801E-16 -1.86279870E-15  4.94748030E-01  3.45053927E-16  4.02769188E-15
 -4.00777069E-15 -3.46211725E-18  7.73248638E-17 -1.46377936E-17 -4.00461674E-17
  4.12222631E-02 -3.51599902E-18 -1.09993037E-17 -5.30403440E-19  2.57769794E-17
  1.78675087E-03  2.57954101E-17 -5.25169884E-17 -1.20590358E-17  2.33259538E-17
 -7.69812693E-02 -1.18651063E-16 -1.35156568E-15 -6.83515690E-16  4.00811619E-16
 -3.89334399E-01  0.00000000E+00  0.00000000E+00  0.00000000E+00 -4.00777069E-15
  2.42946570E-04  2.84310182E-02 -7.50845279E-03 -2.67356689E-02  5.45674333E-18
  1.74664332E-05 -1.03861516E-03  1.01977262E-02  1.78675087E-03 -1.02951827E-17
 -1.72033936E-04 -5.03494489E-02  8.11293077E-03  7.12651589E-02  4.36878592E-18
 -6.26359604E-03 -4.22484513E-01 -1.47257769E-01  3.35336971E-01 -8.55192533E-16
 -5.99702384E-02 -7.00011283E-01  5.08390209E-01  0.00000000E+00 -4.00777069E-15
  3.31531902E-21  2.57923709E-16 -1.24323166E-16 -4.00324619E-16  4.65961618E-03
  0.00000000E+00  1.14259014E-17  5.62617922E-18 -2.57954101E-17  1.72033936E-04
  0.00000000E+00  2.45551859E-18  4.41186165E-18 -4.88584636E-18  3.65280134E-05
  0.00000000E+00  1.11039546E-17  2.46642218E-17 -8.10796250E-18  1.52926826E-04
  1.88956522E-21  2.50319737E-16  4.08306899E-16  8.11429778E-17  3.95448497E-03
  7.06587031E-15 -4.95587675E-17  1.27858723E-15 -3.65168687E-17 -1.11872068E-15
  6.02918279E-01 -7.09221312E-18 -2.39892441E-17 -4.39971051E-17  5.25169884E-17
  5.03494489E-02  2.45551859E-18  6.87120754E-18  8.51642527E-18 -1.52892494E-17
 -2.17266447E-03 -3.98991702E-18 -5.07679386E-17  1.19031757E-17  2.62218177E-17
 -2.56542909E-02 -1.27032627E-16  7.28624052E-16  1.76804799E-15  1.13677448E-16
  6.62721675E-02  1.75489644E-15  7.06587031E-15 -2.33099567E-17  1.02380236E-15
  4.84372838E-16 -1.09132209E-15  3.49733203E-01  2.82930279E-18  3.07357776E-18
  5.62974604E-18 -1.20590358E-17  8.11293077E-03 -4.41186165E-18 -8.51642527E-18
 -7.00768858E-18  2.15588796E-17  1.22064766E-02  8.80242693E-18  1.42700065E-16
  7.23871861E-17 -7.06939171E-17  5.89790697E-02  2.06768849E-16  2.36513541E-16
 -6.27291153E-16  4.02382793E-17  7.53486950E-02  2.90484711E-16  3.39072481E-15
  7.06587031E-15 -6.69304691E-17  1.42127350E-15 -2.08850806E-16 -9.32067220E-16
  5.98351729E-01 -1.60016014E-17 -2.44392550E-18 -5.56545850E-17  2.33259538E-17
  7.12651589E-02  4.88584636E-18  1.52892494E-17  2.15588796E-17 -2.60017086E-17
 -2.95012330E-03 -2.90847722E-18 -1.30237589E-17  1.84370838E-17 -8.16163625E-18
 -1.21320629E-02  3.96961297E-17 -1.91909765E-16 -4.60833833E-16  3.76695415E-16
 -1.52140797E-02  0.00000000E+00  0.00000000E+00  0.00000000E+00  7.06587031E-15
  6.45758410E-03  5.66056738E-01 -3.90422579E-02 -5.65660109E-01  6.70104903E-16
  8.96819930E-05  5.40512001E-02  3.83759713E-02 -7.69812693E-02  4.36878592E-18
 -3.65280134E-05  2.17266447E-03  1.22064766E-02 -2.95012330E-03  1.81303914E-17
 -2.37544025E-04 -8.10201724E-03  1.25771377E-02  3.36772939E-03  4.11205982E-18
 -1.60879175E-03  1.80304291E-01  3.28968688E-01  3.65235725E-02  3.88237244E-16
  1.25592084E-01  1.46599177E+00  5.08390209E-01  0.00000000E+00  7.06587031E-15
 -1.39360659E-17 -8.60278172E-16  2.73871634E-17 -1.04968104E-15  1.48483384E-01
 -2.69397604E-16 -3.92712230E-15 -3.38890372E-15 -3.51801617E-15  3.84755042E-01
  3.63044789E-17  8.90953616E-17 -3.17194545E-16  6.41102083E-17 -3.32104950E-02
 -9.57373385E-20  1.52395355E-17  5.50180704E-19  1.77312074E-17 -4.32658097E-03
 -3.94925814E-20 -5.49781743E-19 -1.35051571E-18 -1.25746554E-18  1.62182690E-04
  5.73971291E-19 -1.48652130E-17 -3.98663200E-18 -2.24505337E-17  7.59159004E-03
 -1.28235143E-14 -2.15888310E-19 -5.20589962E-19 -1.56471164E-17  5.32540958E-20
  1.28298032E-03 -1.79463878E-17  6.15958065E-16 -1.16271127E-15  1.99188316E-16
 -4.89788753E-02  4.74905445E-16  6.92121593E-15 -6.19848822E-15  4.89300637E-15
 -8.05554510E-01 -6.55922861E-18  8.31363025E-16 -3.03541689E-16  1.05392086E-15
 -1.92397703E-01 -3.67768361E-19  6.30297874E-18 -3.94584860E-18  9.71649207E-18
 -8.11780286E-03  6.95168713E-20  9.66999866E-19 -2.32911823E-18  1.74594981E-18
 -3.38628755E-04  3.11960966E-16  2.25975832E-14 -9.57373385E-20  1.52395355E-17
 -5.50180704E-19 -1.77312074E-17  4.32658097E-03 -3.94925814E-20 -5.49781743E-19
  1.35051571E-18  1.25746554E-18 -1.62182690E-04  5.73971291E-19 -1.48652130E-17
  3.98663200E-18  2.24505337E-17 -7.59159004E-03 -1.39360659E-17 -8.60278172E-16
 -2.73871634E-17  1.04968104E-15 -1.48483384E-01 -2.69397604E-16 -3.92712230E-15
  3.38890372E-15  3.51801617E-15 -3.84755042E-01  3.63044789E-17  8.90953616E-17
  3.17194545E-16 -6.41102083E-17  3.32104950E-02 -1.12994097E-20 -1.08379227E-18
 -1.28235143E-14 -6.55922861E-18  8.31363025E-16  3.03541689E-16 -1.05392086E-15
  1.92397703E-01 -3.67768361E-19  6.30297874E-18  3.94584860E-18 -9.71649207E-18
  8.11780286E-03  6.95168713E-20  9.66999866E-19  2.32911823E-18 -1.74594981E-18
  3.38628755E-04 -2.15888310E-19 -5.20589962E-19  1.56471164E-17 -5.32540958E-20
 -1.28298032E-03 -1.79463878E-17  6.15958065E-16  1.16271127E-15 -1.99188316E-16
  4.89788753E-02  4.74905445E-16  6.92121593E-15  6.19848822E-15 -4.89300637E-15
  8.05554510E-01 -1.08379227E-18  1.98756049E-20  3.11960966E-16  2.25975832E-14
  0.00000000E+00 -7.96463545E-22  3.21551912E-21  6.54107621E-22 -3.15312514E-08
  0.00000000E+00 -1.55189023E-20  4.91334813E-20  2.81881381E-20 -6.92356220E-07
  0.00000000E+00 -8.06203215E-18  1.50795137E-17  1.25390637E-17 -3.30411723E-04
 -2.99591020E-22 -2.19318107E-16  3.59122097E-16  7.27827141E-17 -8.62204634E-03
  0.00000000E+00 -1.04286806E-17  2.42675659E-17 -7.30635157E-18 -3.27003538E-04
  0.00000000E+00 -2.04652596E-20  7.40420344E-20 -8.88410350E-21 -6.84440798E-07
 -1.29635773E-21 -7.01109081E-18 -9.93467473E-18 -1.89339564E-21 -8.68773356E-15
 -1.50140960E-22 -1.82523179E-19  4.70028088E-19  8.12606315E-20 -2.43669432E-04
 -5.60299197E-21  5.45862324E-18 -1.07488407E-17 -5.29852877E-18 -2.06665757E-03
  8.29544065E-18  1.93447369E-16 -2.79384129E-16 -1.96030646E-16 -1.03954374E-01
 -5.80005515E-17 -1.42343940E-15  1.72717073E-15  3.03522135E-16 -8.16477102E-01
 -5.57280476E-18 -4.59133947E-16  7.51946086E-16 -1.96720467E-16 -8.87884786E-02
  1.28662887E-20 -7.86520252E-18  1.77969918E-17 -1.82543132E-18 -1.63393675E-03
  1.06370795E-18  3.06007020E-16 -5.14400700E-16 -1.10675496E-18 -2.15770627E-15
 -8.68773356E-15 -6.09266953E-22 -3.41457146E-19  8.70407929E-19  1.58894712E-19
 -4.17696153E-04 -1.83301298E-20  7.66079522E-18 -1.39563104E-17 -7.48790808E-18
 -2.99271617E-03  1.51665640E-17  1.65750758E-16 -2.03662691E-16 -1.87501989E-16
 -1.01758513E-01 -9.60557184E-17 -1.40647490E-15  1.39274566E-15  3.92208040E-16
 -7.71522604E-01 -1.26034419E-17 -5.72265752E-16  8.58294804E-16 -2.70651942E-16
 -1.09265534E-01  4.70314975E-20 -1.30580702E-17  2.83700608E-17 -3.09913341E-18
 -2.64954468E-03  1.39407362E-18  1.48424519E-16 -4.64871217E-16 -1.78919382E-18
  1.14868175E-16  1.34081539E-15 -8.68773356E-15 -1.23488045E-22 -8.50960645E-20
  2.23705683E-19 -2.26416998E-20 -1.06368727E-04 -1.02039671E-20  5.22724220E-18
 -1.04284708E-17 -3.37317213E-18 -2.03530878E-03  1.28769059E-17  1.63076401E-16
 -2.58819583E-16 -1.06462417E-16 -9.93756440E-02 -1.98815910E-17 -3.41882655E-16
  5.04960143E-16 -6.98625893E-16 -1.81817569E-01  3.90047803E-18  2.01137037E-16
 -3.54925197E-16 -8.88701091E-17  3.82216245E-02 -5.59728690E-21  1.88284890E-18
 -4.33862355E-18 -2.13715150E-18  3.84208406E-04  1.36042775E-18  3.81367085E-16
  4.78498255E-16  6.28066670E-19  0.00000000E+00  0.00000000E+00  0.00000000E+00
 -8.68773356E-15  1.34867576E-08 -2.57088468E-04  6.61775716E-04  1.13854932E-04
 -7.26856681E-20  6.59201656E-08 -2.18980356E-03  4.34201700E-03  2.18718696E-03
  1.46993503E-18 -1.23209165E-04 -1.14150451E-01  1.48930812E-01  1.10210577E-01
  5.33482292E-17 -4.59360270E-03 -9.12979213E-01  1.10676809E+00  2.01560117E-01
 -8.19245114E-16 -6.86582138E-05 -1.01502930E-01  1.63627656E-01 -4.43206563E-02
 -1.68794926E-16  1.83076736E-07 -1.77486277E-03  4.08008876E-03 -4.25843828E-04
 -2.46624398E-18 -2.72046160E-04 -9.99534733E-02 -8.57527305E-02 -1.96747672E-04
 -3.90505053E-01 -4.55822672E+00  5.08390209E-01  0.00000000E+00 -8.68773356E-15
  0.00000000E+00  3.58605698E-24 -1.75732655E-23  2.86758328E-25 -1.07944535E-10
  0.00000000E+00  1.42001437E-21 -5.72199975E-21 -1.29171004E-21 -3.74966894E-08
  0.00000000E+00  3.11641281E-18 -8.54477385E-18 -2.01747324E-18 -7.92456398E-05
  0.00000000E+00  1.72891277E-17 -4.02272880E-17  1.05753333E-17 -4.82589514E-04
  0.00000000E+00  4.23030998E-20 -1.35447050E-19  6.78219408E-20 -1.37902919E-06
  0.00000000E+00  1.93267437E-23 -8.67417529E-23  2.57847086E-23 -6.54673440E-10
  6.00823237E-22  2.37260891E-17  6.48172514E-20  1.64354666E-24  4.78719955E-21
  6.02754409E-16 -6.77015362E-16  6.89579599E-16 -2.23598471E-02  1.50522868E-14
 -4.55107486E-25  4.02275935E-20 -1.14332583E-19  1.69942044E-21 -1.66732495E-05
 -1.90842626E-22  2.99096774E-18 -6.97311901E-18 -1.44918267E-18 -5.14410132E-04
  1.62813852E-18  2.39872163E-16 -4.17893835E-16 -9.07150280E-17 -4.77709940E-02
 -2.20765963E-18  1.68122446E-16 -2.42449475E-16  5.94023729E-17 -1.50383355E-01
 -1.77884802E-20 -1.00085902E-17  1.91414485E-17 -8.78249782E-18 -4.51696229E-03
  7.77587485E-24 -8.33336010E-20  2.15038790E-19 -5.85075046E-20 -5.11569302E-05
  9.66965242E-19  9.12165888E-16 -1.30889896E-17 -1.09550469E-20 -3.46382399E-16
  6.79029246E-16 -1.69143920E-16  1.91754051E-16 -1.83998517E+00  3.73842194E-15
  1.50522868E-14 -2.24012055E-24  9.40221049E-20 -2.58022548E-19  3.98675943E-21
 -3.87720490E-05 -7.98191698E-22  5.89005965E-18 -1.30285998E-17 -2.88766704E-18
 -1.00780771E-03  4.40179706E-18  3.56695432E-16 -5.78242809E-16 -1.44703386E-16
 -7.00455740E-02 -5.07815293E-18  2.57073083E-16 -3.37538747E-16  1.01784602E-16
 -1.97273207E-01 -5.57282821E-20 -1.53295125E-17  2.69590673E-17 -1.36904233E-17
 -7.20596412E-03  3.52340238E-23 -1.77333616E-19  4.35283770E-19 -1.24223927E-19
 -1.09934753E-04  1.75200934E-18  9.36740489E-16 -1.54069468E-17 -2.30037236E-20
 -3.79891495E-16  6.64017828E-16  5.24466573E-17  4.01184114E-16 -1.14787507E+00
 -1.50587840E-16 -1.75775834E-15  1.50522868E-14  3.64000538E-26 -1.70717014E-21
  4.86594296E-21  1.26237639E-20  7.04447606E-07 -1.74722508E-22  1.46005372E-18
 -3.43894519E-18  2.43712345E-19 -2.49917221E-04  1.05311600E-18  9.23926109E-17
 -1.70734113E-16  5.17656807E-17 -1.80955469E-02  1.35055083E-18 -7.46132606E-17
  1.18123092E-16  4.30566838E-17  5.68168344E-02  2.84238024E-20  8.42881222E-18
 -1.64236267E-17  4.27153564E-18  3.95508663E-03 -1.03864308E-23  5.82508000E-20
 -1.50249906E-19  1.47924478E-20  3.60841785E-05  8.47588933E-19  7.38284045E-16
  1.56471554E-17  1.05130137E-20  3.94391577E-16 -8.52497866E-16  5.09738137E-16
 -8.95231794E-17  1.34980590E+00  0.00000000E+00  0.00000000E+00  0.00000000E+00
  1.50522868E-14  3.30145756E-11 -1.68108736E-05  4.78645260E-05 -7.11928806E-07
  1.27587580E-20  2.13359221E-09 -5.26525628E-04  1.23463263E-03  2.57411811E-04
  9.47908828E-19 -2.35831670E-05 -5.15692087E-02  8.98746061E-02  1.97750227E-02
  8.65029810E-17 -1.97527568E-04 -1.64150762E-01  2.55361743E-01 -6.25768614E-02
  8.60860567E-17 -2.40179723E-07 -4.68809445E-03  8.92248305E-03 -4.14150585E-03
 -2.83283290E-18  1.21681279E-10 -5.16869820E-05  1.33977879E-04 -3.65643908E-05
 -2.49257393E-20 -1.36980847E-04 -1.59042605E-01 -3.82402560E-03 -3.88299302E-06
 -1.77533291E-02 -1.92680085E+00  1.53453376E+00 -1.40541164E+00  5.53083576E-16
 -5.16098347E-01 -6.02423261E+00  5.08390209E-01  0.00000000E+00  1.50522868E-14
 -8.88127730E-23 -1.81264261E-19  4.66882359E-19  1.52779120E-19 -6.04879111E-05
 -7.39229307E-22  1.31075186E-19 -2.56484879E-19 -1.64912084E-19 -2.66828464E-04
  4.87093885E-19 -3.24383936E-18  2.55914190E-18  3.98392092E-18 -1.32527894E-02
 -1.11415070E-17 -1.07923361E-15  1.27668990E-15  8.76634861E-16 -2.35986142E-01
 -5.62516900E-18 -5.29922342E-16  8.78332733E-16  9.41109660E-17 -6.77733827E-02
  2.82163418E-20 -7.43646822E-18  1.66582675E-17  2.01036372E-18 -1.03579330E-03
  4.98300675E-20  9.81101196E-18 -1.41835078E-15 -1.81944861E-18 -6.16473462E-16
 -1.00941929E-14  3.25863173E-15  9.25916705E-15 -1.96855883E+00  7.53729457E-17
 -9.86776143E-16 -3.20159491E-16  1.14591399E-15 -4.89883315E-01 -3.24879367E-14
 -1.96260770E-26  1.30339392E-21 -3.85611571E-21 -7.56621967E-23 -8.15245427E-07
 -5.51924990E-24  1.39561233E-19 -3.48093592E-19 -7.11297620E-20 -2.79426159E-05
  4.56068744E-20  1.69536874E-17 -3.27632395E-17 -6.90780095E-18 -3.95805664E-03
 -1.07076417E-19  6.05396993E-18 -1.05173487E-17  1.20284597E-18 -1.77956807E-02
 -1.30284607E-21 -1.63757279E-18  3.45806655E-18 -1.05740629E-18 -5.35196149E-04
  5.80659448E-25 -9.12227925E-21  2.48968844E-20 -4.67215432E-21 -3.73106809E-06
  5.42609250E-20  1.10275589E-16 -3.73273126E-18 -1.32359384E-21 -4.79107286E-17
 -6.15375936E-17  9.97389631E-17 -2.60017046E-17 -5.06622245E-01  9.18869557E-16
  7.12579733E-15 -7.32441936E-15 -1.36019329E-15 -2.80199452E+00 -6.92914807E-16
  1.38112652E-14 -6.14861572E-23  2.11389415E-19 -5.49675254E-19  1.05343633E-19
 -4.64440722E-05 -2.02185226E-20  1.75603517E-17 -3.65829340E-17  8.67671247E-19
 -2.20435694E-03  1.05058976E-17  7.24263069E-16 -1.15307793E-15  1.51814661E-16
 -9.77200425E-02 -1.28385841E-18  2.97455406E-16 -3.84926510E-16  2.70920379E-16
 -8.62107666E-02 -1.61238281E-20 -3.31631022E-19  6.91206083E-19 -4.49172572E-19
 -1.98416190E-03  1.03864172E-22  2.27669026E-20 -5.20713813E-20  2.51970433E-20
 -5.00180321E-05  1.03460654E-17  4.20036814E-15 -1.34330786E-18 -2.24926802E-21
 -4.20930575E-17  1.26466359E-15 -6.08583233E-16  1.51659306E-15 -4.34988190E-01
  1.02347124E-15  1.39336431E-14  1.68280994E-15  1.28118119E-14 -2.44759008E+00
  2.51230708E-17  4.46848036E-15  4.02868244E-14 -2.99591020E-22 -2.19318107E-16
 -3.59122097E-16 -7.27827141E-17  8.62204634E-03  0.00000000E+00 -1.04286806E-17
 -2.42675659E-17  7.30635157E-18  3.27003538E-04  0.00000000E+00 -2.04652596E-20
 -7.40420344E-20  8.88410350E-21  6.84440798E-07  0.00000000E+00 -7.96463545E-22
 -3.21551912E-21 -6.54107621E-22  3.15312514E-08  0.00000000E+00 -1.55189023E-20
 -4.91334813E-20 -2.81881381E-20  6.92356220E-07  0.00000000E+00 -8.06203215E-18
 -1.50795137E-17 -1.25390637E-17  3.30411723E-04 -9.93467473E-18 -1.89339564E-21
 -1.29635773E-21 -7.01109081E-18  0.00000000E+00  0.00000000E+00  0.00000000E+00
  0.00000000E+00  0.00000000E+00  0.00000000E+00  0.00000000E+00  0.00000000E+00
  0.00000000E+00  0.00000000E+00 -2.39362795E-26  0.00000000E+00 -1.77169947E-26
 -8.68773356E-15 -5.80005515E-17 -1.42343940E-15 -1.72717073E-15 -3.03522135E-16
  8.16477102E-01 -5.57280476E-18 -4.59133947E-16 -7.51946086E-16  1.96720467E-16
  8.87884786E-02  1.28662887E-20 -7.86520252E-18 -1.77969918E-17  1.82543132E-18
  1.63393675E-03 -1.50140960E-22 -1.82523179E-19 -4.70028088E-19 -8.12606315E-20
  2.43669432E-04 -5.60299197E-21  5.45862324E-18  1.07488407E-17  5.29852877E-18
  2.06665757E-03  8.29544065E-18  1.93447369E-16  2.79384129E-16  1.96030646E-16
  1.03954374E-01 -5.14400700E-16 -1.10675496E-18  1.06370795E-18  3.06007020E-16
  0.00000000E+00 -1.09205902E-24 -5.81087214E-24 -1.22979443E-24 -7.35842241E-10
  0.00000000E+00  1.60575543E-23  4.25679230E-23  1.79036385E-24 -5.16126426E-09
  1.90280873E-22  4.50596471E-25 -1.14336663E-22 -2.15770627E-15 -8.68773356E-15
  9.60557184E-17  1.40647490E-15  1.39274566E-15  3.92208040E-16 -7.71522604E-01
  1.26034419E-17  5.72265752E-16  8.58294804E-16 -2.70651942E-16 -1.09265534E-01
 -4.70314975E-20  1.30580702E-17  2.83700608E-17 -3.09913341E-18 -2.64954468E-03
  6.09266953E-22  3.41457146E-19  8.70407929E-19  1.58894712E-19 -4.17696153E-04
  1.83301298E-20 -7.66079522E-18 -1.39563104E-17 -7.48790808E-18 -2.99271617E-03
 -1.51665640E-17 -1.65750758E-16 -2.03662691E-16 -1.87501989E-16 -1.01758513E-01
  4.64871217E-16  1.78919382E-18 -1.39407362E-18 -1.48424519E-16  0.00000000E+00
  5.81087214E-24  2.93199489E-23  6.30895706E-24  2.01329085E-07  0.00000000E+00
 -6.43857860E-23 -1.73062345E-22 -7.17880081E-24  2.06950604E-08 -2.53175954E-22
 -1.84610607E-24 -8.02668211E-23 -1.14868175E-16 -1.34081539E-15 -8.68773356E-15
  1.98815910E-17  3.41882655E-16  5.04960143E-16 -6.98625893E-16 -1.81817569E-01
 -3.90047803E-18 -2.01137037E-16 -3.54925197E-16 -8.88701091E-17  3.82216245E-02
  5.59728690E-21 -1.88284890E-18 -4.33862355E-18 -2.13715150E-18  3.84208406E-04
  1.23488045E-22  8.50960645E-20  2.23705683E-19 -2.26416998E-20 -1.06368727E-04
  1.02039671E-20 -5.22724220E-18 -1.04284708E-17 -3.37317213E-18 -2.03530878E-03
 -1.28769059E-17 -1.63076401E-16 -2.58819583E-16 -1.06462417E-16 -9.93756440E-02
 -4.78498255E-16 -6.28066670E-19 -1.36042775E-18 -3.81367085E-16  0.00000000E+00
  1.22979443E-24  6.30895706E-24  5.20198246E-25  5.55177176E-10  0.00000000E+00
 -1.79036385E-24 -4.74618171E-24  4.83327431E-24  5.75463784E-10 -1.83617475E-22
 -8.59282895E-26 -4.22855309E-23  0.00000000E+00  0.00000000E+00  0.00000000E+00
 -8.68773356E-15  4.59360270E-03  9.12979213E-01  1.10676809E+00  2.01560117E-01
 -8.19245114E-16  6.86582138E-05  1.01502930E-01  1.63627656E-01 -4.43206563E-02
 -1.68794926E-16 -1.83076736E-07  1.77486277E-03  4.08008876E-03 -4.25843828E-04
 -2.46624398E-18 -1.34867576E-08  2.57088468E-04  6.61775716E-04  1.13854932E-04
 -7.26856681E-20 -6.59201656E-08  2.18980356E-03  4.34201700E-03  2.18718696E-03
  1.46993503E-18  1.23209165E-04  1.14150451E-01  1.48930812E-01  1.10210577E-01
  5.33482292E-17  8.57527305E-02  1.96747672E-04  2.72046160E-04  9.99534733E-02
  0.00000000E+00  7.35842241E-10  2.01329085E-07  5.55177176E-10 -2.40114181E-24
  0.00000000E+00 -5.16126426E-09 -1.36823015E-08 -5.75463784E-10  5.03289392E-24
  8.90377770E-08 -1.95491369E-10  2.26215435E-08  3.90505053E-01  4.55822672E+00
  5.08390209E-01  0.00000000E+00 -8.68773356E-15  0.00000000E+00  1.72891277E-17
  4.02272880E-17 -1.05753333E-17  4.82589514E-04  0.00000000E+00  4.23030998E-20
  1.35447050E-19 -6.78219408E-20  1.37902919E-06  0.00000000E+00  1.93267437E-23
  8.67417529E-23 -2.57847086E-23  6.54673440E-10  0.00000000E+00  3.58605698E-24
  1.75732655E-23 -2.86758328E-25  1.07944535E-10  0.00000000E+00  1.42001437E-21
  5.72199975E-21  1.29171004E-21  3.74966894E-08  0.00000000E+00  3.11641281E-18
  8.54477385E-18  2.01747324E-18  7.92456398E-05  6.48172514E-20  1.64354666E-24
  6.00823237E-22  2.37260891E-17  0.00000000E+00  0.00000000E+00  0.00000000E+00
  0.00000000E+00  0.00000000E+00  0.00000000E+00  0.00000000E+00  0.00000000E+00
  0.00000000E+00  0.00000000E+00  0.00000000E+00  0.00000000E+00  0.00000000E+00
  4.78719955E-21  6.02754409E-16  6.77015362E-16 -6.89579599E-16  2.23598471E-02
  1.50522868E-14 -2.20765963E-18  1.68122446E-16  2.42449475E-16 -5.94023729E-17
  1.50383355E-01 -1.77884802E-20 -1.00085902E-17 -1.91414485E-17  8.78249782E-18
  4.51696229E-03  7.77587485E-24 -8.33336010E-20 -2.15038790E-19  5.85075046E-20
  5.11569302E-05 -4.55107486E-25  4.02275935E-20  1.14332583E-19 -1.69942044E-21
  1.66732495E-05 -1.90842626E-22  2.99096774E-18  6.97311901E-18  1.44918267E-18
  5.14410132E-04  1.62813852E-18  2.39872163E-16  4.17893835E-16  9.07150280E-17
  4.77709940E-02 -1.30889896E-17 -1.09550469E-20  9.66965242E-19  9.12165888E-16
  0.00000000E+00  1.60575543E-23  6.43857860E-23  1.79036385E-24  5.16126426E-09
  0.00000000E+00  0.00000000E+00  0.00000000E+00  0.00000000E+00  0.00000000E+00
  6.92031628E-23  0.00000000E+00 -1.50674949E-24 -3.46382399E-16  6.79029246E-16
  1.69143920E-16 -1.91754051E-16  1.83998517E+00  3.73842194E-15  1.50522868E-14
  5.07815293E-18 -2.57073083E-16 -3.37538747E-16  1.01784602E-16 -1.97273207E-01
  5.57282821E-20  1.53295125E-17  2.69590673E-17 -1.36904233E-17 -7.20596412E-03
 -3.52340238E-23  1.77333616E-19  4.35283770E-19 -1.24223927E-19 -1.09934753E-04
  2.24012055E-24 -9.40221049E-20 -2.58022548E-19  3.98675943E-21 -3.87720490E-05
  7.98191698E-22 -5.89005965E-18 -1.30285998E-17 -2.88766704E-18 -1.00780771E-03
 -4.40179706E-18 -3.56695432E-16 -5.78242809E-16 -1.44703386E-16 -7.00455740E-02
  1.54069468E-17  2.30037236E-20 -1.75200934E-18 -9.36740489E-16  0.00000000E+00
 -4.25679230E-23 -1.73062345E-22 -4.74618171E-24 -1.36823015E-08  0.00000000E+00
  0.00000000E+00  0.00000000E+00  0.00000000E+00  0.00000000E+00 -1.76143704E-22
  0.00000000E+00  3.91258430E-24  3.79891495E-16 -6.64017828E-16  5.24466573E-17
  4.01184114E-16 -1.14787507E+00  1.50587840E-16  1.75775834E-15  1.50522868E-14
 -1.35055083E-18  7.46132606E-17  1.18123092E-16  4.30566838E-17  5.68168344E-02
 -2.84238024E-20 -8.42881222E-18 -1.64236267E-17  4.27153564E-18  3.95508663E-03
  1.03864308E-23 -5.82508000E-20 -1.50249906E-19  1.47924478E-20  3.60841785E-05
 -3.64000538E-26  1.70717014E-21  4.86594296E-21  1.26237639E-20  7.04447606E-07
  1.74722508E-22 -1.46005372E-18 -3.43894519E-18  2.43712345E-19 -2.49917221E-04
 -1.05311600E-18 -9.23926109E-17 -1.70734113E-16  5.17656807E-17 -1.80955469E-02
 -1.56471554E-17 -1.05130137E-20 -8.47588933E-19 -7.38284045E-16  0.00000000E+00
 -1.79036385E-24 -7.17880081E-24  4.83327431E-24 -5.75463784E-10  0.00000000E+00
  0.00000000E+00  0.00000000E+00  0.00000000E+00  0.00000000E+00 -3.85885249E-23
  0.00000000E+00 -1.16568256E-24 -3.94391577E-16  8.52497866E-16  5.09738137E-16
 -8.95231794E-17  1.34980590E+00  0.00000000E+00  0.00000000E+00  0.00000000E+00
  1.50522868E-14  1.97527568E-04  1.64150762E-01  2.55361743E-01 -6.25768614E-02
  8.60860567E-17  2.40179723E-07  4.68809445E-03  8.92248305E-03 -4.14150585E-03
 -2.83283290E-18 -1.21681279E-10  5.16869820E-05  1.33977879E-04 -3.65643908E-05
 -2.49257393E-20 -3.30145756E-11  1.68108736E-05  4.78645260E-05 -7.11928806E-07
  1.27587580E-20 -2.13359221E-09  5.26525628E-04  1.23463263E-03  2.57411811E-04
  9.47908828E-19  2.35831670E-05  5.15692087E-02  8.98746061E-02  1.97750227E-02
  8.65029810E-17  3.82402560E-03  3.88299302E-06  1.36980847E-04  1.59042605E-01
  0.00000000E+00  5.16126426E-09  2.06950604E-08  5.75463784E-10  5.03289392E-24
  0.00000000E+00  0.00000000E+00  0.00000000E+00  0.00000000E+00  0.00000000E+00
  1.31138739E-08  0.00000000E+00  7.26585893E-10  1.77533291E-02  1.92680085E+00
  1.53453376E+00 -1.40541164E+00  5.53083576E-16  5.16098347E-01  6.02423261E+00
  5.08390209E-01  0.00000000E+00  1.50522868E-14 -1.11415070E-17 -1.07923361E-15
 -1.27668990E-15 -8.76634861E-16  2.35986142E-01 -5.62516900E-18 -5.29922342E-16
 -8.78332733E-16 -9.41109660E-17  6.77733827E-02  2.82163418E-20 -7.43646822E-18
 -1.66582675E-17 -2.01036372E-18  1.03579330E-03 -8.88127730E-23 -1.81264261E-19
 -4.66882359E-19 -1.52779120E-19  6.04879111E-05 -7.39229307E-22  1.31075186E-19
  2.56484879E-19  1.64912084E-19  2.66828464E-04  4.87093885E-19 -3.24383936E-18
 -2.55914190E-18 -3.98392092E-18  1.32527894E-02 -1.41835078E-15 -1.81944861E-18
  4.98300675E-20  9.81101196E-18 -2.39362795E-26  1.90280873E-22  2.53175954E-22
  1.83617475E-22 -8.90377770E-08  0.00000000E+00  6.92031628E-23  1.76143704E-22
  3.85885249E-23 -1.31138739E-08 -1.86068658E-25  2.38820788E-24  6.61582336E-22
 -6.16473462E-16 -1.00941929E-14 -3.25863173E-15 -9.25916705E-15  1.96855883E+00
  7.53729457E-17 -9.86776143E-16  3.20159491E-16 -1.14591399E-15  4.89883315E-01
 -3.24879367E-14 -1.07076417E-19  6.05396993E-18  1.05173487E-17 -1.20284597E-18
  1.77956807E-02 -1.30284607E-21 -1.63757279E-18 -3.45806655E-18  1.05740629E-18
  5.35196149E-04  5.80659448E-25 -9.12227925E-21 -2.48968844E-20  4.67215432E-21
  3.73106809E-06 -1.96260770E-26  1.30339392E-21  3.85611571E-21  7.56621967E-23
  8.15245427E-07 -5.51924990E-24  1.39561233E-19  3.48093592E-19  7.11297620E-20
  2.79426159E-05  4.56068744E-20  1.69536874E-17  3.27632395E-17  6.90780095E-18
  3.95805664E-03 -3.73273126E-18 -1.32359384E-21  5.42609250E-20  1.10275589E-16
  0.00000000E+00  4.50596471E-25  1.84610607E-24  8.59282895E-26  1.95491369E-10
  0.00000000E+00  0.00000000E+00  0.00000000E+00  0.00000000E+00  0.00000000E+00
  2.38820788E-24  0.00000000E+00 -1.30437357E-25 -4.79107286E-17 -6.15375936E-17
 -9.97389631E-17  2.60017046E-17  5.06622245E-01  9.18869557E-16  7.12579733E-15
  7.32441936E-15  1.36019329E-15  2.80199452E+00 -6.92914807E-16  1.38112652E-14
 -1.28385841E-18  2.97455406E-16  3.84926510E-16 -2.70920379E-16  8.62107666E-02
 -1.61238281E-20 -3.31631022E-19 -6.91206083E-19  4.49172572E-19  1.98416190E-03
  1.03864172E-22  2.27669026E-20  5.20713813E-20 -2.51970433E-20  5.00180321E-05
 -6.14861572E-23  2.11389415E-19  5.49675254E-19 -1.05343633E-19  4.64440722E-05
 -2.02185226E-20  1.75603517E-17  3.65829340E-17 -8.67671247E-19  2.20435694E-03
  1.05058976E-17  7.24263069E-16  1.15307793E-15 -1.51814661E-16  9.77200425E-02
 -1.34330786E-18 -2.24926802E-21  1.03460654E-17  4.20036814E-15 -1.77169947E-26
 -1.14336663E-22  8.02668211E-23  4.22855309E-23 -2.26215435E-08  0.00000000E+00
 -1.50674949E-24 -3.91258430E-24  1.16568256E-24 -7.26585893E-10  6.61582336E-22
 -1.30437357E-25  0.00000000E+00 -4.20930575E-17  1.26466359E-15  6.08583233E-16
 -1.51659306E-15  4.34988190E-01  1.02347124E-15  1.39336431E-14 -1.68280994E-15
 -1.28118119E-14  2.44759008E+00  2.51230708E-17  4.46848036E-15  4.02868244E-14
Multipole Matrix (0,1,1)                   R   N=        1830
 -4.00029000E-16 -9.93521585E-17 -4.00029000E-16  0.00000000E+00  0.00000000E+00
 -4.00029000E-16 -5.45641570E-17 -6.36908017E-16  0.00000000E+00 -4.00029000E-16
  3.78533143E-02  4.41848287E-01  0.00000000E+00  5.08390209E-01 -4.00029000E-16
 -3.90865781E-21 -4.18489571E-16  4.48796966E-16 -5.18065970E-16  6.00497311E-03
 -1.20061914E-14 -2.34068790E-17 -1.59801528E-15  1.01278684E-15 -1.80429784E-15
  3.64838639E-01 -2.98188640E-15 -1.20061914E-14 -2.90445533E-17 -1.28464120E-15
  1.07923193E-16 -1.68026363E-15  2.57326704E-01  0.00000000E+00  0.00000000E+00
 -1.20061914E-14  3.00007782E-17  6.10577678E-16 -6.35505192E-16  2.77667665E-16
 -1.40634207E-01 -3.45053927E-16 -4.02769188E-15  0.00000000E+00 -1.20061914E-14
  1.75924100E-03  4.51910382E-01 -3.11324132E-01  5.01236911E-01 -1.09173798E-15
  1.79654531E-01  2.09704350E+00  0.00000000E+00  5.08390209E-01 -1.20061914E-14
  0.00000000E+00 -1.36707800E-17  2.98662043E-17 -1.03676157E-17  1.91889058E-04
 -9.25742882E-21 -3.10222671E-16  5.07389688E-16  9.29649933E-17  5.17785728E-03
 -7.97775907E-15 -1.00051664E-18 -1.87479762E-16  2.49050467E-16 -1.73594935E-16
  4.76024572E-02 -4.47498069E-16 -3.63594756E-15  3.85242737E-15 -4.24914063E-16
  6.15570393E-01 -1.98137531E-15 -7.97775907E-15 -2.18172015E-18 -2.82217394E-16
  3.36325168E-16 -2.62652407E-16  6.50826061E-02 -7.22881074E-16 -3.71291632E-15
  3.03545465E-15 -1.89624205E-16  6.31845767E-01  0.00000000E+00  0.00000000E+00
 -7.97775907E-15  6.33486841E-19 -9.44064800E-18  4.18024259E-18 -4.04987270E-17
  9.19393283E-04 -1.59642253E-16 -1.93468554E-15  2.26665087E-15 -1.92195126E-15
  2.78823186E-01 -2.90484711E-16 -3.39072481E-15  0.00000000E+00 -7.97775907E-15
  6.14587762E-05  5.34655018E-02 -7.38469396E-02  4.73264933E-02 -8.69901354E-17
  6.31274761E-03  5.92308212E-01 -6.10536274E-01  2.53812978E-02 -2.13693789E-15
  1.41800422E-01  1.65518594E+00  0.00000000E+00  5.08390209E-01 -7.97775907E-15
  0.00000000E+00 -1.39064913E-19  3.62163527E-19  8.97404930E-20 -1.10132310E-05
  0.00000000E+00 -3.70727949E-19  6.43294802E-19  6.15740747E-19 -3.65231298E-05
 -1.10903377E-21 -8.24562864E-18  3.73974294E-18  1.21524030E-17 -8.34842095E-04
 -4.00029000E-16 -1.39064913E-19 -3.89110417E-19  1.13323369E-18 -7.13054511E-19
  6.55017803E-04 -1.98010856E-17 -1.34936015E-16  1.79957284E-16  6.63414982E-17
  4.60572764E-02 -2.66355942E-16 -5.16033325E-16  2.33083902E-16  1.48761567E-16
  2.50420899E-01 -9.93521585E-17 -4.00029000E-16 -3.62163527E-19 -1.13323369E-18
  2.76653175E-18 -1.04395961E-18  1.16410291E-03 -3.41458945E-17 -1.39828384E-16
  1.47799790E-16  8.47089258E-17  5.05450603E-02 -1.34742512E-16 -1.48258166E-16
 -2.60564866E-16  8.68926586E-17  8.12777921E-02  0.00000000E+00  0.00000000E+00
 -4.00029000E-16 -8.97404930E-20  7.13054511E-19 -1.04395961E-18 -8.97401637E-19
  9.83286847E-03 -3.07005262E-17 -1.94342927E-16  2.62122343E-16  7.88034116E-17
  6.74459011E-02 -4.12809068E-16 -7.81023376E-16  3.81634661E-16  2.58106717E-16
  3.93235531E-01  5.45641570E-17  6.36908017E-16  0.00000000E+00 -4.00029000E-16
  1.10132310E-05 -6.55017803E-04  1.16410291E-03  9.83286847E-03 -1.02672014E-18
  2.36741017E-04  3.37765636E-02 -3.60584661E-02 -9.26238990E-03 -8.65851899E-17
  4.54835762E-03  1.40055728E-01 -4.85861729E-02  4.41677016E-03 -5.37285585E-16
 -3.78533143E-02 -4.41848287E-01  0.00000000E+00  5.08390209E-01 -4.00029000E-16
  0.00000000E+00 -1.98010856E-17  3.41458945E-17  3.07005262E-17 -2.36741017E-04
  0.00000000E+00 -4.17824173E-18  3.51599902E-18  1.06334747E-17 -5.23246854E-05
  0.00000000E+00 -1.85931559E-17 -8.57190154E-18  4.24275537E-17 -2.28399074E-04
 -3.90865781E-21 -4.18489571E-16 -4.48796966E-16  5.18065970E-16 -6.00497311E-03
 -1.20061914E-14 -3.70727949E-19 -1.34936015E-16  1.39828384E-16  1.94342927E-16
 -3.37765636E-02 -4.17824173E-18 -1.16880303E-17  1.09993037E-17  2.69749887E-17
  3.11140867E-03 -1.18565305E-17 -3.57971136E-17 -1.57705248E-17  7.46787649E-17
 -1.58200304E-03 -2.34068790E-17 -1.59801528E-15 -1.01278684E-15  1.80429784E-15
 -3.64838639E-01 -2.98188640E-15 -1.20061914E-14 -6.43294802E-19 -1.79957284E-16
  1.47799790E-16  2.62122343E-16 -3.60584661E-02 -3.51599902E-18 -1.09993037E-17
 -5.30403440E-19  2.57769794E-17  1.78675087E-03  5.46791958E-18  1.94891132E-17
 -2.17680238E-17 -4.03330988E-17  2.28725616E-04  2.90445533E-17  1.28464120E-15
  1.07923193E-16 -1.68026363E-15  2.57326704E-01  0.00000000E+00  0.00000000E+00
 -1.20061914E-14 -6.15740747E-19 -6.63414982E-17  8.47089258E-17  7.88034116E-17
 -9.26238990E-03 -1.06334747E-17 -2.69749887E-17  2.57769794E-17  5.66597771E-17
  1.49539132E-02 -2.71454340E-17 -6.21930224E-17 -3.14334991E-17  1.17851179E-16
  2.15405728E-02 -3.00007782E-17 -6.10577678E-16 -6.35505192E-16  2.77667665E-16
 -1.40634207E-01  3.45053927E-16  4.02769188E-15  0.00000000E+00 -1.20061914E-14
  3.65231298E-05 -4.60572764E-02  5.05450603E-02  6.74459011E-02 -8.65851899E-17
  5.23246854E-05 -3.11140867E-03  1.78675087E-03  1.49539132E-02 -3.08415684E-17
  1.75009877E-04 -1.97153892E-02 -5.94483605E-03  5.17823611E-02 -8.56065032E-17
 -1.75924100E-03 -4.51910382E-01 -3.11324132E-01  5.01236911E-01 -1.09173798E-15
 -1.79654531E-01 -2.09704350E+00  0.00000000E+00  5.08390209E-01 -1.20061914E-14
 -1.10903377E-21 -2.66355942E-16  1.34742512E-16  4.12809068E-16 -4.54835762E-03
  0.00000000E+00 -1.18565305E-17 -5.46791958E-18  2.71454340E-17 -1.75009877E-04
  0.00000000E+00 -2.77241654E-18 -4.88584636E-18  5.60087769E-18 -4.12421510E-05
  0.00000000E+00 -1.36707800E-17 -2.98662043E-17  1.03676157E-17 -1.91889058E-04
 -9.25742882E-21 -3.10222671E-16 -5.07389688E-16 -9.29649933E-17 -5.17785728E-03
 -7.97775907E-15 -8.24562864E-18 -5.16033325E-16  1.48258166E-16  7.81023376E-16
 -1.40055728E-01 -1.85931559E-17 -3.57971136E-17 -1.94891132E-17  6.21930224E-17
  1.97153892E-02 -2.77241654E-18 -7.75797402E-18 -1.52892494E-17  1.22372060E-17
  2.45305857E-03 -1.00051664E-18 -1.87479762E-16 -2.49050467E-16  1.73594935E-16
 -4.76024572E-02 -4.47498069E-16 -3.63594756E-15 -3.85242737E-15  4.24914063E-16
 -6.15570393E-01 -1.98137531E-15 -7.97775907E-15 -3.73974294E-18 -2.33083902E-16
 -2.60564866E-16  3.81634661E-16 -4.85861729E-02  8.57190154E-18  1.57705248E-17
 -2.17680238E-17 -3.14334991E-17 -5.94483605E-03  4.88584636E-18  1.52892494E-17
  2.15588796E-17 -2.60017086E-17 -2.95012330E-03  2.18172015E-18  2.82217394E-16
  3.36325168E-16 -2.62652407E-16  6.50826061E-02  7.22881074E-16  3.71291632E-15
  3.03545465E-15 -1.89624205E-16  6.31845767E-01  0.00000000E+00  0.00000000E+00
 -7.97775907E-15 -1.21524030E-17 -1.48761567E-16  8.68926586E-17  2.58106717E-16
  4.41677016E-03 -4.24275537E-17 -7.46787649E-17 -4.03330988E-17  1.17851179E-16
  5.17823611E-02 -5.60087769E-18 -1.22372060E-17 -2.60017086E-17  1.57105587E-17
  1.29244165E-02 -6.33486841E-19  9.44064800E-18  4.18024259E-18 -4.04987270E-17
  9.19393283E-04  1.59642253E-16  1.93468554E-15  2.26665087E-15 -1.92195126E-15
  2.78823186E-01  2.90484711E-16  3.39072481E-15  0.00000000E+00 -7.97775907E-15
  8.34842095E-04 -2.50420899E-01  8.12777921E-02  3.93235531E-01 -5.37285585E-16
  2.28399074E-04  1.58200304E-03  2.28725616E-04  2.15405728E-02 -8.56065032E-17
  4.12421510E-05 -2.45305857E-03 -2.95012330E-03  1.29244165E-02 -2.04702164E-17
 -6.14587762E-05 -5.34655018E-02 -7.38469396E-02  4.73264933E-02 -8.69901354E-17
 -6.31274761E-03 -5.92308212E-01 -6.10536274E-01  2.53812978E-02 -2.13693789E-15
 -1.41800422E-01 -1.65518594E+00  0.00000000E+00  5.08390209E-01 -7.97775907E-15
 -3.70163163E-18 -1.10010554E-15  3.85209463E-16 -1.65702508E-15  1.42230942E-01
 -8.06993401E-16 -1.17602515E-14 -3.52105808E-15 -1.27482911E-14  1.15227879E+00
 -4.58783803E-17 -1.89733591E-15 -1.94007890E-15 -1.89545219E-15  2.02951727E-01
 -1.45302389E-20 -3.72806288E-17 -3.94307107E-17 -6.22577357E-17  6.88123225E-03
 -1.18313588E-19 -1.64491208E-18 -1.25669761E-18 -4.69403273E-18  4.84555312E-04
 -5.76672108E-19 -1.20039237E-17  9.59435492E-19 -2.91646027E-17  2.89903176E-03
 -3.83949477E-14 -5.82577432E-20 -4.29678877E-17  6.24850066E-17 -4.84031988E-17
  8.01795401E-03 -6.56073501E-17 -1.70550969E-15  2.12845578E-15 -9.48477345E-16
  1.99718129E-01 -5.36183894E-16 -7.81348361E-15  4.89440494E-15 -7.38681936E-15
  9.09426298E-01 -1.01821889E-18 -4.85010165E-16  8.81357625E-17 -8.20576078E-16
  7.27286668E-02 -9.18903355E-19 -4.30075666E-18  4.38730797E-18 -1.17966442E-17
 -3.05964390E-04 -7.84893969E-20 -1.09133932E-18  1.74559715E-18 -2.75320907E-18
  3.81991938E-04 -1.58403397E-15 -2.55093537E-14 -1.45302389E-20 -3.72806288E-17
  3.94307107E-17  6.22577357E-17 -6.88123225E-03 -1.18313588E-19 -1.64491208E-18
  1.25669761E-18  4.69403273E-18 -4.84555312E-04 -5.76672108E-19 -1.20039237E-17
 -9.59435492E-19  2.91646027E-17 -2.89903176E-03 -3.70163163E-18 -1.10010554E-15
 -3.85209463E-16  1.65702508E-15 -1.42230942E-01 -8.06993401E-16 -1.17602515E-14
  3.52105808E-15  1.27482911E-14 -1.15227879E+00 -4.58783803E-17 -1.89733591E-15
  1.94007890E-15  1.89545219E-15 -2.02951727E-01 -3.38316183E-20 -7.87675570E-19
 -3.83949477E-14 -1.01821889E-18 -4.85010165E-16 -8.81357625E-17  8.20576078E-16
 -7.27286668E-02 -9.18903355E-19 -4.30075666E-18 -4.38730797E-18  1.17966442E-17
  3.05964390E-04 -7.84893969E-20 -1.09133932E-18 -1.74559715E-18  2.75320907E-18
 -3.81991938E-04 -5.82577432E-20 -4.29678877E-17 -6.24850066E-17  4.84031988E-17
 -8.01795401E-03 -6.56073501E-17 -1.70550969E-15 -2.12845578E-15  9.48477345E-16
 -1.99718129E-01 -5.36183894E-16 -7.81348361E-15 -4.89440494E-15  7.38681936E-15
 -9.09426298E-01 -7.87675570E-19 -2.24366398E-20 -1.58403397E-15 -2.55093537E-14
  0.00000000E+00 -1.62509359E-22  6.54197689E-22  1.42738389E-22 -6.43360429E-09
  0.00000000E+00 -2.83489276E-21  8.95394176E-21  5.32361255E-21 -1.23524789E-07
  0.00000000E+00 -1.48536058E-18  2.76608751E-18  2.39390433E-18 -5.93133953E-05
 -6.11197315E-23 -4.47485044E-17  7.27557696E-17  1.73863227E-17 -1.75918854E-03
  0.00000000E+00 -2.34754852E-18  5.43392195E-18 -1.53158071E-18 -7.48172780E-05
  0.00000000E+00 -4.63871087E-21  1.67163717E-20 -1.77618618E-21 -1.57368177E-07
 -2.27454510E-22 -1.24680685E-18 -2.31084205E-18 -4.45014269E-22 -1.77261576E-15
 -3.06206413E-23 -3.72540806E-20  8.12977335E-20  8.82978696E-20 -4.97360046E-05
 -2.45178039E-20 -1.80167409E-18  3.39887520E-18  4.11708999E-19  6.79174712E-04
 -7.92836015E-18 -3.36653643E-17  5.56859435E-17  1.64682090E-18  1.73889030E-02
 -1.18300115E-17 -2.90397926E-16  3.03372101E-16  3.02039330E-16 -1.66565157E-01
 -1.29657894E-17 -2.71065582E-16  4.12485697E-16 -2.31967882E-17 -5.66968299E-02
 -1.77675819E-20 -6.64729400E-18  1.32436252E-17  1.03779308E-18 -1.43342752E-03
 -5.75282800E-19 -9.20279535E-17 -3.90500052E-16 -1.36439178E-18 -4.40251087E-16
 -1.77261576E-15 -1.23448992E-22 -8.51340998E-20  1.79850576E-19  1.92714724E-19
 -1.06422334E-04 -7.72649223E-20 -3.12810068E-18  5.59013956E-18  9.00457526E-19
  1.18521119E-03 -1.47404304E-17 -4.01600581E-17  5.66420939E-17  1.00802864E-17
  2.05053202E-02 -1.98675218E-17 -3.41723284E-16  2.89944837E-16  3.54080906E-16
 -1.81724293E-01 -3.00562861E-17 -3.80556619E-16  5.24391243E-16 -4.59860368E-17
 -8.15997718E-02 -6.41035166E-20 -1.30557389E-17  2.45435909E-17  1.98633251E-18
 -2.83393798E-03 -9.22872811E-19 -6.66430281E-17 -4.35742965E-16 -2.70694622E-18
  0.00000000E+00  0.00000000E+00 -1.77261576E-15 -2.91496261E-23  5.82905825E-20
 -1.24969668E-19 -6.82304823E-21  8.19809106E-05 -4.50854708E-20 -3.22004454E-18
  6.00839471E-18  1.26677756E-18  1.22504786E-03 -1.25592873E-17 -6.28828528E-17
  9.53843653E-17  1.75053298E-17  3.42494951E-02 -2.70456146E-18  1.98769187E-16
 -1.98327939E-16 -1.48338456E-16  8.21684721E-02  9.38309132E-18  2.07821133E-16
 -3.24602006E-16 -5.74999380E-17  4.17806166E-02  8.24737609E-21  4.15551795E-18
 -8.31092228E-18 -1.84299947E-18  8.83449454E-04 -1.03830126E-18 -1.75294686E-16
  4.67758147E-16  1.19782028E-18  1.14868175E-16  1.34081539E-15  0.00000000E+00
 -1.77261576E-15  2.75054484E-09 -5.24736297E-05  1.13908539E-04  1.26930735E-04
 -1.48342551E-20  3.13003539E-07  6.08281415E-04 -1.03333301E-03 -5.21347169E-05
 -7.99415267E-19  1.13916163E-04  8.86457755E-03 -9.67038689E-03  9.02140678E-03
 -3.48704477E-17 -9.36943396E-04 -1.86262191E-01  2.01466840E-01  1.60381568E-01
 -1.67138894E-16 -1.52959251E-04 -5.28510767E-02  7.55007400E-02 -5.73773494E-03
 -1.15669704E-16 -2.61792069E-07 -1.41646412E-03  2.79230256E-03  2.06213650E-04
 -2.23073166E-18  1.36249499E-04  1.58187361E-02 -5.37035735E-02 -2.31761447E-04
 -7.96773295E-02 -9.30045156E-01  0.00000000E+00  5.08390209E-01 -1.77261576E-15
  0.00000000E+00 -3.64165071E-25  1.78059819E-24 -6.20104225E-26  1.10345514E-11
  0.00000000E+00 -1.62926504E-22  6.54334579E-22  1.35512273E-22  4.39328866E-09
  0.00000000E+00 -3.36436872E-19  9.18824932E-19  1.92216372E-19  8.72291691E-06
  0.00000000E+00 -1.56443820E-18  3.62947969E-18 -1.09237365E-18  4.31555204E-05
  0.00000000E+00 -3.29244848E-21  1.05359405E-20 -5.63456653E-21  1.02690501E-07
  0.00000000E+00 -1.58645159E-24  7.11428687E-24 -2.29031363E-24  5.25086172E-11
 -7.29163691E-23 -2.65782261E-18 -4.68657191E-21 -1.27484206E-25  1.54951459E-22
 -5.06092903E-17  5.40812929E-17 -6.12076467E-17  1.69429732E-03 -1.43858870E-15
 -1.17481187E-25 -1.06005900E-20  2.74152587E-20 -1.08310361E-20  4.41500906E-06
 -1.05604536E-21 -1.50683517E-18  3.26323535E-18  1.70673256E-19  2.62648993E-04
 -1.55501583E-18 -7.22354231E-17  1.20440390E-16 -6.30021084E-18  1.52438012E-02
 -3.74300238E-19 -4.57640378E-18  7.25422021E-18 -1.91618681E-17  7.55329998E-04
 -3.66094489E-20 -2.45045001E-18  4.69904653E-18 -7.12279063E-19 -1.08422940E-03
 -1.10441475E-23 -2.01312089E-20  4.85868128E-20  4.13239988E-21 -1.22561293E-05
 -6.50279532E-19 -3.54098798E-16 -4.50694980E-18 -4.55231716E-21 -6.39638441E-17
 -2.76277964E-17  4.61030513E-17 -2.98115417E-17 -1.07640607E-01 -3.57291327E-16
 -1.43858870E-15 -5.73973331E-25 -2.74441949E-20  6.78359935E-20 -2.80211721E-20
  1.14225323E-05 -4.24806542E-21 -3.23659408E-18  6.61884740E-18  3.83353965E-19
  5.66607608E-04 -4.25316637E-18 -1.14640015E-16  1.77608506E-16 -7.73107614E-18
  2.46555858E-02 -8.69591262E-19 -1.07743243E-17  1.61763489E-17 -2.92151618E-17
  8.19933461E-04 -1.16833692E-19 -4.30842163E-18  7.85969130E-18 -1.46290925E-18
 -1.91765714E-03 -4.94444628E-23 -4.78811267E-20  1.10458952E-19  9.42001436E-21
 -2.91204836E-05 -1.29792505E-18 -4.15375217E-16 -6.17898910E-18 -1.07028318E-20
 -6.89299568E-17 -3.70519224E-17  6.26441580E-18 -4.93078654E-17 -7.27053595E-02
  0.00000000E+00  0.00000000E+00 -1.43858870E-15 -4.22713360E-27 -9.95300065E-21
  2.57565165E-20 -3.32317382E-21  4.13069329E-06 -9.86983407E-22 -1.29575632E-18
  2.82005338E-18 -1.24438568E-19  2.25038209E-04 -1.05249954E-18 -6.06087220E-17
  1.02191713E-16 -1.63168294E-17  1.22071328E-02  2.71313651E-19 -2.29521978E-17
  3.27258971E-17 -5.11340435E-18  1.79095347E-02  5.95433795E-20  3.62357544E-18
 -6.90746237E-18  1.12058723E-18  1.63526272E-03  1.50891580E-23  3.25007194E-20
 -7.79604386E-20  3.58089185E-21  1.98888627E-05 -7.57158183E-19 -4.07956877E-16
  7.45460405E-18  7.08258410E-21  7.48789116E-17 -1.27894516E-16  5.63775361E-17
 -1.08389369E-16  2.40939989E-01 -1.50587840E-16 -1.75775834E-15  0.00000000E+00
 -1.43858870E-15  8.73008402E-12  4.41725900E-06 -1.14300135E-05  4.50429771E-06
 -3.34219754E-21  1.33592317E-08  2.59907987E-04 -5.59113017E-04 -2.96444879E-05
 -4.88072518E-19  2.19043025E-05  1.43443490E-02 -2.29761100E-02  9.27509127E-04
 -2.78022350E-17 -3.20366391E-05  4.38682509E-03 -6.57996048E-03  1.98614403E-02
 -6.43808565E-18 -4.69019840E-07 -9.98319874E-04  1.73123792E-03 -1.96507939E-04
 -1.08168932E-18 -1.78726063E-10 -1.20982551E-05  2.86402713E-05  2.68501322E-06
 -6.79141670E-21  9.02986516E-05  5.12494176E-02 -1.15256233E-03 -1.59194573E-06
 -3.03725553E-03 -1.84684849E-02  1.70996199E-02  1.48697431E-01 -1.63523182E-16
  4.93249468E-02  5.75752577E-01  0.00000000E+00  5.08390209E-01 -1.43858870E-15
 -1.54855842E-23 -1.75725465E-19  3.43101592E-19  2.60278962E-19 -6.07196528E-05
 -2.88903161E-21 -2.28545654E-20  6.79442678E-20 -2.37302030E-21  1.59394441E-05
 -4.60798307E-19 -2.17685149E-18  4.05181793E-18  4.29266661E-18 -3.60804879E-04
 -2.56373407E-18 -4.68340695E-16  4.89879137E-16  5.43044848E-16 -9.38885625E-02
 -1.39956075E-17 -4.71774227E-16  6.79509595E-16  2.06243516E-16 -6.58756161E-02
 -3.87783825E-20 -1.19383653E-17  2.19065958E-17  6.68066106E-18 -1.77729220E-03
 -1.64586503E-20 -3.06887557E-18 -1.49358953E-15 -4.38478291E-18 -1.40781359E-16
 -3.97700154E-15  8.42817218E-16  4.74902199E-15 -6.74485973E-01 -5.87071343E-18
 -2.54236441E-16 -1.16443689E-16  4.11329638E-16 -5.89334820E-02 -1.72295379E-14
 -4.79008774E-27 -2.16743803E-22  5.83971991E-22 -3.38797844E-22  1.35968132E-07
 -2.95371035E-23 -6.16936323E-20  1.43092018E-19  4.47928456E-21  1.24318727E-05
 -4.31520146E-20 -4.30155475E-18  7.91743140E-18 -6.36896978E-19  1.03569633E-03
 -1.89525727E-20  1.22215403E-19 -9.72829333E-20 -5.18163815E-19 -6.83356959E-04
 -2.72843968E-21 -4.92997732E-19  9.96081756E-19 -6.82638057E-20 -1.62263261E-04
 -8.27182445E-25 -3.09021853E-21  7.79514081E-21  4.87864175E-22 -1.26588964E-06
 -3.33775257E-20 -3.55765187E-17 -1.50605863E-18 -7.08424434E-22 -9.13065584E-18
 -1.77730758E-17  2.98500960E-17  1.76359411E-17 -4.17597222E-02 -8.30306032E-17
 -4.10840605E-16  3.91835985E-16 -5.69111056E-16  1.81573861E-01 -1.77742433E-16
 -4.07729598E-16 -1.69298585E-23 -2.17649636E-19  4.65018535E-19 -2.09849564E-19
  4.90181162E-05 -9.08104926E-20 -1.88849438E-17  3.45288128E-17 -6.05369872E-18
  2.49063890E-03 -1.09193582E-17 -4.15417181E-16  5.89978457E-16 -2.14451980E-16
  5.97752679E-02 -1.99730923E-19 -6.95685323E-17  8.55864560E-17 -1.06006297E-16
  1.53092781E-02 -3.55933108E-20 -1.92922662E-19  5.16214592E-19 -2.73131864E-19
 -2.00583810E-04 -1.30447738E-22 -1.71648988E-21  5.86041525E-21 -9.77258076E-21
  6.56847184E-07 -1.43152868E-17 -2.68405900E-15 -3.91149176E-19 -5.62592970E-22
 -7.53281726E-18 -2.24761950E-16  1.04774931E-16 -4.12951133E-16  2.79694970E-02
 -1.17883242E-16 -3.65052497E-15 -7.73280919E-16 -4.62299556E-15  5.26636707E-01
 -2.04674834E-17 -9.25635904E-16 -1.62511233E-14 -6.11197315E-23 -4.47485044E-17
 -7.27557696E-17 -1.73863227E-17  1.75918854E-03  0.00000000E+00 -2.34754852E-18
 -5.43392195E-18  1.53158071E-18  7.48172780E-05  0.00000000E+00 -4.63871087E-21
 -1.67163717E-20  1.77618618E-21  1.57368177E-07  0.00000000E+00 -1.62509359E-22
 -6.54197689E-22 -1.42738389E-22  6.43360429E-09  0.00000000E+00 -2.83489276E-21
 -8.95394176E-21 -5.32361255E-21  1.23524789E-07  0.00000000E+00 -1.48536058E-18
 -2.76608751E-18 -2.39390433E-18  5.93133953E-05 -2.31084205E-18 -4.45014269E-22
 -2.27454510E-22 -1.24680685E-18  0.00000000E+00  0.00000000E+00  0.00000000E+00
  0.00000000E+00  0.00000000E+00  0.00000000E+00  0.00000000E+00  0.00000000E+00
  0.00000000E+00  0.00000000E+00 -4.52766787E-27  0.00000000E+00 -4.19942625E-27
 -1.77261576E-15 -1.18300115E-17 -2.90397926E-16 -3.03372101E-16 -3.02039330E-16
  1.66565157E-01 -1.29657894E-17 -2.71065582E-16 -4.12485697E-16  2.31967882E-17
  5.66968299E-02 -1.77675819E-20 -6.64729400E-18 -1.32436252E-17 -1.03779308E-18
  1.43342752E-03 -3.06206413E-23 -3.72540806E-20 -8.12977335E-20 -8.82978696E-20
  4.97360046E-05 -2.45178039E-20 -1.80167409E-18 -3.39887520E-18 -4.11708999E-19
 -6.79174712E-04 -7.92836015E-18 -3.36653643E-17 -5.56859435E-17 -1.64682090E-18
 -1.73889030E-02 -3.90500052E-16 -1.36439178E-18 -5.75282800E-19 -9.20279535E-17
  0.00000000E+00 -2.22820027E-25 -1.22979443E-24 -3.44730010E-26 -1.50138761E-10
  0.00000000E+00 -1.64934050E-23 -5.49283783E-23 -1.27478912E-23  5.30135660E-09
 -2.54373056E-22 -3.78498380E-25 -1.06923601E-21 -4.40251087E-16 -1.77261576E-15
  1.98675218E-17  3.41723284E-16  2.89944837E-16  3.54080906E-16 -1.81724293E-01
  3.00562861E-17  3.80556619E-16  5.24391243E-16 -4.59860368E-17 -8.15997718E-02
  6.41035166E-20  1.30557389E-17  2.45435909E-17  1.98633251E-18 -2.83393798E-03
  1.23448992E-22  8.51340998E-20  1.79850576E-19  1.92714724E-19 -1.06422334E-04
  7.72649223E-20  3.12810068E-18  5.59013956E-18  9.00457526E-19  1.18521119E-03
  1.47404304E-17  4.01600581E-17  5.66420939E-17  1.00802864E-17  2.05053202E-02
  4.35742965E-16  2.70694622E-18  9.22872811E-19  6.66430281E-17  0.00000000E+00
  1.22979443E-24  6.30895706E-24  5.20198246E-25  5.55177176E-10  0.00000000E+00
  5.49283783E-23  1.77759781E-22  4.24546050E-23 -1.76552338E-08  6.57310911E-22
  1.26373933E-24  2.96243470E-21  0.00000000E+00  0.00000000E+00 -1.77261576E-15
  2.70456146E-18 -1.98769187E-16 -1.98327939E-16 -1.48338456E-16  8.21684721E-02
 -9.38309132E-18 -2.07821133E-16 -3.24602006E-16 -5.74999380E-17  4.17806166E-02
 -8.24737609E-21 -4.15551795E-18 -8.31092228E-18 -1.84299947E-18  8.83449454E-04
  2.91496261E-23 -5.82905825E-20 -1.24969668E-19 -6.82304823E-21  8.19809106E-05
  4.50854708E-20  3.22004454E-18  6.00839471E-18  1.26677756E-18  1.22504786E-03
  1.25592873E-17  6.28828528E-17  9.53843653E-17  1.75053298E-17  3.42494951E-02
 -4.67758147E-16 -1.19782028E-18  1.03830126E-18  1.75294686E-16  0.00000000E+00
  3.44730010E-26  5.20198246E-25 -2.20474410E-25  1.98721393E-07  0.00000000E+00
 -9.06997174E-24 -3.02059423E-23 -4.96446401E-24  2.91529582E-09  4.83660234E-22
 -2.69464676E-25 -7.91471040E-22 -1.14868175E-16 -1.34081539E-15  0.00000000E+00
 -1.77261576E-15  9.36943396E-04  1.86262191E-01  2.01466840E-01  1.60381568E-01
 -1.67138894E-16  1.52959251E-04  5.28510767E-02  7.55007400E-02 -5.73773494E-03
 -1.15669704E-16  2.61792069E-07  1.41646412E-03  2.79230256E-03  2.06213650E-04
 -2.23073166E-18 -2.75054484E-09  5.24736297E-05  1.13908539E-04  1.26930735E-04
 -1.48342551E-20 -3.13003539E-07 -6.08281415E-04 -1.03333301E-03 -5.21347169E-05
 -7.99415267E-19 -1.13916163E-04 -8.86457755E-03 -9.67038689E-03  9.02140678E-03
 -3.48704477E-17  5.37035735E-02  2.31761447E-04 -1.36249499E-04 -1.58187361E-02
  0.00000000E+00  1.50138761E-10  5.55177176E-10  1.98721393E-07 -4.89920849E-25
  0.00000000E+00  5.30135660E-09  1.76552338E-08  4.09746305E-09 -5.16950190E-24
 -1.16857964E-07  1.64211598E-10  2.06488498E-07  7.96773295E-02  9.30045156E-01
  0.00000000E+00  5.08390209E-01 -1.77261576E-15  0.00000000E+00 -1.56443820E-18
 -3.62947969E-18  1.09237365E-18 -4.31555204E-05  0.00000000E+00 -3.29244848E-21
 -1.05359405E-20  5.63456653E-21 -1.02690501E-07  0.00000000E+00 -1.58645159E-24
 -7.11428687E-24  2.29031363E-24 -5.25086172E-11  0.00000000E+00 -3.64165071E-25
 -1.78059819E-24  6.20104225E-26 -1.10345514E-11  0.00000000E+00 -1.62926504E-22
 -6.54334579E-22 -1.35512273E-22 -4.39328866E-09  0.00000000E+00 -3.36436872E-19
 -9.18824932E-19 -1.92216372E-19 -8.72291691E-06 -4.68657191E-21 -1.27484206E-25
 -7.29163691E-23 -2.65782261E-18  0.00000000E+00  0.00000000E+00  0.00000000E+00
  0.00000000E+00  0.00000000E+00  0.00000000E+00  0.00000000E+00  0.00000000E+00
  0.00000000E+00  0.00000000E+00  0.00000000E+00  0.00000000E+00  0.00000000E+00
  1.54951459E-22 -5.06092903E-17 -5.40812929E-17  6.12076467E-17 -1.69429732E-03
 -1.43858870E-15 -3.74300238E-19 -4.57640378E-18 -7.25422021E-18  1.91618681E-17
 -7.55329998E-04 -3.66094489E-20 -2.45045001E-18 -4.69904653E-18  7.12279063E-19
  1.08422940E-03 -1.10441475E-23 -2.01312089E-20 -4.85868128E-20 -4.13239988E-21
  1.22561293E-05 -1.17481187E-25 -1.06005900E-20 -2.74152587E-20  1.08310361E-20
 -4.41500906E-06 -1.05604536E-21 -1.50683517E-18 -3.26323535E-18 -1.70673256E-19
 -2.62648993E-04 -1.55501583E-18 -7.22354231E-17 -1.20440390E-16  6.30021084E-18
 -1.52438012E-02 -4.50694980E-18 -4.55231716E-21 -6.50279532E-19 -3.54098798E-16
  0.00000000E+00 -1.64934050E-23 -5.49283783E-23  9.06997174E-24 -5.30135660E-09
  0.00000000E+00  0.00000000E+00  0.00000000E+00  0.00000000E+00  0.00000000E+00
 -7.85436250E-23  0.00000000E+00 -9.91820812E-25 -6.39638441E-17 -2.76277964E-17
 -4.61030513E-17  2.98115417E-17  1.07640607E-01 -3.57291327E-16 -1.43858870E-15
  8.69591262E-19  1.07743243E-17  1.61763489E-17 -2.92151618E-17  8.19933461E-04
  1.16833692E-19  4.30842163E-18  7.85969130E-18 -1.46290925E-18 -1.91765714E-03
  4.94444628E-23  4.78811267E-20  1.10458952E-19  9.42001436E-21 -2.91204836E-05
  5.73973331E-25  2.74441949E-20  6.78359935E-20 -2.80211721E-20  1.14225323E-05
  4.24806542E-21  3.23659408E-18  6.61884740E-18  3.83353965E-19  5.66607608E-04
  4.25316637E-18  1.14640015E-16  1.77608506E-16 -7.73107614E-18  2.46555858E-02
  6.17898910E-18  1.07028318E-20  1.29792505E-18  4.15375217E-16  0.00000000E+00
  5.49283783E-23  1.77759781E-22 -3.02059423E-23  1.76552338E-08  0.00000000E+00
  0.00000000E+00  0.00000000E+00  0.00000000E+00  0.00000000E+00  2.34284666E-22
  0.00000000E+00  3.14100146E-24  6.89299568E-17  3.70519224E-17  6.26441580E-18
 -4.93078654E-17 -7.27053595E-02  0.00000000E+00  0.00000000E+00 -1.43858870E-15
 -2.71313651E-19  2.29521978E-17  3.27258971E-17 -5.11340435E-18  1.79095347E-02
 -5.95433795E-20 -3.62357544E-18 -6.90746237E-18  1.12058723E-18  1.63526272E-03
 -1.50891580E-23 -3.25007194E-20 -7.79604386E-20  3.58089185E-21  1.98888627E-05
  4.22713360E-27  9.95300065E-21  2.57565165E-20 -3.32317382E-21  4.13069329E-06
  9.86983407E-22  1.29575632E-18  2.82005338E-18 -1.24438568E-19  2.25038209E-04
  1.05249954E-18  6.06087220E-17  1.02191713E-16 -1.63168294E-17  1.22071328E-02
 -7.45460405E-18 -7.08258410E-21  7.57158183E-19  4.07956877E-16  0.00000000E+00
  1.27478912E-23  4.24546050E-23 -4.96446401E-24  4.09746305E-09  0.00000000E+00
  0.00000000E+00  0.00000000E+00  0.00000000E+00  0.00000000E+00  7.42084438E-23
  0.00000000E+00 -1.62645977E-24 -7.48789116E-17  1.27894516E-16  5.63775361E-17
 -1.08389369E-16  2.40939989E-01  1.50587840E-16  1.75775834E-15  0.00000000E+00
 -1.43858870E-15  3.20366391E-05 -4.38682509E-03 -6.57996048E-03  1.98614403E-02
 -6.43808565E-18  4.69019840E-07  9.98319874E-04  1.73123792E-03 -1.96507939E-04
 -1.08168932E-18  1.78726063E-10  1.20982551E-05  2.86402713E-05  2.68501322E-06
 -6.79141670E-21 -8.73008402E-12 -4.41725900E-06 -1.14300135E-05  4.50429771E-06
 -3.34219754E-21 -1.33592317E-08 -2.59907987E-04 -5.59113017E-04 -2.96444879E-05
 -4.88072518E-19 -2.19043025E-05 -1.43443490E-02 -2.29761100E-02  9.27509127E-04
 -2.78022350E-17  1.15256233E-03  1.59194573E-06 -9.02986516E-05 -5.12494176E-02
  0.00000000E+00 -5.30135660E-09 -1.76552338E-08  2.91529582E-09 -5.16950190E-24
  0.00000000E+00  0.00000000E+00  0.00000000E+00  0.00000000E+00  0.00000000E+00
 -1.48654411E-08  0.00000000E+00  4.78276593E-10  3.03725553E-03  1.84684849E-02
  1.70996199E-02  1.48697431E-01 -1.63523182E-16 -4.93249468E-02 -5.75752577E-01
  0.00000000E+00  5.08390209E-01 -1.43858870E-15 -2.56373407E-18 -4.68340695E-16
 -4.89879137E-16 -5.43044848E-16  9.38885625E-02 -1.39956075E-17 -4.71774227E-16
 -6.79509595E-16 -2.06243516E-16  6.58756161E-02 -3.87783825E-20 -1.19383653E-17
 -2.19065958E-17 -6.68066106E-18  1.77729220E-03 -1.54855842E-23 -1.75725465E-19
 -3.43101592E-19 -2.60278962E-19  6.07196528E-05 -2.88903161E-21 -2.28545654E-20
 -6.79442678E-20  2.37302030E-21 -1.59394441E-05 -4.60798307E-19 -2.17685149E-18
 -4.05181793E-18 -4.29266661E-18  3.60804879E-04 -1.49358953E-15 -4.38478291E-18
 -1.64586503E-20 -3.06887557E-18 -4.52766787E-27 -2.54373056E-22 -6.57310911E-22
 -4.83660234E-22  1.16857964E-07  0.00000000E+00 -7.85436250E-23 -2.34284666E-22
 -7.42084438E-23  1.48654411E-08 -9.86789967E-26 -2.45298422E-24 -4.76437214E-21
 -1.40781359E-16 -3.97700154E-15 -8.42817218E-16 -4.74902199E-15  6.74485973E-01
 -5.87071343E-18 -2.54236441E-16  1.16443689E-16 -4.11329638E-16  5.89334820E-02
 -1.72295379E-14 -1.89525727E-20  1.22215403E-19  9.72829333E-20  5.18163815E-19
  6.83356959E-04 -2.72843968E-21 -4.92997732E-19 -9.96081756E-19  6.82638057E-20
  1.62263261E-04 -8.27182445E-25 -3.09021853E-21 -7.79514081E-21 -4.87864175E-22
  1.26588964E-06 -4.79008774E-27 -2.16743803E-22 -5.83971991E-22  3.38797844E-22
 -1.35968132E-07 -2.95371035E-23 -6.16936323E-20 -1.43092018E-19 -4.47928456E-21
 -1.24318727E-05 -4.31520146E-20 -4.30155475E-18 -7.91743140E-18  6.36896978E-19
 -1.03569633E-03 -1.50605863E-18 -7.08424434E-22 -3.33775257E-20 -3.55765187E-17
  0.00000000E+00 -3.78498380E-25 -1.26373933E-24  2.69464676E-25 -1.64211598E-10
  0.00000000E+00  0.00000000E+00  0.00000000E+00  0.00000000E+00  0.00000000E+00
 -2.45298422E-24  0.00000000E+00 -1.26994717E-25 -9.13065584E-18 -1.77730758E-17
 -2.98500960E-17 -1.76359411E-17  4.17597222E-02 -8.30306032E-17 -4.10840605E-16
 -3.91835985E-16  5.69111056E-16 -1.81573861E-01 -1.77742433E-16 -4.07729598E-16
 -1.99730923E-19 -6.95685323E-17 -8.55864560E-17  1.06006297E-16 -1.53092781E-02
 -3.55933108E-20 -1.92922662E-19 -5.16214592E-19  2.73131864E-19  2.00583810E-04
 -1.30447738E-22 -1.71648988E-21 -5.86041525E-21  9.77258076E-21 -6.56847184E-07
 -1.69298585E-23 -2.17649636E-19 -4.65018535E-19  2.09849564E-19 -4.90181162E-05
 -9.08104926E-20 -1.88849438E-17 -3.45288128E-17  6.05369872E-18 -2.49063890E-03
 -1.09193582E-17 -4.15417181E-16 -5.89978457E-16  2.14451980E-16 -5.97752679E-02
 -3.91149176E-19 -5.62592970E-22 -1.43152868E-17 -2.68405900E-15 -4.19942625E-27
 -1.06923601E-21 -2.96243470E-21  7.91471040E-22 -2.06488498E-07  0.00000000E+00
 -9.91820812E-25 -3.14100146E-24  1.62645977E-24 -4.78276593E-10 -4.76437214E-21
 -1.26994717E-25  0.00000000E+00 -7.53281726E-18 -2.24761950E-16 -1.04774931E-16
  4.12951133E-16 -2.79694970E-02 -1.17883242E-16 -3.65052497E-15  7.73280919E-16
  4.62299556E-15 -5.26636707E-01 -2.04674834E-17 -9.25635904E-16 -1.62511233E-14
Multipole Matrix (0,0,2)                   R   N=        1830
  3.10650896E-02  2.63532865E-02  8.41350389E-01  0.00000000E+00  0.00000000E+00
  5.08390209E-01  0.00000000E+00  0.00000000E+00  0.00000000E+00  5.08390209E-01
 -1.09128314E-16 -1.27381603E-15  0.00000000E+00  0.00000000E+00  1.52517063E+00
  6.56893082E-08  3.82669024E-03 -4.12288351E-03  4.65375179E-03 -3.24960854E-17
  3.10650896E-02  3.82669024E-03  3.34770192E-01 -1.97294320E-01  2.22698215E-01
 -1.77841925E-15  2.63532865E-02  8.41350389E-01  4.12288351E-03  1.97294320E-01
  9.52796011E-03  1.58363290E-01 -1.25855925E-15  0.00000000E+00  0.00000000E+00
  5.08390209E-01 -4.65375179E-03 -2.22698215E-01  1.58363290E-01 -2.89281251E-02
  1.42061312E-15  0.00000000E+00  0.00000000E+00  0.00000000E+00  5.08390209E-01
  3.96635252E-18 -1.22273851E-15  8.30957629E-16 -9.37952903E-16  4.49478737E-01
 -6.90107853E-16 -8.05538376E-15  0.00000000E+00  0.00000000E+00  1.52517063E+00
  0.00000000E+00  1.91607772E-04 -4.14654078E-04  1.38508286E-04 -1.09697684E-18
  6.62090453E-08  3.83073410E-03 -6.09815801E-03 -1.24400436E-03 -1.92883844E-17
  3.10650896E-02  1.91607772E-04  6.17353317E-02 -7.87564657E-02  2.63072852E-02
 -2.40515124E-16  3.83073410E-03  3.34960153E-01 -2.91612506E-01 -5.94880010E-02
 -2.33583748E-15  2.63532865E-02  8.41350389E-01  4.14654078E-04  7.87564657E-02
 -8.45455362E-02  3.58099404E-02 -3.28215932E-16  6.09815801E-03  2.91612506E-01
 -1.56428562E-01 -6.24958848E-02 -2.39690216E-15  0.00000000E+00  0.00000000E+00
  5.08390209E-01 -1.38508286E-04 -2.63072852E-02  3.58099404E-02  1.06974395E-02
  1.09635063E-16  1.24400436E-03  5.94880010E-02 -6.24958848E-02  1.37179751E-01
 -4.88960230E-16  0.00000000E+00  0.00000000E+00  0.00000000E+00  5.08390209E-01
  1.23800488E-19 -1.47713762E-16  2.05449368E-16 -6.86269384E-17  6.79774605E-02
 -2.61470542E-17 -2.44028133E-15  2.51564800E-15  5.13183995E-16  4.49786125E-01
 -5.80969421E-16 -6.78144962E-15  0.00000000E+00  0.00000000E+00  1.52517063E+00
  0.00000000E+00  4.45043950E-05 -1.14690104E-04 -2.33917038E-05  6.54686116E-20
  0.00000000E+00  1.91846304E-04 -3.27622250E-04 -2.90188448E-04  6.25047500E-19
  6.59921410E-08  3.82904972E-03 -1.97080071E-03 -5.90066913E-03  1.32438959E-17
  3.10650896E-02  4.45043950E-05  2.74072409E-02 -4.03539906E-02 -8.23042759E-03
  9.97548992E-18  1.91846304E-04  6.17784499E-02 -6.21941588E-02 -5.50879142E-02
 -8.48973544E-17  3.82904972E-03  3.34881044E-01 -9.42708966E-02 -2.82251455E-01
 -5.56103569E-16  2.63532865E-02  8.41350389E-01  1.14690104E-04  4.03539906E-02
 -5.26623519E-02 -1.26978340E-02  1.49474367E-17  3.27622250E-04  6.21941588E-02
 -4.41346133E-02 -5.91769596E-02 -9.53056748E-17  1.97080071E-03  9.42708966E-02
  1.17863369E-01 -9.58773541E-02 -1.73385404E-16  0.00000000E+00  0.00000000E+00
  5.08390209E-01  2.33917038E-05  8.23042759E-03 -1.26978340E-02  7.00564701E-03
  3.04861536E-18  2.90188448E-04  5.50879142E-02 -5.91769596E-02 -2.97393866E-02
 -8.44161403E-17  5.90066913E-03  2.82251455E-01 -9.58773541E-02 -1.37175229E-01
 -5.19123974E-16  0.00000000E+00  0.00000000E+00  0.00000000E+00  5.08390209E-01
 -6.54686116E-20 -9.97548992E-18  1.49474367E-17  3.04861536E-18  2.87863290E-02
 -1.44536836E-18 -2.42193123E-16  2.59521160E-16  2.29868523E-16  6.80282119E-02
 -3.01004426E-17 -1.21636446E-15  4.16098600E-16  1.24581859E-15  4.49658105E-01
  1.09128314E-16  1.27381603E-15  0.00000000E+00  0.00000000E+00  1.52517063E+00
  0.00000000E+00  1.91846304E-04 -3.27622250E-04 -2.90188448E-04  1.44536836E-18
  0.00000000E+00  4.45512879E-05 -3.70980651E-05 -1.11135718E-04  4.14448173E-19
  0.00000000E+00  1.91633907E-04  8.74522903E-05 -4.28393494E-04  1.72149495E-18
  6.56893082E-08  3.82669024E-03  4.12288351E-03 -4.65375179E-03  3.24960854E-17
  3.10650896E-02  1.91846304E-04  6.17784499E-02 -6.21941588E-02 -5.50879142E-02
  2.42193123E-16  4.45512879E-05  2.74231714E-02 -1.30471375E-02 -3.90856769E-02
  6.31181339E-17  1.91633907E-04  6.17400570E-02  1.66091307E-02 -8.13614315E-02
  1.55707819E-16  3.82669024E-03  3.34770192E-01  1.97294320E-01 -2.22698215E-01
  1.77841925E-15  2.63532865E-02  8.41350389E-01  3.27622250E-04  6.21941588E-02
 -4.41346133E-02 -5.91769596E-02  2.59521160E-16  3.70980651E-05  1.30471375E-02
  3.09695008E-03 -1.94852441E-02  3.05609280E-17 -8.74522903E-05 -1.66091307E-02
  1.78933740E-02  2.33547129E-02 -4.37723347E-17 -4.12288351E-03 -1.97294320E-01
  9.52796011E-03  1.58363290E-01 -1.25855925E-15  0.00000000E+00  0.00000000E+00
  5.08390209E-01  2.90188448E-04  5.50879142E-02 -5.91769596E-02 -2.97393866E-02
  2.29868523E-16  1.11135718E-04  3.90856769E-02 -1.94852441E-02 -4.87712008E-02
  9.15522320E-17  4.28393494E-04  8.13614315E-02  2.33547129E-02 -9.17443103E-02
  2.14423011E-16  4.65375179E-03  2.22698215E-01  1.58363290E-01 -2.89281251E-02
  1.42061312E-15  0.00000000E+00  0.00000000E+00  0.00000000E+00  5.08390209E-01
 -6.25047500E-19  8.48973544E-17 -9.53056748E-17 -8.44161403E-17  6.80282119E-02
 -4.14448173E-19 -6.31181339E-17  3.05609280E-17  9.15522320E-17  2.88038800E-02
 -1.56756679E-18 -9.43046043E-17 -2.59731353E-17  1.27231913E-16  6.79830221E-02
 -3.96635252E-18  1.22273851E-15  8.30957629E-16 -9.37952903E-16  4.49478737E-01
  6.90107853E-16  8.05538376E-15  0.00000000E+00  0.00000000E+00  1.52517063E+00
  6.59921410E-08  3.82904972E-03 -1.97080071E-03 -5.90066913E-03  3.01004426E-17
  0.00000000E+00  1.91633907E-04  8.74522903E-05 -4.28393494E-04  1.56756679E-18
  0.00000000E+00  4.44893366E-05  7.75841818E-05 -8.75968399E-05  3.48419072E-19
  0.00000000E+00  1.91607772E-04  4.14654078E-04 -1.38508286E-04  1.09697684E-18
  6.62090453E-08  3.83073410E-03  6.09815801E-03  1.24400436E-03  1.92883844E-17
  3.10650896E-02  3.82904972E-03  3.34881044E-01 -9.42708966E-02 -2.82251455E-01
  1.21636446E-15  1.91633907E-04  6.17400570E-02  1.66091307E-02 -8.13614315E-02
  9.43046043E-17  4.44893366E-05  2.74021237E-02  2.73021528E-02 -3.08256432E-02
  5.30973459E-17  1.91607772E-04  6.17353317E-02  7.87564657E-02 -2.63072852E-02
  2.40515124E-16  3.83073410E-03  3.34960153E-01  2.91612506E-01  5.94880010E-02
  2.33583748E-15  2.63532865E-02  8.41350389E-01  1.97080071E-03  9.42708966E-02
  1.17863369E-01 -9.58773541E-02  4.16098600E-16 -8.74522903E-05 -1.66091307E-02
  1.78933740E-02  2.33547129E-02 -2.59731353E-17 -7.75841818E-05 -2.73021528E-02
 -1.89096722E-02  3.21817327E-02 -5.38388376E-17 -4.14654078E-04 -7.87564657E-02
 -8.45455362E-02  3.58099404E-02 -3.28215932E-16 -6.09815801E-03 -2.91612506E-01
 -1.56428562E-01 -6.24958848E-02 -2.39690216E-15  0.00000000E+00  0.00000000E+00
  5.08390209E-01  5.90066913E-03  2.82251455E-01 -9.58773541E-02 -1.37175229E-01
  1.24581859E-15  4.28393494E-04  8.13614315E-02  2.33547129E-02 -9.17443103E-02
  1.27231913E-16  8.75968399E-05  3.08256432E-02  3.21817327E-02 -2.67413954E-02
  6.07870307E-17  1.38508286E-04  2.63072852E-02  3.58099404E-02  1.06974395E-02
  1.09635063E-16 -1.24400436E-03 -5.94880010E-02 -6.24958848E-02  1.37179751E-01
 -4.88960230E-16  0.00000000E+00  0.00000000E+00  0.00000000E+00  5.08390209E-01
 -1.32438959E-17  5.56103569E-16 -1.73385404E-16 -5.19123974E-16  4.49658105E-01
 -1.72149495E-18 -1.55707819E-16 -4.37723347E-17  2.14423011E-16  6.79830221E-02
 -3.48419072E-19 -5.30973459E-17 -5.38388376E-17  6.07870307E-17  2.87806914E-02
 -1.23800488E-19  1.47713762E-16  2.05449368E-16 -6.86269384E-17  6.79774605E-02
  2.61470542E-17  2.44028133E-15  2.51564800E-15  5.13183995E-16  4.49786125E-01
  5.80969421E-16  6.78144962E-15  0.00000000E+00  0.00000000E+00  1.52517063E+00
  5.47312554E-04  9.84558784E-02 -2.92754872E-02  1.05976002E-01 -7.35490123E-16
  6.04184372E-03  4.11417169E-01  9.31331195E-02  2.78658794E-01 -4.96142505E-15
  5.47427989E-04  9.84695999E-02  8.70965583E-02  6.71183981E-02 -9.22901681E-16
  9.79240406E-06  7.71156714E-03  7.59534540E-03  9.31277744E-03 -4.52382686E-17
  1.31391278E-06  2.27518852E-03  1.24843973E-03  3.73868611E-03 -9.04190511E-18
  9.78908679E-06  7.70996629E-03 -4.74193236E-04  1.20057480E-02 -3.32756232E-17
  6.49524236E-01  9.77830897E-06  7.70476370E-03 -1.06279630E-02  5.58864888E-03
 -4.31357746E-17  5.47366306E-04  9.84622679E-02 -1.06420879E-01  2.76375025E-02
 -8.56645033E-16  6.04150533E-03  4.11406964E-01 -1.94846909E-01  2.19903580E-01
 -4.17651106E-15  5.47499844E-04  9.84781405E-02 -1.45953058E-02  1.08992484E-01
 -5.39502851E-16  9.78463336E-06  7.70781683E-03 -4.26751141E-03  1.12284621E-02
 -2.29125636E-17  1.31180494E-06  2.27298436E-03 -2.61124122E-03  2.94789733E-03
 -7.60405440E-18  5.66832248E-02  6.49524236E-01  9.79240406E-06  7.71156714E-03
 -7.59534540E-03 -9.31277744E-03  4.52382686E-17  1.31391278E-06  2.27518852E-03
 -1.24843973E-03 -3.73868611E-03  9.04190511E-18  9.78908679E-06  7.70996629E-03
  4.74193236E-04 -1.20057480E-02  3.32756232E-17  5.47312554E-04  9.84558784E-02
  2.92754872E-02 -1.05976002E-01  7.35490123E-16  6.04184372E-03  4.11417169E-01
 -9.31331195E-02 -2.78658794E-01  4.96142505E-15  5.47427989E-04  9.84695999E-02
 -8.70965583E-02 -6.71183981E-02  9.22901681E-16  1.62869428E-04  1.08393654E-03
  6.49524236E-01  5.47499844E-04  9.84781405E-02  1.45953058E-02 -1.08992484E-01
  5.39502851E-16  9.78463336E-06  7.70781683E-03  4.26751141E-03 -1.12284621E-02
  2.29125636E-17  1.31180494E-06  2.27298436E-03  2.61124122E-03 -2.94789733E-03
  7.60405440E-18  9.77830897E-06  7.70476370E-03  1.06279630E-02 -5.58864888E-03
  4.31357746E-17  5.47366306E-04  9.84622679E-02  1.06420879E-01 -2.76375025E-02
  8.56645033E-16  6.04150533E-03  4.11406964E-01  1.94846909E-01 -2.19903580E-01
  4.17651106E-15  1.08393654E-03  1.62680996E-04  5.66832248E-02  6.49524236E-01
  0.00000000E+00  1.19862656E-08 -4.78749749E-08 -9.76700034E-09  3.26304269E-23
  0.00000000E+00  2.57964788E-07 -8.06012991E-07 -4.64009575E-07  1.16084117E-21
  0.00000000E+00  1.19542768E-04 -2.20023215E-04 -1.83948137E-04  4.99356322E-19
  4.48773196E-09  2.69470031E-03 -4.36451331E-03 -8.90840283E-04  6.35676210E-18
  0.00000000E+00  1.19457996E-04 -2.74330439E-04  8.29770067E-05  3.30015725E-20
  0.00000000E+00  2.57602975E-07 -9.22131530E-07  1.10997830E-07  1.58176907E-22
  2.26892047E-08  1.06491345E-04  1.06471835E-04  2.26600805E-08  3.10650896E-02
  1.19862656E-08  3.26437809E-04 -6.97228767E-04 -1.42242030E-04  3.48480846E-19
  2.57964788E-07  1.68034073E-03 -2.83892415E-03 -1.63432600E-03 -1.91486271E-19
  1.19542768E-04  4.74131521E-02 -5.08786295E-02 -4.25365528E-02 -1.19664484E-17
  2.69470031E-03  2.76317723E-01 -2.59318134E-01 -5.29293929E-02  5.56552497E-16
  1.19457996E-04  4.73943932E-02 -6.34556326E-02  1.91934897E-02  1.58945606E-16
  2.57602975E-07  1.67907786E-03 -3.25000803E-03  3.91206487E-04  4.15797466E-18
  1.99681202E-04  3.40766503E-02  3.40726827E-02  1.99528209E-04  2.63532865E-02
  8.41350389E-01  4.78749749E-08  6.97228767E-04 -1.39542320E-03 -3.05835368E-04
  7.47784941E-19  8.06012991E-07  2.83892415E-03 -4.32348581E-03 -2.80141288E-03
 -4.09017547E-19  2.20023215E-04  5.08786295E-02 -4.07533405E-02 -4.83728996E-02
 -1.66013634E-17  4.36451331E-03  2.59318134E-01 -1.66415383E-01 -5.83092076E-02
  6.08016240E-16  2.74330439E-04  6.34556326E-02 -7.29361951E-02  2.72330523E-02
  2.29957371E-16  9.22131530E-07  3.25000803E-03 -5.83998377E-03  7.68244525E-04
  8.24319456E-18  3.18852203E-04  2.00645749E-02  3.42504659E-02  3.93692332E-04
  0.00000000E+00  0.00000000E+00  5.08390209E-01  9.76700034E-09  1.42242030E-04
 -3.05835368E-04  4.12985463E-05  1.52556023E-19  4.64009575E-07  1.63432600E-03
 -2.80141288E-03 -1.06999175E-03 -2.35465260E-19  1.83948137E-04  4.25365528E-02
 -4.83728996E-02 -2.33354292E-02 -1.38793984E-17  8.90840283E-04  5.29293929E-02
 -5.83092076E-02  1.07358710E-01  1.24102121E-16 -8.29770067E-05 -1.91934897E-02
  2.72330523E-02  8.86184164E-03 -6.95554399E-17 -1.10997830E-07 -3.91206487E-04
  7.68244525E-04  4.49851397E-04 -9.92240992E-19  2.56814402E-04  4.03068125E-02
 -2.92185274E-02 -1.11290067E-04  0.00000000E+00  0.00000000E+00  0.00000000E+00
  5.08390209E-01 -2.20095775E-23 -5.37386234E-20  1.12416157E-19  2.29340829E-20
  3.11076571E-04 -2.03334626E-21 -5.73694646E-18  9.80685682E-18  5.64566020E-18
  1.62821874E-03 -8.08070799E-19 -1.36466128E-16  1.54006794E-16  1.28755790E-16
  5.13187016E-02  1.41673263E-18  4.60720247E-16 -4.96801450E-16 -1.01402084E-16
  3.57780586E-01  7.74916588E-19  2.29618324E-16 -3.27274566E-16  9.89910709E-17
  5.12971520E-02  1.37613355E-21  6.27387949E-18 -1.23513150E-17  1.48673927E-18
  1.62697711E-03 -1.05877884E-18 -1.59559259E-16  2.52798988E-16  1.12415947E-18
  2.29736350E-16  2.68163078E-15  0.00000000E+00  0.00000000E+00  1.52517063E+00
  0.00000000E+00  3.08589751E-11 -1.50021907E-10  2.45263031E-12 -8.63305170E-26
  0.00000000E+00  1.05527185E-08 -4.21461143E-08 -9.53512426E-09 -1.08209173E-23
  0.00000000E+00  2.18108382E-05 -5.91199163E-05 -1.40001400E-05 -2.95602394E-20
  0.00000000E+00  1.31805939E-04 -3.02700821E-04  7.98448501E-05 -4.57911371E-19
  0.00000000E+00  3.82586451E-07 -1.21046533E-06  6.07662001E-07 -2.00622853E-21
  0.00000000E+00  1.85777755E-10 -8.26090912E-10  2.46048441E-10 -9.10515853E-25
  4.18554347E-09  1.54590110E-04  5.90452952E-07  1.60573953E-11  2.15582755E-07
  4.49713417E-03 -5.08173190E-03  5.21966549E-03 -2.20576781E-17  3.10650896E-02
  3.08589751E-11  1.37376756E-05 -3.54764614E-05  5.79986259E-07 -2.56204709E-20
  1.05527185E-08  3.05030649E-04 -6.51268976E-04 -1.47342898E-04 -9.15348440E-19
  2.18108382E-05  1.85156139E-02 -2.83280625E-02 -6.70834576E-03 -5.94948226E-17
  1.31805939E-04  5.00693714E-02 -6.71901333E-02  1.77230643E-02 -7.62035261E-17
  3.82586451E-07  2.07558443E-03 -3.55869194E-03  1.78648806E-03 -5.73625952E-19
  1.85777755E-10  3.56265726E-05 -8.42329203E-05  2.50884962E-05 -2.06907263E-20
  7.28961500E-05  4.32265457E-02  1.40509307E-03  2.66212239E-06  4.49713417E-03
  3.64763319E-01 -2.17501762E-01  2.23405418E-01 -4.24629464E-16  2.63532865E-02
  8.41350389E-01  1.50021907E-10  3.54764614E-05 -8.74233417E-05  1.49982235E-06
 -6.62693800E-20  4.21461143E-08  6.51268976E-04 -1.30263647E-03 -3.16619190E-04
 -1.97545148E-18  5.91199163E-05  2.83280625E-02 -3.87458884E-02 -1.06834935E-02
 -9.63015135E-17  3.02700821E-04  6.71901333E-02 -7.75527765E-02  2.52376012E-02
 -1.07776605E-16  1.21046533E-06  3.55869194E-03 -5.52695081E-03  3.11221029E-03
 -8.88522067E-19  8.26090912E-10  8.42329203E-05 -1.88380348E-04  5.94489389E-05
 -4.87055457E-20  1.45178693E-04  4.52728399E-02  1.87183662E-03  6.26497510E-06
  5.08173190E-03  2.17501762E-01  7.53003992E-03  1.63039590E-01 -3.26758724E-16
  0.00000000E+00  0.00000000E+00  5.08390209E-01 -2.45263031E-12 -5.79986259E-07
  1.49982235E-06  4.29291453E-06  1.08340371E-21  9.53512426E-09  1.47342898E-04
 -3.16619190E-04  2.52172430E-05 -4.46925551E-19  1.40001400E-05  6.70834576E-03
 -1.06834935E-02  3.83851378E-03 -2.28050842E-17 -7.98448501E-05 -1.77230643E-02
  2.52376012E-02  1.14687691E-02  2.84287531E-17 -6.07662001E-07 -1.78648806E-03
  3.11221029E-03 -8.89765658E-04  4.46044248E-19 -2.46048441E-10 -2.50884962E-05
  5.94489389E-05 -6.49124633E-06  1.45067854E-20  6.33318838E-05  3.17224253E-02
 -1.69693164E-03 -2.56181512E-06 -5.21966549E-03 -2.23405418E-01  1.63039590E-01
 -1.20379218E-03  3.35627945E-16  0.00000000E+00  0.00000000E+00  0.00000000E+00
  5.08390209E-01 -6.69162774E-27 -1.59485488E-20  4.12859973E-20 -6.74963348E-22
  1.29523030E-05 -6.60321756E-23 -1.34687232E-18  2.89794735E-18  6.55630739E-19
  2.90547221E-04 -1.11800647E-19 -7.70702077E-17  1.23544064E-16  2.92563707E-17
  1.91053899E-02  2.71769438E-19 -9.88163520E-18  1.61055126E-17 -4.24822845E-18
  5.43774374E-02  3.09943593E-21  6.78841153E-18 -1.17776283E-17  5.91245120E-18
  2.01775655E-03  1.29239928E-24  9.43773373E-20 -2.23466452E-19  6.65587421E-20
  3.36462694E-05 -4.90548512E-19 -2.91101944E-16  7.22089066E-18  1.10792334E-20
  1.88968048E-17  1.27810956E-16 -1.15387921E-16  1.18519898E-16  4.98783559E-01
 -3.01175679E-16 -3.51551669E-15  0.00000000E+00  0.00000000E+00  1.52517063E+00
  8.25214546E-09  1.09238712E-04 -2.13101951E-04 -9.18461607E-05  3.82078010E-19
  3.14821684E-08  2.42795407E-04 -3.77445198E-04 -3.15438219E-04  4.58995283E-19
  7.41003058E-06  6.50216703E-03 -6.50042933E-03 -7.98459356E-03  1.35649217E-17
  4.60395986E-04  8.78402638E-02 -7.88551206E-02 -6.18407905E-02  4.30400656E-16
  1.20212954E-04  3.68087579E-02 -4.77668494E-02 -5.94148121E-03  2.50055428E-16
  5.09615505E-07  1.28604243E-03 -2.30159611E-03 -3.48130707E-04  7.17375385E-18
  2.20314342E-05  3.83150114E-03  6.22402168E-02  3.00341250E-04  6.06070781E-03
  4.11985261E-01 -6.63726328E-02 -2.86370337E-01  2.77831400E-15  5.97677370E-04
  1.04357239E-01  3.66144440E-02 -1.09252329E-01  3.45256550E-16  6.49524236E-01
  1.36842965E-12  6.15766577E-07 -1.65732881E-06 -3.57795979E-08 -8.06647123E-22
  2.96421194E-10  1.50753396E-05 -3.46572001E-05 -7.68319624E-06 -4.30948115E-20
  6.19543339E-07  1.44633625E-03 -2.53022115E-03 -5.76409052E-04 -4.01922287E-18
  5.98725876E-06  5.70859658E-03 -9.08216262E-03  1.09381498E-03 -4.15136823E-18
  2.75296310E-08  2.24108825E-04 -4.33200786E-04  1.43287120E-04  1.96755711E-19
  1.31904442E-11  2.36833278E-06 -5.92748606E-06  1.21398794E-06  1.17293638E-21
  4.12249405E-06  5.61493222E-03  2.88944704E-04  2.24668451E-07  5.97703511E-04
  1.04360259E-01 -1.08235984E-01  3.95256623E-02 -3.15766196E-17  6.06066137E-03
  4.11983864E-01 -2.88042333E-01 -5.86915045E-02 -1.21333046E-15  5.49449801E-02
  6.49524236E-01  3.23413217E-09  6.25166447E-05 -1.33356243E-04  3.12918810E-05
 -2.76648867E-19  8.08515685E-07  1.69771121E-03 -3.00807833E-03  8.29081144E-05
 -1.06816512E-17  1.38762862E-04  4.03390652E-02 -5.15311602E-02  7.62546063E-03
 -2.74613754E-16  9.51977999E-05  3.17361178E-02 -3.33227933E-02  2.60960833E-02
 -1.32491676E-16  3.79958617E-07  1.07806950E-03 -1.47963962E-03  1.31082780E-03
 -2.35033282E-18  2.21959425E-09  4.99618276E-05 -9.69409981E-05  5.36354755E-05
 -1.28119564E-19  7.82503815E-04  1.32323994E-01  3.84070602E-04  3.09312423E-06
  5.97677355E-04  1.04357237E-01 -3.66144434E-02  1.09252328E-01 -4.18135382E-16
  6.06070768E-03  4.11985257E-01  6.63726320E-02  2.86370336E-01 -3.12630156E-15
  1.77870151E-02  1.51838584E-01  6.49524236E-01  4.48773196E-09  2.69470031E-03
  4.36451331E-03  8.90840283E-04 -6.35676210E-18  0.00000000E+00  1.19457996E-04
  2.74330439E-04 -8.29770067E-05 -3.30015725E-20  0.00000000E+00  2.57602975E-07
  9.22131530E-07 -1.10997830E-07 -1.58176907E-22  0.00000000E+00  1.19862656E-08
  4.78749749E-08  9.76700034E-09 -3.26304269E-23  0.00000000E+00  2.57964788E-07
  8.06012991E-07  4.64009575E-07 -1.16084117E-21  0.00000000E+00  1.19542768E-04
  2.20023215E-04  1.83948137E-04 -4.99356322E-19  1.06471835E-04  2.26600805E-08
  2.26892047E-08  1.06491345E-04  0.00000000E+00  0.00000000E+00  0.00000000E+00
  0.00000000E+00  0.00000000E+00  0.00000000E+00  0.00000000E+00  0.00000000E+00
  0.00000000E+00  0.00000000E+00  4.25271841E-13  0.00000000E+00  2.36901962E-13
  3.10650896E-02  2.69470031E-03  2.76317723E-01  2.59318134E-01  5.29293929E-02
 -5.56552497E-16  1.19457996E-04  4.73943932E-02  6.34556326E-02 -1.91934897E-02
 -1.58945606E-16  2.57602975E-07  1.67907786E-03  3.25000803E-03 -3.91206487E-04
 -4.15797466E-18  1.19862656E-08  3.26437809E-04  6.97228767E-04  1.42242030E-04
 -3.48480846E-19  2.57964788E-07  1.68034073E-03  2.83892415E-03  1.63432600E-03
  1.91486271E-19  1.19542768E-04  4.74131521E-02  5.08786295E-02  4.25365528E-02
  1.19664484E-17  3.40726827E-02  1.99528209E-04  1.99681202E-04  3.40766503E-02
  0.00000000E+00  6.33305180E-07  1.81764188E-06  3.70865499E-07 -5.34231643E-22
  0.00000000E+00  1.11871776E-08  3.72569233E-08  1.24733306E-09 -2.03499611E-23
  3.07378196E-07  4.16067246E-10  2.17079518E-07  2.63532865E-02  8.41350389E-01
 -4.36451331E-03 -2.59318134E-01 -1.66415383E-01 -5.83092076E-02  6.08016240E-16
 -2.74330439E-04 -6.34556326E-02 -7.29361951E-02  2.72330523E-02  2.29957371E-16
 -9.22131530E-07 -3.25000803E-03 -5.83998377E-03  7.68244525E-04  8.24319456E-18
 -4.78749749E-08 -6.97228767E-04 -1.39542320E-03 -3.05835368E-04  7.47784941E-19
 -8.06012991E-07 -2.83892415E-03 -4.32348581E-03 -2.80141288E-03 -4.09017547E-19
 -2.20023215E-04 -5.08786295E-02 -4.07533405E-02 -4.83728996E-02 -1.66013634E-17
 -3.42504659E-02 -3.93692332E-04 -3.18852203E-04 -2.00645749E-02  0.00000000E+00
 -1.81764188E-06 -5.01968531E-06 -1.06472293E-06  1.53337513E-21  0.00000000E+00
 -3.72569233E-08 -1.20571237E-07 -4.15402293E-09  6.77719589E-23 -7.94764151E-07
 -1.38917515E-09 -6.01362392E-07  0.00000000E+00  0.00000000E+00  5.08390209E-01
 -8.90840283E-04 -5.29293929E-02 -5.83092076E-02  1.07358710E-01  1.24102121E-16
  8.29770067E-05  1.91934897E-02  2.72330523E-02  8.86184164E-03 -6.95554399E-17
  1.10997830E-07  3.91206487E-04  7.68244525E-04  4.49851397E-04 -9.92240992E-19
 -9.76700034E-09 -1.42242030E-04 -3.05835368E-04  4.12985463E-05  1.52556023E-19
 -4.64009575E-07 -1.63432600E-03 -2.80141288E-03 -1.06999175E-03 -2.35465260E-19
 -1.83948137E-04 -4.25365528E-02 -4.83728996E-02 -2.33354292E-02 -1.38793984E-17
  2.92185274E-02  1.11290067E-04 -2.56814402E-04 -4.03068125E-02  0.00000000E+00
 -3.70865499E-07 -1.06472293E-06 -1.86343478E-08  3.12864673E-22  0.00000000E+00
 -1.24733306E-09 -4.15402293E-09  3.36730595E-09  2.26895292E-24 -2.97185919E-07
 -7.93436014E-11  7.91729273E-08  0.00000000E+00  0.00000000E+00  0.00000000E+00
  5.08390209E-01 -1.41673263E-18 -4.60720247E-16 -4.96801450E-16 -1.01402084E-16
  3.57780586E-01 -7.74916588E-19 -2.29618324E-16 -3.27274566E-16  9.89910709E-17
  5.12971520E-02 -1.37613355E-21 -6.27387949E-18 -1.23513150E-17  1.48673927E-18
  1.62697711E-03  2.20095775E-23  5.37386234E-20  1.12416157E-19  2.29340829E-20
  3.11076571E-04  2.03334626E-21  5.73694646E-18  9.80685682E-18  5.64566020E-18
  1.62821874E-03  8.08070799E-19  1.36466128E-16  1.54006794E-16  1.28755790E-16
  5.13187016E-02 -2.52798988E-16 -1.12415947E-18  1.05877884E-18  1.59559259E-16
  0.00000000E+00  5.34231643E-22  1.53337513E-21  3.12864673E-22  5.95824350E-07
  0.00000000E+00 -2.32857648E-23 -7.75491357E-23 -2.59628526E-24  1.05191383E-08
  9.73589350E-22 -6.73806311E-25 -1.02080015E-21 -2.29736350E-16 -2.68163078E-15
  0.00000000E+00  0.00000000E+00  1.52517063E+00  0.00000000E+00  1.31805939E-04
  3.02700821E-04 -7.98448501E-05  4.57911371E-19  0.00000000E+00  3.82586451E-07
  1.21046533E-06 -6.07662001E-07  2.00622853E-21  0.00000000E+00  1.85777755E-10
  8.26090912E-10 -2.46048441E-10  9.10515853E-25  0.00000000E+00  3.08589751E-11
  1.50021907E-10 -2.45263031E-12  8.63305170E-26  0.00000000E+00  1.05527185E-08
  4.21461143E-08  9.53512426E-09  1.08209173E-23  0.00000000E+00  2.18108382E-05
  5.91199163E-05  1.40001400E-05  2.95602394E-20  5.90452952E-07  1.60573953E-11
  4.18554347E-09  1.54590110E-04  0.00000000E+00  0.00000000E+00  0.00000000E+00
  0.00000000E+00  0.00000000E+00  0.00000000E+00  0.00000000E+00  0.00000000E+00
  0.00000000E+00  0.00000000E+00  0.00000000E+00  0.00000000E+00  0.00000000E+00
  2.15582755E-07  4.49713417E-03  5.08173190E-03 -5.21966549E-03  2.20576781E-17
  3.10650896E-02  1.31805939E-04  5.00693714E-02  6.71901333E-02 -1.77230643E-02
  7.62035261E-17  3.82586451E-07  2.07558443E-03  3.55869194E-03 -1.78648806E-03
  5.73625952E-19  1.85777755E-10  3.56265726E-05  8.42329203E-05 -2.50884962E-05
  2.06907263E-20  3.08589751E-11  1.37376756E-05  3.54764614E-05 -5.79986259E-07
  2.56204709E-20  1.05527185E-08  3.05030649E-04  6.51268976E-04  1.47342898E-04
  9.15348440E-19  2.18108382E-05  1.85156139E-02  2.83280625E-02  6.70834576E-03
  5.94948226E-17  1.40509307E-03  2.66212239E-06  7.28961500E-05  4.32265457E-02
  0.00000000E+00  1.11871776E-08  3.72569233E-08  1.24733306E-09  2.32857648E-23
  0.00000000E+00  0.00000000E+00  0.00000000E+00  0.00000000E+00  0.00000000E+00
  1.61622457E-08  0.00000000E+00  1.16295622E-09  4.49713417E-03  3.64763319E-01
  2.17501762E-01 -2.23405418E-01  4.24629464E-16  2.63532865E-02  8.41350389E-01
 -3.02700821E-04 -6.71901333E-02 -7.75527765E-02  2.52376012E-02 -1.07776605E-16
 -1.21046533E-06 -3.55869194E-03 -5.52695081E-03  3.11221029E-03 -8.88522067E-19
 -8.26090912E-10 -8.42329203E-05 -1.88380348E-04  5.94489389E-05 -4.87055457E-20
 -1.50021907E-10 -3.54764614E-05 -8.74233417E-05  1.49982235E-06 -6.62693800E-20
 -4.21461143E-08 -6.51268976E-04 -1.30263647E-03 -3.16619190E-04 -1.97545148E-18
 -5.91199163E-05 -2.83280625E-02 -3.87458884E-02 -1.06834935E-02 -9.63015135E-17
 -1.87183662E-03 -6.26497510E-06 -1.45178693E-04 -4.52728399E-02  0.00000000E+00
 -3.72569233E-08 -1.20571237E-07 -4.15402293E-09 -7.75491357E-23  0.00000000E+00
  0.00000000E+00  0.00000000E+00  0.00000000E+00  0.00000000E+00 -4.82083497E-08
  0.00000000E+00 -3.68297089E-09 -5.08173190E-03 -2.17501762E-01  7.53003992E-03
  1.63039590E-01 -3.26758724E-16  0.00000000E+00  0.00000000E+00  5.08390209E-01
  7.98448501E-05  1.77230643E-02  2.52376012E-02  1.14687691E-02  2.84287531E-17
  6.07662001E-07  1.78648806E-03  3.11221029E-03 -8.89765658E-04  4.46044248E-19
  2.46048441E-10  2.50884962E-05  5.94489389E-05 -6.49124633E-06  1.45067854E-20
  2.45263031E-12  5.79986259E-07  1.49982235E-06  4.29291453E-06  1.08340371E-21
 -9.53512426E-09 -1.47342898E-04 -3.16619190E-04  2.52172430E-05 -4.46925551E-19
 -1.40001400E-05 -6.70834576E-03 -1.06834935E-02  3.83851378E-03 -2.28050842E-17
  1.69693164E-03  2.56181512E-06 -6.33318838E-05 -3.17224253E-02  0.00000000E+00
 -1.24733306E-09 -4.15402293E-09  3.36730595E-09 -2.59628526E-24  0.00000000E+00
  0.00000000E+00  0.00000000E+00  0.00000000E+00  0.00000000E+00 -9.00470655E-09
  0.00000000E+00  8.99710134E-10  5.21966549E-03  2.23405418E-01  1.63039590E-01
 -1.20379218E-03  3.35627945E-16  0.00000000E+00  0.00000000E+00  0.00000000E+00
  5.08390209E-01 -2.71769438E-19  9.88163520E-18  1.61055126E-17 -4.24822845E-18
  5.43774374E-02 -3.09943593E-21 -6.78841153E-18 -1.17776283E-17  5.91245120E-18
  2.01775655E-03 -1.29239928E-24 -9.43773373E-20 -2.23466452E-19  6.65587421E-20
  3.36462694E-05  6.69162774E-27  1.59485488E-20  4.12859973E-20 -6.74963348E-22
  1.29523030E-05  6.60321756E-23  1.34687232E-18  2.89794735E-18  6.55630739E-19
  2.90547221E-04  1.11800647E-19  7.70702077E-17  1.23544064E-16  2.92563707E-17
  1.91053899E-02 -7.22089066E-18 -1.10792334E-20  4.90548512E-19  2.91101944E-16
  0.00000000E+00  2.03499611E-23  6.77719589E-23  2.26895292E-24  1.05191383E-08
  0.00000000E+00  0.00000000E+00  0.00000000E+00  0.00000000E+00  0.00000000E+00
  7.34484672E-23  0.00000000E+00 -3.86406694E-24 -1.88968048E-17 -1.27810956E-16
 -1.15387921E-16  1.18519898E-16  4.98783559E-01  3.01175679E-16  3.51551669E-15
  0.00000000E+00  0.00000000E+00  1.52517063E+00  4.60395986E-04  8.78402638E-02
  7.88551206E-02  6.18407905E-02 -4.30400656E-16  1.20212954E-04  3.68087579E-02
  4.77668494E-02  5.94148121E-03 -2.50055428E-16  5.09615505E-07  1.28604243E-03
  2.30159611E-03  3.48130707E-04 -7.17375385E-18  8.25214546E-09  1.09238712E-04
  2.13101951E-04  9.18461607E-05 -3.82078010E-19  3.14821684E-08  2.42795407E-04
  3.77445198E-04  3.15438219E-04 -4.58995283E-19  7.41003058E-06  6.50216703E-03
  6.50042933E-03  7.98459356E-03 -1.35649217E-17  6.22402168E-02  3.00341250E-04
  2.20314342E-05  3.83150114E-03  4.25271841E-13  3.07378196E-07  7.94764151E-07
  2.97185919E-07 -9.73589350E-22  0.00000000E+00  1.61622457E-08  4.82083497E-08
  9.00470655E-09 -7.34484672E-23  8.27999512E-08  6.09710976E-10  4.19865942E-07
  6.06070781E-03  4.11985261E-01  6.63726328E-02  2.86370337E-01 -2.77831400E-15
  5.97677370E-04  1.04357239E-01 -3.66144440E-02  1.09252329E-01 -3.45256550E-16
  6.49524236E-01  5.98725876E-06  5.70859658E-03  9.08216262E-03 -1.09381498E-03
  4.15136823E-18  2.75296310E-08  2.24108825E-04  4.33200786E-04 -1.43287120E-04
 -1.96755711E-19  1.31904442E-11  2.36833278E-06  5.92748606E-06 -1.21398794E-06
 -1.17293638E-21  1.36842965E-12  6.15766577E-07  1.65732881E-06  3.57795979E-08
  8.06647123E-22  2.96421194E-10  1.50753396E-05  3.46572001E-05  7.68319624E-06
  4.30948115E-20  6.19543339E-07  1.44633625E-03  2.53022115E-03  5.76409052E-04
  4.01922287E-18  2.88944704E-04  2.24668451E-07  4.12249405E-06  5.61493222E-03
  0.00000000E+00  4.16067246E-10  1.38917515E-09  7.93436014E-11  6.73806311E-25
  0.00000000E+00  0.00000000E+00  0.00000000E+00  0.00000000E+00  0.00000000E+00
  6.09710976E-10  0.00000000E+00  6.85736872E-11  5.97703511E-04  1.04360259E-01
  1.08235984E-01 -3.95256623E-02  3.15766196E-17  6.06066137E-03  4.11983864E-01
  2.88042333E-01  5.86915045E-02  1.21333046E-15  5.49449801E-02  6.49524236E-01
  9.51977999E-05  3.17361178E-02  3.33227933E-02 -2.60960833E-02  1.32491676E-16
  3.79958617E-07  1.07806950E-03  1.47963962E-03 -1.31082780E-03  2.35033282E-18
  2.21959425E-09  4.99618276E-05  9.69409981E-05 -5.36354755E-05  1.28119564E-19
  3.23413217E-09  6.25166447E-05  1.33356243E-04 -3.12918810E-05  2.76648867E-19
  8.08515685E-07  1.69771121E-03  3.00807833E-03 -8.29081144E-05  1.06816512E-17
  1.38762862E-04  4.03390652E-02  5.15311602E-02 -7.62546063E-03  2.74613754E-16
  3.84070602E-04  3.09312423E-06  7.82503815E-04  1.32323994E-01  2.36901962E-13
  2.17079518E-07  6.01362392E-07 -7.91729273E-08  1.02080015E-21  0.00000000E+00
  1.16295622E-09  3.68297089E-09 -8.99710134E-10  3.86406694E-24  4.19865942E-07
  6.85736872E-11  6.02008385E-09  5.97677355E-04  1.04357237E-01  3.66144434E-02
 -1.09252328E-01  4.18135382E-16  6.06070768E-03  4.11985257E-01 -6.63726320E-02
 -2.86370336E-01  3.12630156E-15  1.77870151E-02  1.51838584E-01  6.49524236E-01
Number of independent functions            I               60
Alpha MO coefficients                      R   N=        3600
  6.98966323E-01  3.18976919E-02 -1.38360414E-03 -2.79181590E-04 -1.65305377E-16
 -1.98015592E-02 -8.16077605E-03 -2.67804321E-03  3.56140886E-03 -3.24456885E-17
  1.83447142E-02  8.11473140E-03 -1.06022483E-03 -4.31958841E-03  2.27557535E-16
 -6.98966323E-01 -3.18976919E-02 -1.38360414E-03 -2.79181590E-04  1.04693444E-17
  1.98015592E-02  8.16077605E-03 -2.67804321E-03  3.56140886E-03 -6.72692691E-17
 -1.83447142E-02 -8.11473140E-03 -1.06022483E-03 -4.31958841E-03 -1.45364398E-16
  3.50465642E-04 -3.52620434E-04 -3.50465642E-04  3.52620434E-04  3.38384919E-02
  6.59031372E-03  3.79198412E-03  8.85350297E-04 -1.56039173E-16  3.60489511E-05
 -5.52188379E-04 -3.08236273E-04  5.95640902E-05 -8.62514913E-17 -3.77895486E-04
  3.08530544E-05  1.49015289E-04 -3.38384919E-02 -6.59031372E-03  3.79198412E-03
  8.85350297E-04  2.03449489E-17 -3.60489507E-05  5.52188378E-04 -3.08236273E-04
  5.95640902E-05 -1.42621200E-16  3.77895485E-04 -3.08530544E-05 -1.49015289E-04
 -6.98909773E-01 -3.16729423E-02  1.03555523E-03  2.06586866E-04  1.20361693E-16
  2.10744975E-02  7.29174153E-03  3.07552305E-03 -3.40398555E-03 -3.08236818E-17
  1.94416620E-02  7.20954580E-03 -1.50577006E-03 -4.33315828E-03 -9.39943339E-17
 -6.98909772E-01 -3.16729423E-02 -1.03555523E-03 -2.06586866E-04 -4.77042683E-17
  2.10744975E-02  7.29174153E-03 -3.07552305E-03  3.40398555E-03  1.03212909E-17
  1.94416620E-02  7.20954580E-03  1.50577006E-03  4.33315828E-03  2.23248330E-16
 -2.16146870E-04 -2.14894377E-04 -2.16146870E-04 -2.14894377E-04  3.44896233E-02
  6.68725651E-03  3.84141472E-03  8.96187509E-04  1.34398136E-16  2.15244488E-05
 -5.58748567E-04 -3.18095791E-04  6.27909192E-05  1.68959723E-16 -3.92204322E-04
  2.97124349E-05  1.36352028E-04  3.44896233E-02  6.68725651E-03 -3.84141472E-03
 -8.96187509E-04 -2.30091630E-16  2.15244483E-05 -5.58748567E-04  3.18095791E-04
 -6.27909192E-05  2.01574575E-16 -3.92204323E-04  2.97124349E-05  1.36352028E-04
  3.42359327E-02 -3.37606463E-03 -4.08323645E-03 -6.64701191E-04 -3.08094655E-16
 -1.40888146E-02 -8.73907113E-04  2.35907678E-05  2.09262728E-04  1.22728503E-16
  9.30016329E-03  6.60159099E-04  1.07839828E-04 -1.62168160E-04  2.98871729E-16
 -3.42359330E-02  3.37606467E-03 -4.08323649E-03 -6.64701197E-04 -2.29402200E-16
  1.40888148E-02  8.73907123E-04  2.35907673E-05  2.09262731E-04  4.22757223E-17
 -9.30016319E-03 -6.60159095E-04  1.07839829E-04 -1.62168157E-04  1.20491184E-16
  1.07100046E-04  3.49378027E-05 -1.07100047E-04 -3.49378021E-05 -6.99499206E-01
 -3.06123456E-02  1.34770792E-03 -1.04758742E-03 -3.71677126E-16  5.56940265E-03
  7.78972054E-03  3.22534003E-03 -3.35575773E-03  2.11982446E-16  6.36590000E-03
 -2.02767501E-04 -1.70778445E-04  6.99499199E-01  3.06123453E-02  1.34770790E-03
 -1.04758741E-03  2.06029900E-16 -5.56940260E-03 -7.78972047E-03  3.22534000E-03
 -3.35575770E-03  1.51790735E-16 -6.36589994E-03  2.02767499E-04  1.70778443E-04
 -3.46571353E-02  3.31389490E-03  4.04760707E-03  6.22127574E-04  9.58509065E-17
  2.02181284E-02  1.03381902E-03  4.92092220E-05 -2.80252098E-04 -8.95034437E-17
  9.52209701E-03  3.75563597E-04 -5.62701456E-05 -2.67004385E-04 -2.52589339E-16
 -3.46571350E-02  3.31389486E-03 -4.04760703E-03 -6.22127567E-04  2.00936524E-16
  2.02181283E-02  1.03381901E-03 -4.92092222E-05  2.80252096E-04 -2.87652813E-16
  9.52209710E-03  3.75563603E-04  5.62701445E-05  2.67004387E-04 -8.03296005E-17
 -1.37566489E-04  6.48075154E-05 -1.37566488E-04  6.48075158E-05 -6.99326872E-01
 -3.05864164E-02  1.36041188E-03 -1.04561389E-03 -7.46412270E-17  5.55951512E-03
  7.78686360E-03  3.22217077E-03 -3.35538024E-03  1.57509346E-16  6.36244459E-03
 -2.03115963E-04 -1.72955456E-04 -6.99326879E-01 -3.05864167E-02 -1.36041189E-03
  1.04561390E-03 -1.10026962E-16  5.55951517E-03  7.78686367E-03 -3.22217080E-03
  3.35538028E-03  7.07099485E-17  6.36244466E-03 -2.03115965E-04 -1.72955458E-04
  2.64183550E-02 -7.76829486E-03  3.28674063E-03 -1.83294366E-03  8.86647556E-17
  6.66892291E-01  3.19492454E-02 -1.80667561E-03 -1.44273335E-03  2.54289753E-17
 -2.11145652E-01 -1.59620390E-02 -4.51931682E-03 -5.12862848E-04 -1.08816986E-17
 -2.64183550E-02  7.76829486E-03  3.28674063E-03 -1.83294366E-03  3.16184339E-17
 -6.66892291E-01 -3.19492453E-02 -1.80667561E-03 -1.44273335E-03 -3.08980122E-16
  2.11145652E-01  1.59620390E-02 -4.51931682E-03 -5.12862848E-04  5.62636444E-17
 -6.04315101E-03  2.08458648E-03  6.04315101E-03 -2.08458648E-03 -1.50557457E-02
 -8.10043165E-04  4.63057865E-05 -5.13535899E-05  6.81645172E-17  7.56195198E-04
  2.86854747E-04  1.39520324E-04 -6.42824883E-05 -1.52797863E-16  1.93749535E-04
  2.49018407E-06 -1.00907135E-04  1.50557457E-02  8.10043166E-04  4.63057866E-05
 -5.13535898E-05  2.27642027E-16 -7.56195198E-04 -2.86854747E-04  1.39520324E-04
 -6.42824883E-05 -5.44806444E-17 -1.93749535E-04 -2.49018407E-06  1.00907135E-04
  1.44349972E-02 -3.33645790E-03  2.20934176E-03 -4.64551321E-03 -8.59107340E-17
  6.56833058E-01  3.15519363E-02 -1.85831782E-03 -1.16247278E-03  1.66054586E-16
 -2.41528655E-01 -1.70587595E-02 -4.34025177E-03 -4.55258203E-04  6.59945780E-17
  1.44349972E-02 -3.33645791E-03 -2.20934176E-03  4.64551321E-03 -9.62562203E-17
  6.56833058E-01  3.15519363E-02  1.85831783E-03  1.16247278E-03  8.29465211E-17
 -2.41528655E-01 -1.70587595E-02  4.34025177E-03  4.55258203E-04  5.73688266E-17
 -6.01142127E-03  2.26560436E-03 -6.01142127E-03  2.26560436E-03  1.50497941E-02
  6.53386088E-04 -9.04432571E-05 -3.81376949E-05  3.49705265E-17 -2.23101246E-04
 -1.84559666E-04 -1.03285786E-04  1.01288202E-04  3.24447724E-16 -1.63740208E-04
  2.34732429E-06 -1.10842212E-04  1.50497941E-02  6.53386087E-04  9.04432571E-05
  3.81376949E-05  3.40982128E-16 -2.23101246E-04 -1.84559665E-04  1.03285785E-04
 -1.01288202E-04  1.03944122E-16 -1.63740208E-04  2.34732429E-06 -1.10842212E-04
  1.23353528E-02 -4.06321402E-03  5.19914722E-04  4.95301712E-03  1.13660100E-16
 -2.12690078E-01 -3.02268988E-03 -4.05761893E-03 -5.78907857E-04  2.25605570E-18
 -6.67505088E-01 -2.78795483E-02  4.69994679E-04  1.12489854E-03  4.30000625E-17
 -1.23353528E-02  4.06321402E-03  5.19914722E-04  4.95301712E-03 -3.98108469E-17
  2.12690078E-01  3.02268988E-03 -4.05761893E-03 -5.78907857E-04 -3.14744616E-17
  6.67505088E-01  2.78795483E-02  4.69994679E-04  1.12489854E-03 -7.71380582E-17
  1.73398839E-03  5.96717495E-03 -1.73398839E-03 -5.96717495E-03 -4.04021304E-03
 -2.64197194E-04 -9.91771531E-06  7.26572383E-06  3.80124662E-16  1.24965383E-03
  1.74489509E-04  1.09841394E-04  5.90227601E-05  2.14943318E-17  6.77929489E-05
  2.23159060E-05 -2.34950836E-04  4.04021303E-03  2.64197194E-04 -9.91771533E-06
  7.26572383E-06  7.70146180E-17 -1.24965383E-03 -1.74489509E-04  1.09841394E-04
  5.90227601E-05 -1.08297458E-16 -6.77929489E-05 -2.23159060E-05  2.34950836E-04
 -2.75659616E-02  7.26074412E-03 -2.25668716E-03 -2.82433864E-03  1.19806960E-16
 -2.41573301E-01 -4.47397587E-03 -3.91131290E-03 -6.78826092E-04 -7.58619929E-17
 -6.57138625E-01 -2.69762283E-02  8.53907904E-04  8.53385728E-04 -2.04306739E-16
 -2.75659616E-02  7.26074412E-03  2.25668716E-03  2.82433864E-03  2.93763354E-17
 -2.41573301E-01 -4.47397587E-03  3.91131290E-03  6.78826092E-04 -9.91721443E-17
 -6.57138625E-01 -2.69762283E-02 -8.53907904E-04 -8.53385728E-04  3.97650068E-17
  2.15557054E-03  6.00822424E-03  2.15557055E-03  6.00822425E-03 -1.46578454E-02
 -6.65404515E-04  1.69824576E-04 -4.50627217E-05 -1.73044791E-17  1.66766101E-03
  3.66148514E-04  2.03196465E-04 -1.28363282E-05  1.54360698E-16  2.28571354E-04
  2.03888476E-05 -2.35416641E-04 -1.46578454E-02 -6.65404515E-04 -1.69824576E-04
  4.50627217E-05  5.50734504E-17  1.66766101E-03  3.66148514E-04 -2.03196465E-04
  1.28363282E-05 -1.88454055E-16  2.28571354E-04  2.03888476E-05 -2.35416641E-04
 -3.75429082E-04 -1.96407885E-04 -4.45168465E-05 -4.38320168E-05  1.08517799E-16
 -6.44122705E-04  1.00314838E-04  2.02783498E-05 -3.42953390E-05 -6.29123858E-17
 -1.45134487E-03  3.35179663E-05 -1.50640654E-04  3.69873752E-06  2.86185389E-17
 -3.75429082E-04 -1.96407885E-04  4.45168465E-05  4.38320168E-05 -1.54487489E-16
 -6.44122705E-04  1.00314838E-04 -2.02783499E-05  3.42953390E-05 -1.33839242E-16
 -1.45134487E-03  3.35179663E-05  1.50640654E-04 -3.69873753E-06 -1.24357061E-17
  1.86699270E-05 -1.63351583E-04  1.86699270E-05 -1.63351583E-04 -6.42495051E-03
  7.25530467E-03 -3.20201290E-03  3.31715705E-03  4.06160851E-17 -7.00486480E-01
 -3.10936946E-02 -1.00803450E-03  1.02094503E-03  3.51534064E-16 -8.58833793E-05
  6.34173522E-03  6.36337548E-03 -6.42495051E-03  7.25530466E-03  3.20201289E-03
 -3.31715705E-03 -2.58174561E-16 -7.00486480E-01 -3.10936945E-02  1.00803450E-03
 -1.02094503E-03 -2.15520293E-16 -8.58833793E-05  6.34173522E-03  6.36337548E-03
  3.67168195E-04  1.97475597E-04  4.61798762E-05  4.55841468E-05 -4.66222078E-17
  2.36109596E-04 -1.57195281E-06 -1.03942107E-04  1.08246862E-05 -5.57579844E-17
 -1.38187408E-03  1.42689093E-05 -1.66263183E-04 -1.61157101E-06  9.47386243E-17
 -3.67168195E-04 -1.97475597E-04  4.61798762E-05  4.55841468E-05 -3.90082511E-16
 -2.36109596E-04  1.57195280E-06 -1.03942107E-04  1.08246862E-05 -1.77554596E-16
  1.38187408E-03 -1.42689093E-05 -1.66263183E-04 -1.61157100E-06 -1.02010708E-16
 -1.13935689E-05 -1.63450798E-04  1.13935689E-05  1.63450798E-04 -6.41919369E-03
  7.25549211E-03 -3.20263550E-03  3.31772828E-03  3.15803272E-16 -7.00486870E-01
 -3.10941244E-02 -1.00835670E-03  1.02108743E-03  1.48835241E-16 -8.63266408E-05
  6.34171361E-03  6.36326376E-03  6.41919369E-03 -7.25549211E-03 -3.20263550E-03
  3.31772828E-03 -2.91206149E-16  7.00486870E-01  3.10941244E-02 -1.00835670E-03
  1.02108743E-03  1.94524427E-16  8.63266408E-05 -6.34171361E-03 -6.36326376E-03
  1.08167328E-01 -2.71073535E-01  4.91973501E-02  1.06744058E-02 -3.82860976E-17
  9.90830973E-02 -2.46949373E-01  1.38224053E-02  5.89865231E-02 -4.58034757E-17
  9.96183673E-02 -2.48119316E-01 -3.48734221E-02  4.89367161E-02  2.12379900E-17
  1.08167328E-01 -2.71073535E-01 -4.91973501E-02 -1.06744058E-02 -3.24689810E-17
  9.90830973E-02 -2.46949373E-01 -1.38224053E-02 -5.89865231E-02  1.33765999E-16
  9.96183673E-02 -2.48119316E-01  3.48734221E-02 -4.89367161E-02  5.63865386E-17
 -4.32521460E-02 -4.43955268E-02 -4.32521460E-02 -4.43955268E-02  4.36206099E-02
 -1.11965385E-01 -2.45911967E-02 -1.39279853E-02 -2.90483016E-16  2.29772566E-02
 -5.74195886E-02 -1.89142770E-02  1.17054393E-02  2.03607122E-16 -2.18868105E-02
 -9.33410062E-03 -1.36273048E-02  4.36206099E-02 -1.11965385E-01  2.45911967E-02
  1.39279853E-02  2.09781437E-16  2.29772566E-02 -5.74195886E-02  1.89142770E-02
 -1.17054393E-02  1.41951159E-16 -2.18868105E-02 -9.33410062E-03 -1.36273048E-02
 -1.01900643E-01  2.67310151E-01  2.61262864E-02 -3.97714785E-03 -4.60600222E-17
 -3.61468442E-02  9.40533512E-02  6.23445335E-02 -2.74722277E-02  5.30566014E-19
  4.87804911E-02 -1.26878953E-01  4.57875957E-02  4.85842064E-02 -1.71709338E-16
  1.01900643E-01 -2.67310151E-01  2.61262864E-02 -3.97714785E-03  1.23343338E-16
  3.61468442E-02 -9.40533512E-02  6.23445335E-02 -2.74722277E-02  2.18799866E-16
 -4.87804911E-02  1.26878953E-01  4.57875957E-02  4.85842064E-02 -9.55890811E-17
  2.42095608E-02 -3.52695973E-02 -2.42095608E-02  3.52695973E-02  1.11272095E-01
 -2.89949226E-01 -1.81558416E-03 -4.17395096E-02  8.42149697E-19  8.43637046E-02
 -2.16680525E-01 -5.06720652E-02  4.04957659E-02  7.05780054E-17 -6.45227402E-02
 -4.45149341E-02 -5.15515568E-02 -1.11272095E-01  2.89949226E-01 -1.81558416E-03
 -4.17395096E-02 -3.41979265E-17 -8.43637046E-02  2.16680525E-01 -5.06720652E-02
  4.04957659E-02  3.26433371E-17  6.45227402E-02  4.45149341E-02  5.15515568E-02
 -3.60255703E-03  1.30376798E-02  9.08998815E-02  6.81505793E-03 -2.27401823E-16
  4.32797796E-02 -1.11928328E-01  3.21628598E-02  1.83491836E-02 -4.20165936E-17
  3.50741278E-02 -9.04903452E-02 -4.87466412E-02  1.66074250E-03  8.40629285E-17
 -3.60255703E-03  1.30376798E-02 -9.08998815E-02 -6.81505793E-03 -1.09048998E-16
  4.32797796E-02 -1.11928328E-01 -3.21628598E-02 -1.83491836E-02  1.18508499E-17
  3.50741278E-02 -9.04903452E-02  4.87466412E-02 -1.66074250E-03  9.36189297E-19
 -2.11668887E-02 -9.56803436E-03 -2.11668887E-02 -9.56803436E-03 -1.20322199E-01
  3.16253013E-01 -5.89143488E-02  5.48167236E-02 -1.28312983E-16 -1.20801951E-01
  3.15922856E-01  5.37050465E-02 -5.40717415E-02  2.92704197E-16  7.53972812E-02
  7.46185789E-02  7.57753678E-02 -1.20322199E-01  3.16253013E-01  5.89143488E-02
 -5.48167236E-02 -1.61671312E-16 -1.20801951E-01  3.15922856E-01 -5.37050465E-02
  5.40717415E-02 -2.68245363E-16  7.53972812E-02  7.46185789E-02  7.57753678E-02
 -1.91012161E-02  5.12546233E-02 -3.03766123E-02  1.30125287E-01 -1.03341986E-15
 -1.35698501E-01  3.62763302E-01 -5.05995988E-02 -5.82352256E-03  6.95974753E-16
 -1.16832153E-01  3.11921171E-01  6.80821435E-02  3.66014040E-02  4.95070850E-16
  1.91012161E-02 -5.12546233E-02 -3.03766123E-02  1.30125287E-01 -1.70167567E-15
  1.35698501E-01 -3.62763302E-01 -5.05995988E-02 -5.82352256E-03 -6.68851649E-17
  1.16832153E-01 -3.11921171E-01  6.80821435E-02  3.66014040E-02  7.12646645E-17
  9.77657683E-02  8.56258757E-02 -9.77657683E-02 -8.56258757E-02  2.98214820E-03
 -9.52413275E-03 -1.79219111E-02  2.16214049E-02  9.19720254E-16 -1.25723184E-02
  3.25240625E-02  5.83168721E-03  3.04446451E-03  1.10549199E-16 -1.13519379E-02
  7.39913360E-03  1.48048540E-02 -2.98214820E-03  9.52413275E-03 -1.79219111E-02
  2.16214049E-02  1.59667840E-15  1.25723184E-02 -3.25240625E-02  5.83168721E-03
  3.04446451E-03 -3.18269270E-16  1.13519379E-02 -7.39913360E-03 -1.48048540E-02
  1.02140925E-01 -2.78168251E-01  5.97650983E-02  2.47545169E-02 -3.20959408E-16
  3.98953494E-02 -1.09279309E-01 -9.66907198E-02  3.85938496E-02  3.57718613E-17
 -7.77127533E-02  2.12448764E-01 -4.32660621E-02 -6.10977087E-02  3.59383983E-16
 -1.02140925E-01  2.78168251E-01  5.97650983E-02  2.47545169E-02 -4.38340887E-16
 -3.98953494E-02  1.09279309E-01 -9.66907198E-02  3.85938496E-02 -3.70911236E-17
  7.77127533E-02 -2.12448764E-01 -4.32660621E-02 -6.10977087E-02  1.26010048E-16
 -3.03055703E-02  5.36804402E-02  3.03055703E-02 -5.36804402E-02  5.57466961E-02
 -1.46704233E-01  1.20757501E-01 -4.38762008E-02 -2.31297411E-17  1.07719334E-01
 -2.90632902E-01 -1.63715979E-02  3.88157419E-02 -4.14753584E-16 -3.91184305E-02
 -8.56395466E-02 -7.23333855E-02 -5.57466961E-02  1.46704233E-01  1.20757501E-01
 -4.38762008E-02  9.88865884E-16 -1.07719334E-01  2.90632902E-01 -1.63715979E-02
  3.88157419E-02 -2.07741653E-16  3.91184305E-02  8.56395466E-02  7.23333855E-02
 -6.22009396E-02  1.81644231E-01  4.76388659E-02  1.51971986E-01 -6.46773638E-16
 -2.19788738E-02  6.37499339E-02  1.70070023E-01 -2.13722760E-02  4.07362726E-16
  9.04965927E-02 -2.57856695E-01  6.68478518E-03 -5.74616792E-02  3.70238633E-16
 -6.22009396E-02  1.81644231E-01 -4.76388659E-02 -1.51971986E-01 -5.50069042E-16
 -2.19788738E-02  6.37499339E-02 -1.70070023E-01  2.13722760E-02 -1.11394630E-16
  9.04965927E-02 -2.57856695E-01 -6.68478518E-03  5.74616792E-02  9.35080911E-17
  4.17141967E-02 -1.23784712E-01  4.17141967E-02 -1.23784712E-01 -5.46768509E-02
  1.65871386E-01  9.93056950E-02 -8.95339240E-02  4.11194983E-16  7.00508109E-02
 -2.01966497E-01  3.01709900E-02 -4.71923370E-02 -6.13552782E-16  9.16357909E-02
 -8.09770551E-02 -9.96008246E-02 -5.46768509E-02  1.65871386E-01 -9.93056950E-02
  8.95339240E-02  4.47589702E-16  7.00508109E-02 -2.01966497E-01 -3.01709900E-02
  4.71923370E-02 -1.92508625E-16  9.16357909E-02 -8.09770551E-02 -9.96008246E-02
 -6.45529834E-02  1.89959219E-01  7.59126639E-02 -1.67798573E-01  1.93595220E-16
  1.08737204E-01 -3.18124984E-01 -3.99167276E-03 -8.58328481E-02  3.11920500E-16
 -4.30921224E-02  1.26323406E-01 -1.68305723E-01 -1.13966142E-01  1.88560581E-16
 -6.45529834E-02  1.89959219E-01 -7.59126639E-02  1.67798573E-01 -6.86167110E-16
  1.08737204E-01 -3.18124984E-01  3.99167276E-03  8.58328481E-02 -1.73452508E-16
 -4.30921224E-02  1.26323406E-01  1.68305723E-01  1.13966142E-01 -5.29041211E-16
 -1.61934122E-01  5.81219664E-02 -1.61934122E-01  5.81219664E-02 -1.47674392E-02
  4.71034637E-02  9.38751048E-02  2.37091214E-02 -4.89611249E-16  5.14759777E-02
 -1.53307124E-01  5.87690080E-02  4.08099808E-03  2.29253847E-16 -1.29056885E-02
 -8.53764322E-02 -3.89065699E-02 -1.47674392E-02  4.71034637E-02 -9.38751048E-02
 -2.37091214E-02  5.15757663E-16  5.14759777E-02 -1.53307124E-01 -5.87690080E-02
 -4.08099808E-03 -7.11066790E-16 -1.29056885E-02 -8.53764322E-02 -3.89065699E-02
 -1.02729018E-02  2.60790391E-02 -1.18844245E-01 -4.98173211E-02 -1.75742239E-16
 -4.60583450E-02  1.39520854E-01 -2.64785544E-03 -6.63319736E-03  6.45804495E-16
  2.47098366E-02 -7.44422038E-02  7.44313719E-02  3.20799418E-02  2.50662017E-16
  1.02729018E-02 -2.60790391E-02 -1.18844245E-01 -4.98173211E-02 -1.12152212E-15
  4.60583450E-02 -1.39520854E-01 -2.64785544E-03 -6.63319736E-03 -1.30509377E-16
 -2.47098366E-02  7.44422038E-02  7.44313719E-02  3.20799418E-02  6.80538450E-17
  4.29016679E-02 -5.57837172E-02 -4.29016679E-02  5.57837172E-02 -1.00042680E-01
  3.06801752E-01  3.19645919E-02 -1.23273359E-01 -1.31971511E-16  8.04898588E-02
 -2.47884618E-01  8.38673493E-02 -1.35313040E-01 -3.00137277E-16  1.79576327E-01
 -1.25194467E-01 -1.65504117E-01  1.00042680E-01 -3.06801752E-01  3.19645919E-02
 -1.23273359E-01  1.63001359E-15 -8.04898588E-02  2.47884618E-01  8.38673493E-02
 -1.35313040E-01  2.01736489E-16 -1.79576327E-01  1.25194467E-01  1.65504117E-01
 -5.13059251E-02  1.48243790E-01 -1.43632952E-01  1.73443720E-02  3.57894853E-17
  9.33833379E-03 -3.49346700E-02  9.02545484E-02 -1.83681739E-01  6.88878839E-16
  5.28479100E-02 -1.68319900E-01  4.59353055E-02 -1.95674659E-01  5.81816806E-16
 -5.13059251E-02  1.48243790E-01  1.43632952E-01 -1.73443720E-02 -1.16108740E-16
  9.33833379E-03 -3.49346700E-02 -9.02545484E-02  1.83681739E-01 -1.90489610E-16
  5.28479100E-02 -1.68319900E-01 -4.59353055E-02  1.95674659E-01  1.56694974E-17
 -1.02935082E-01 -1.65108949E-01 -1.02935082E-01 -1.65108949E-01  5.92136704E-02
 -1.81024297E-01 -8.06200738E-03  6.83220116E-02  3.24673003E-16 -5.50297410E-02
  1.73159594E-01 -8.19982090E-02  7.73813656E-02 -6.74491654E-16 -1.14257580E-01
  1.05772335E-01  8.92963980E-02  5.92136704E-02 -1.81024297E-01  8.06200738E-03
 -6.83220116E-02 -1.85576253E-16 -5.50297410E-02  1.73159594E-01  8.19982090E-02
 -7.73813656E-02 -8.99981184E-16 -1.14257580E-01  1.05772335E-01  8.92963980E-02
  3.66662472E-02 -1.20847670E-01 -1.25750222E-01 -6.36071176E-02 -3.33965205E-16
  1.33818395E-02 -5.25078929E-02 -1.56022294E-01 -1.30814806E-01  1.55907144E-15
 -2.25992931E-02  6.29995295E-02  1.50203173E-01 -6.99148972E-02  9.14975074E-16
  3.66662472E-02 -1.20847670E-01  1.25750222E-01  6.36071176E-02 -2.25137311E-15
  1.33818395E-02 -5.25078929E-02  1.56022294E-01  1.30814806E-01 -5.97881043E-16
 -2.25992931E-02  6.29995295E-02 -1.50203173E-01  6.99148972E-02  1.95622212E-16
 -1.31978498E-01 -9.11801554E-02 -1.31978498E-01 -9.11801554E-02 -4.25061168E-02
  1.32485501E-01 -1.82799962E-01 -1.05052482E-01  1.30260669E-15  1.43398838E-02
 -5.46328377E-02 -2.29763487E-02 -2.06686870E-01 -7.08944936E-16  1.48355071E-01
  2.01574869E-02 -1.74022442E-01 -4.25061168E-02  1.32485501E-01  1.82799962E-01
  1.05052482E-01  2.77094162E-15  1.43398838E-02 -5.46328377E-02  2.29763487E-02
  2.06686870E-01 -7.60786232E-16  1.48355071E-01  2.01574869E-02 -1.74022442E-01
  1.11738039E-02 -4.06984867E-02 -1.30837017E-01  1.45290887E-01 -1.89033144E-16
 -1.38377561E-02  4.56732714E-02  2.01337254E-01 -7.92537785E-03  1.34197750E-16
  3.52991416E-02 -1.15076098E-01 -1.30010247E-01 -9.95973698E-02  3.27857390E-16
 -1.11738039E-02  4.06984867E-02 -1.30837017E-01  1.45290887E-01 -2.86105979E-16
  1.38377561E-02 -4.56732714E-02  2.01337254E-01 -7.92537785E-03  1.89028760E-16
 -3.52991416E-02  1.15076098E-01 -1.30010247E-01 -9.95973698E-02  4.65724325E-16
  6.79154544E-02 -3.19199761E-02 -6.79154544E-02  3.19199761E-02 -1.90227134E-02
  5.59062645E-02  7.51680658E-02  2.17524674E-01 -7.05986415E-17  1.22615800E-02
 -4.86732258E-02  2.36394266E-01  4.16057122E-02  5.94956973E-16 -1.44475147E-01
 -1.92692870E-01  4.65841588E-02  1.90227134E-02 -5.59062645E-02  7.51680658E-02
  2.17524674E-01 -2.47696793E-16 -1.22615800E-02  4.86732258E-02  2.36394266E-01
  4.16057122E-02  2.48565970E-16  1.44475147E-01  1.92692870E-01 -4.65841588E-02
  7.48107765E-02 -2.51855022E-01  6.85678255E-02 -7.02167573E-05  2.20511577E-15
 -4.42393306E-02  1.54332788E-01  2.03934997E-03  2.22171600E-01  1.36380772E-15
  4.09307138E-02 -1.43888583E-01  1.38804921E-01 -1.96798943E-01  2.30705636E-15
 -7.48107765E-02  2.51855022E-01  6.85678255E-02 -7.02167573E-05  9.51953347E-16
  4.42393306E-02 -1.54332788E-01  2.03934997E-03  2.22171600E-01  1.40346601E-15
 -4.09307138E-02  1.43888583E-01  1.38804921E-01 -1.96798943E-01  2.36679023E-15
  2.42272026E-01 -2.65293141E-01 -2.42272026E-01  2.65293141E-01  1.12093407E-02
 -3.17664304E-02  4.70580681E-02  1.64548123E-02  1.60865410E-15 -1.31240587E-02
  4.73486436E-02 -9.95118045E-02 -1.08115079E-02  1.09975830E-15 -5.25362829E-02
  9.94871835E-02 -3.77719482E-02 -1.12093407E-02  3.17664304E-02  4.70580681E-02
  1.64548123E-02  1.95098939E-15  1.31240587E-02 -4.73486436E-02 -9.95118045E-02
 -1.08115079E-02  7.33551662E-16  5.25362829E-02 -9.94871835E-02  3.77719482E-02
 -6.38674265E-03  2.55118976E-02  1.03394403E-01  2.47203704E-01 -1.58800084E-15
  1.47716595E-02 -5.21339898E-02  9.25368282E-02 -1.48777657E-01  2.13652385E-15
 -3.56117318E-02  1.16242176E-01 -5.33979398E-02 -2.17512300E-01  1.15554029E-15
  6.38674265E-03 -2.55118976E-02  1.03394403E-01  2.47203704E-01 -4.63241313E-15
 -1.47716595E-02  5.21339898E-02  9.25368282E-02 -1.48777657E-01 -1.17222806E-15
  3.56117318E-02 -1.16242176E-01 -5.33979398E-02 -2.17512300E-01  3.73543269E-16
 -1.16547674E-01 -7.46119348E-02  1.16547674E-01  7.46119348E-02  2.46638720E-03
 -1.84975641E-02 -1.94920743E-01  3.48594108E-02  5.65006799E-16 -7.44258593E-04
 -9.31983883E-03 -4.53036317E-02 -2.39390495E-01 -2.58912025E-15  2.61524941E-03
  7.26342651E-02 -2.03560777E-01 -2.46638720E-03  1.84975641E-02 -1.94920743E-01
  3.48594108E-02  3.16400110E-15  7.44258593E-04  9.31983883E-03 -4.53036317E-02
 -2.39390495E-01 -7.07311019E-16 -2.61524941E-03 -7.26342651E-02  2.03560777E-01
 -1.89273786E-02  6.21594599E-02  1.17801837E-02  1.10901139E-02 -9.64169429E-16
  2.53705439E-02 -8.47407250E-02  6.47130837E-02  6.84749051E-04 -8.74680677E-16
 -1.99771582E-02  7.30949981E-02 -1.21131710E-01  2.81223135E-02 -1.24245799E-15
 -1.89273786E-02  6.21594599E-02 -1.17801837E-02 -1.10901139E-02 -2.02296617E-15
  2.53705439E-02 -8.47407250E-02 -6.47130837E-02 -6.84749051E-04 -2.15752907E-15
 -1.99771582E-02  7.30949981E-02  1.21131710E-01 -2.81223135E-02 -1.02413319E-15
 -1.64510458E-02  1.06327997E-01 -1.64510458E-02  1.06327997E-01  2.33294988E-02
 -6.11722733E-02  7.70890160E-02 -2.82005408E-01 -7.69590868E-16  7.31299978E-03
 -5.93522710E-03 -3.27514005E-01  6.74806322E-02 -1.18169897E-15  1.75875785E-01
  2.44365469E-01  5.48669547E-03  2.33294988E-02 -6.11722733E-02 -7.70890160E-02
  2.82005408E-01  1.03101525E-15  7.31299978E-03 -5.93522710E-03  3.27514005E-01
 -6.74806322E-02  1.62127246E-15  1.75875785E-01  2.44365469E-01  5.48669547E-03
 -1.74534670E-03  9.00061462E-03  1.25438594E-01 -4.08514062E-02  8.57571884E-16
  3.38435644E-02 -1.07574041E-01  1.39174130E-01  2.86986065E-01  5.61105708E-16
  7.66992004E-03 -1.99324588E-02 -2.36997181E-01  1.47533497E-01  2.48023025E-16
  1.74534670E-03 -9.00061462E-03  1.25438594E-01 -4.08514062E-02  5.68037164E-16
 -3.38435644E-02  1.07574041E-01  1.39174130E-01  2.86986065E-01  5.07468922E-16
 -7.66992004E-03  1.99324588E-02 -2.36997181E-01  1.47533497E-01  2.64786944E-16
  2.21243482E-01  2.11152030E-01 -2.21243482E-01 -2.11152030E-01 -1.86072356E-03
 -6.98003939E-04 -1.35685316E-01  4.02927966E-03  1.05789888E-15  4.76393942E-03
 -2.44767752E-02  1.88004621E-03 -1.47111142E-01  3.51344534E-16  1.16166155E-02
  1.28690050E-02 -1.03561133E-01  1.86072356E-03  6.98003939E-04 -1.35685316E-01
  4.02927966E-03  1.31376923E-15 -4.76393942E-03  2.44767752E-02  1.88004621E-03
 -1.47111142E-01 -2.10644720E-16 -1.16166155E-02 -1.28690050E-02  1.03561133E-01
  4.61990513E-03 -1.78119793E-02 -1.31341053E-01  1.65949742E-01 -9.14720743E-15
 -1.39775719E-02  5.02110348E-02  2.38248176E-01 -4.32839509E-02 -6.17165418E-15
  9.02796209E-03 -2.86984963E-02 -2.00408768E-01 -9.21239675E-02 -7.09748234E-15
 -4.61990513E-03  1.78119793E-02 -1.31341053E-01  1.65949742E-01 -9.46625892E-15
  1.39775719E-02 -5.02110348E-02  2.38248176E-01 -4.32839509E-02 -7.03789704E-15
 -9.02796209E-03  2.86984963E-02 -2.00408768E-01 -9.21239675E-02 -6.67331720E-15
  4.68098740E-02  4.50370989E-02 -4.68098740E-02 -4.50370989E-02  1.02702024E-03
  1.62959035E-02  1.50587703E-01 -2.40208395E-01 -5.65800017E-15  2.15179273E-02
 -5.70955925E-02 -2.08307929E-01  1.62143858E-01 -4.99532346E-15  1.84204829E-01
  1.25132870E-01  8.41048253E-02 -1.02702024E-03 -1.62959035E-02  1.50587703E-01
 -2.40208395E-01 -4.30436334E-15 -2.15179273E-02  5.70955925E-02 -2.08307929E-01
  1.62143858E-01 -4.25724026E-15 -1.84204829E-01 -1.25132870E-01 -8.41048253E-02
 -2.69612637E-02  9.52282258E-02  1.90999854E-02 -9.18824823E-02  3.08398630E-15
 -7.99374775E-04  1.22556200E-02  1.23351262E-01  1.39608167E-01  4.84235690E-15
  5.64669336E-04 -6.47597632E-05 -1.45261978E-01 -6.52142447E-02  3.74019579E-15
 -2.69612637E-02  9.52282258E-02 -1.90999854E-02  9.18824823E-02 -1.93767446E-15
 -7.99374775E-04  1.22556200E-02 -1.23351262E-01 -1.39608167E-01  1.56260415E-15
  5.64669336E-04 -6.47597633E-05  1.45261978E-01  6.52142447E-02  2.74112416E-15
  1.53148484E-01 -3.24901914E-03  1.53148484E-01 -3.24901914E-03  1.87363925E-02
 -7.61640395E-02 -6.88741398E-02  1.75750010E-01  1.59158702E-15 -8.22853655E-03
  1.93193223E-02 -1.13925204E-01 -2.87081253E-01 -2.03134533E-15 -1.81847395E-01
  1.74036624E-01 -2.74772571E-01  1.87363925E-02 -7.61640395E-02  6.88741398E-02
 -1.75750010E-01  5.97281081E-15 -8.22853655E-03  1.93193223E-02  1.13925204E-01
  2.87081253E-01 -5.31914946E-16 -1.81847395E-01  1.74036624E-01 -2.74772571E-01
  2.06498234E-16 -1.78643404E-16  3.87212436E-15 -6.34648255E-15 -3.36066040E-01
 -3.67536338E-17 -2.03419029E-16 -5.97440067E-15  4.15167729E-15 -3.01395349E-01
  1.92946570E-16 -9.90374256E-16  4.55588073E-15  7.44047536E-16 -3.01336330E-01
 -5.03003787E-16  2.00325839E-15  3.45577926E-15 -3.18563910E-15 -3.36066040E-01
 -1.86873712E-16  9.21145010E-16 -5.52305781E-15  1.49580928E-15 -3.01395349E-01
  9.73364540E-17 -5.56392769E-16  5.74259449E-15  2.24185765E-15 -3.01336330E-01
  3.09663378E-15 -3.79963302E-15  1.14629599E-15  1.16449146E-15  2.67265360E-16
 -1.38613262E-15 -4.29358231E-15  7.97722824E-15 -1.56768719E-01 -7.65509829E-16
  2.28000497E-15  5.10252980E-15 -6.09727993E-15 -8.64951491E-02 -6.41274265E-15
 -2.35982979E-15 -4.51135380E-15  2.67861063E-17  3.65038771E-16 -2.81640890E-15
  3.38173435E-15 -1.56768719E-01  5.09531517E-16 -1.53963791E-15  5.24196775E-15
 -1.87764687E-15 -8.64951491E-02  3.24209769E-15  3.39824842E-15 -2.94764210E-17
  1.19886789E-02 -5.56902706E-02 -2.77504224E-01 -7.87859057E-02  2.69044926E-15
 -1.09942463E-02  3.62739160E-02  5.19581961E-04 -6.82478655E-02  4.31332698E-15
  1.52121566E-02 -5.05189679E-02 -4.06147160E-02  1.38286197E-01  5.58002651E-17
 -1.19886789E-02  5.56902706E-02 -2.77504224E-01 -7.87859057E-02 -7.94002905E-15
  1.09942463E-02 -3.62739160E-02  5.19581961E-04 -6.82478655E-02 -2.99875269E-15
 -1.52121566E-02  5.05189679E-02 -4.06147160E-02  1.38286197E-01  5.83418037E-16
 -3.07235053E-02  6.20833615E-02  3.07235053E-02 -6.20833615E-02 -3.86517160E-03
  1.78128755E-02  2.10729692E-01  1.70332345E-01 -3.12586650E-15  2.73787285E-03
 -6.68979703E-03 -1.84367357E-01 -1.61441201E-01 -5.42448771E-15 -2.26165280E-01
  2.31767181E-01 -2.21379406E-01  3.86517160E-03 -1.78128755E-02  2.10729692E-01
  1.70332345E-01  8.58449822E-15 -2.73787285E-03  6.68979703E-03 -1.84367357E-01
 -1.61441201E-01  3.77030449E-15  2.26165280E-01 -2.31767181E-01  2.21379406E-01
  3.34770234E-03 -8.09403765E-03  1.36557039E-01 -2.86708530E-01  2.97827347E-15
  7.69786953E-03 -1.88872119E-02 -1.73629313E-01  2.42644122E-01  1.81385421E-15
 -8.87445300E-03  1.95677751E-02  1.24442684E-01 -2.46450985E-01  1.01986405E-15
  3.34770234E-03 -8.09403765E-03 -1.36557039E-01  2.86708530E-01 -2.51239644E-15
  7.69786953E-03 -1.88872119E-02  1.73629313E-01 -2.42644122E-01  1.21486248E-15
 -8.87445300E-03  1.95677751E-02 -1.24442684E-01  2.46450985E-01  1.87385594E-15
  1.91785734E-01 -2.84357577E-01  1.91785734E-01 -2.84357577E-01 -7.06778044E-03
  3.61196398E-02  1.08946967E-01 -5.89075425E-02 -2.55132536E-15  6.35155835E-03
 -1.55071722E-02 -5.57399702E-02  1.17349025E-01 -4.09579043E-15  6.91267181E-02
  2.50622773E-02  5.20306122E-02 -7.06778044E-03  3.61196398E-02 -1.08946967E-01
  5.89075425E-02  2.16964938E-15  6.35155835E-03 -1.55071722E-02  5.57399702E-02
 -1.17349025E-01 -1.72813013E-16  6.91267181E-02  2.50622773E-02  5.20306122E-02
 -9.09817672E-03  5.27252897E-02  2.57505999E-01  1.35710241E-01  6.31234631E-15
 -5.31982184E-03  1.42467309E-02 -2.23126143E-01 -7.87180547E-02  5.94565270E-15
 -1.91706775E-03  7.56598502E-03  2.18125455E-01  1.64238633E-01 -1.31545941E-15
 -9.09817672E-03  5.27252897E-02 -2.57505999E-01 -1.35710241E-01 -1.07645412E-14
 -5.31982184E-03  1.42467309E-02  2.23126143E-01  7.87180547E-02 -4.35939920E-15
 -1.91706775E-03  7.56598502E-03 -2.18125455E-01 -1.64238633E-01  3.08862976E-15
 -1.81007195E-01 -5.43259145E-02 -1.81007195E-01 -5.43259145E-02 -2.23140161E-02
  9.26292670E-02  2.69999802E-01  1.14762704E-01 -6.87215003E-15  3.66083352E-03
 -6.35204404E-03 -1.28803135E-01 -3.66242675E-02 -7.63059703E-15 -1.69035285E-01
  1.55825192E-01 -1.15094568E-01 -2.23140161E-02  9.26292670E-02 -2.69999802E-01
 -1.14762704E-01  1.13564940E-14  3.66083352E-03 -6.35204404E-03  1.28803135E-01
  3.66242675E-02  4.92170999E-15 -1.69035285E-01  1.55825192E-01 -1.15094568E-01
  1.14775799E-16 -9.65324397E-16 -2.92222581E-15 -1.73848255E-15  3.43554914E-01
  1.57633358E-16 -3.52311777E-16  5.98446515E-15  1.32273264E-15  1.31371890E-01
  1.26657939E-16  2.78505883E-16 -4.66773607E-15 -3.97278605E-15 -1.41153829E-01
  8.26113184E-16 -4.49613200E-15  1.21921321E-14 -1.58008372E-16 -3.43554914E-01
 -2.82183104E-16  1.15009806E-15 -6.26667380E-15  1.89458583E-15 -1.31371890E-01
  3.57733607E-16 -1.86676025E-15  5.72829915E-15  7.78060588E-16  1.41153829E-01
  3.51902213E-15  2.38115461E-15  2.10435218E-15  4.09448170E-15  6.45749938E-16
 -2.42288082E-15 -8.23847401E-15 -3.63182980E-15 -3.71838338E-01 -3.57647405E-16
  5.26701807E-16  8.22121513E-15  4.77789220E-15 -2.80664306E-01  7.86879344E-15
 -9.18240959E-15  9.21289432E-15  2.75783100E-16 -1.31629519E-15  3.88120113E-15
  1.67339150E-16  3.71838338E-01  6.01788589E-17 -4.98404283E-16 -1.18919467E-15
  1.58191024E-15  2.80664306E-01  1.13994679E-15 -1.70746884E-15  3.79196442E-17
 -2.73192657E-16  7.05897514E-16  5.99724822E-16 -1.08882516E-15 -2.08164372E-02
  2.68449329E-16 -7.33121743E-17  1.52216697E-16  1.53654615E-17 -1.64245332E-01
  3.73798435E-17 -6.40954704E-16 -2.56899236E-16 -2.37957765E-15 -1.57498206E-01
 -7.38509972E-17  9.25746596E-17 -1.05293251E-17  1.03939745E-15 -2.08164372E-02
 -1.08871344E-16 -7.21092053E-17  1.03416952E-15 -1.64826841E-15 -1.64245332E-01
 -7.52773648E-17  1.41801162E-16 -1.15936099E-15 -4.45804763E-16 -1.57498206E-01
  5.50871927E-16 -5.61219781E-16  1.09622356E-15 -2.09593451E-15  2.08530879E-16
 -2.10754837E-16  3.71493635E-16  1.54468764E-16  4.18421227E-01  1.88738447E-16
 -9.58287197E-16 -2.59001580E-16  1.32665493E-15  4.23846773E-01  1.09972420E-15
  7.42868705E-17  2.23906611E-15  5.17817812E-17  6.72751740E-17 -2.53670640E-16
 -9.66278693E-17  4.18421227E-01 -7.06596519E-17  4.58849861E-16 -7.16740216E-16
  1.22618120E-15  4.23846773E-01 -1.70214174E-15 -7.26165606E-16 -1.26877274E-16
 -4.38282066E-18  2.03340427E-16  1.69372575E-18 -1.39465309E-15  1.75137245E-02
  8.60914689E-17 -1.79368418E-16  5.73393752E-16  1.40968779E-15  4.69342995E-01
  8.63845516E-17 -1.04917901E-16 -3.21368293E-16  3.91921079E-16  4.50793684E-01
  2.52099859E-16 -1.20733897E-15  2.34283811E-15 -4.11519877E-16 -1.75137245E-02
 -1.46813336E-16  2.30816174E-16 -6.71046024E-16 -1.92929872E-16 -4.69342995E-01
  9.36402688E-17 -8.95178983E-16  2.75578441E-16 -1.09910335E-15 -4.50793684E-01
  1.02269212E-15  8.49955642E-17  5.37268586E-16  9.08686821E-16  3.54425564E-16
 -5.73524170E-16 -5.30925444E-16 -1.16712440E-17  4.53680811E-04 -7.59104475E-18
 -3.25588304E-16  1.81028556E-15  2.26250898E-15  1.33685839E-02  2.62713379E-15
 -1.70572365E-15  2.99214719E-15  3.34554160E-17 -8.04647190E-17  4.55221477E-16
 -6.37124584E-16 -4.53680811E-04  5.43721653E-17 -3.51842355E-16  3.38750832E-16
 -9.14956811E-17 -1.33685839E-02  5.61044257E-16 -4.04396902E-16  1.13093848E-17
  1.02917164E-16 -2.34778191E-16  2.30543456E-16 -5.44332708E-16 -3.90283168E-01
 -1.42979502E-16  3.64433554E-17 -1.14394982E-16 -4.96861571E-16 -2.06929161E-01
 -4.52414372E-18 -1.82252595E-16  1.40149139E-16  3.39858083E-16  2.41831284E-01
 -8.10075810E-17  9.46103735E-17  3.80374556E-17  9.40445261E-16  3.90283168E-01
  5.31438849E-17  8.58261973E-17  3.88073358E-16  9.16154976E-16  2.06929161E-01
  5.31589789E-19 -6.69321228E-17  7.09573602E-17 -7.57979272E-16 -2.41831284E-01
  3.25517663E-16 -4.28999883E-16 -4.52507139E-16 -3.01351837E-16  4.67343581E-17
 -1.80193575E-16  1.02288871E-16  1.29688961E-16 -2.31200094E-01 -1.22434779E-16
  4.46295537E-16  1.78444849E-16 -9.66010476E-16 -3.82038740E-01 -2.13832775E-16
 -3.80979666E-17 -4.47324322E-16 -7.89657721E-17  1.15755452E-16 -4.90291939E-16
  2.29983378E-16  2.31200094E-01  2.20839377E-18 -6.58419254E-17 -5.97780286E-17
  8.50757492E-16  3.82038740E-01 -3.40185016E-16  4.37573521E-16 -2.01152330E-16
 -1.97588119E-17  2.36005789E-16  5.65293357E-16 -1.30632831E-15 -4.49204755E-01
  6.62743146E-17  1.87586211E-16 -1.58059197E-16  5.72781542E-16  2.28506521E-01
  4.14259453E-17 -4.70448500E-16 -3.81269326E-16  5.17600468E-19  2.87226918E-01
  4.95846510E-17 -4.09374031E-16  5.25344442E-16 -5.20900737E-16 -4.49204755E-01
 -1.92316529E-16  2.61151623E-16 -1.86108355E-16  4.48656670E-16  2.28506521E-01
  6.05820880E-17  7.19702276E-17 -1.26903266E-16  5.99472550E-16  2.87226918E-01
 -9.89898428E-17  2.46924620E-16  2.71216027E-17 -6.14670046E-16 -1.55679128E-16
  9.01353212E-16 -5.74499269E-17 -1.15098372E-15 -2.73378206E-01 -5.80038364E-18
 -4.64745508E-16 -1.24803764E-16  5.42365203E-16  4.41922217E-01 -1.12021016E-15
 -1.19902529E-16  8.26851294E-16  7.29303689E-17 -2.40480025E-16 -1.53782580E-16
 -6.01457543E-17 -2.73378206E-01 -6.55730294E-17  5.18719601E-16  1.61185376E-16
  9.85699165E-16  4.41922217E-01 -2.46070161E-16 -3.62361274E-16  1.19258113E-17
 -6.40867164E-17  4.06961103E-16  1.65918892E-16 -6.25399731E-17  3.63041474E-02
  1.61179195E-16 -2.68081832E-16 -3.24894964E-17 -1.33690512E-15 -5.86446335E-01
  2.50474886E-17 -4.70659220E-16  5.90949679E-17  1.08226840E-15  5.51646626E-01
  1.60191701E-17 -7.50972564E-17  5.01609767E-16  2.56115751E-16  3.63041474E-02
  1.11621527E-18 -1.61467467E-16  4.46625551E-16 -7.29276255E-16 -5.86446335E-01
  4.14296545E-17 -2.50739386E-16  6.07401727E-18  8.87574847E-16  5.51646626E-01
  3.77620101E-16  3.91933972E-16  3.17326976E-16 -2.67165998E-16  1.00097335E-16
  4.32064942E-16  2.88485641E-16  4.38379990E-16 -1.34221061E-03  1.22396866E-16
 -7.63557322E-16  2.98030259E-16 -2.35046803E-16 -1.86249156E-02 -9.49823806E-19
  6.33487418E-16  1.66570507E-16  3.49900607E-17 -1.91447799E-16  2.99913820E-16
 -3.16684678E-16 -1.34221061E-03 -8.53097566E-18 -8.05703731E-18 -9.96937212E-17
 -8.76266693E-17 -1.86249156E-02  1.10728497E-17 -2.38402365E-16 -1.77261116E-17
 -1.60721419E-16  8.15052005E-16 -3.95312061E-16 -7.06008424E-16  2.54446561E-02
 -1.03375102E-16  3.42226960E-16 -8.34850814E-17 -4.46074762E-16 -2.16787776E-01
  1.37818618E-16 -2.46071696E-16 -2.41423290E-16  6.89940930E-16  2.09079319E-01
 -2.43992833E-16  1.68770955E-15 -5.86180868E-16 -8.87835988E-16 -2.54446561E-02
  9.58687529E-17 -9.58165962E-16 -1.65204094E-16 -4.30515686E-16  2.16787776E-01
 -6.31091785E-17 -7.27853766E-17 -6.53752427E-16 -1.57520759E-15 -2.09079319E-01
  1.36226986E-16 -3.06713700E-16  2.69544313E-16 -1.22958740E-16  1.81440650E-16
 -1.57814959E-15 -7.43426454E-16 -1.47716016E-15 -5.35542961E-01 -3.14213268E-16
  1.83233075E-15 -1.36391099E-16  1.22758311E-15  5.35115158E-01  2.43954640E-16
 -1.11323974E-15 -5.98932489E-16 -6.73896853E-17  4.81138535E-16  5.37558762E-16
  8.96538566E-16  5.35542961E-01 -3.99161777E-17 -1.45925279E-16  5.27274070E-16
 -1.31109352E-15 -5.35115158E-01 -1.81409055E-16 -3.00513345E-16 -1.86985412E-17
  1.11504005E-15 -6.81479364E-15 -1.90983788E-15 -1.10824403E-14 -4.93660566E-01
 -3.82228914E-16  4.11227924E-15  6.77405486E-15 -2.09877644E-15  1.76386390E-01
 -7.42642538E-16  6.48608765E-15 -2.97108053E-15 -2.31489425E-15  2.06624390E-01
  3.32992777E-15 -1.94398881E-14  8.32265419E-15 -3.40112342E-15 -4.93660566E-01
 -8.67544283E-16  4.38010278E-15 -2.22966724E-15  7.08933940E-15  1.76386390E-01
  1.60612724E-15 -1.14613883E-14 -3.31552819E-15  2.85944361E-15  2.06624390E-01
  5.17149809E-17 -3.04483039E-16  3.43598029E-15  1.26679119E-14 -3.17502414E-16
  2.02348820E-15  1.12444145E-14  1.43945421E-14  5.21614806E-01  4.42144211E-16
 -4.22331214E-15  2.46214419E-15  5.01072606E-15 -3.85920775E-01  1.53278304E-14
  2.56715336E-15  2.62307455E-15 -7.34651839E-16  4.98437429E-15 -3.38965011E-15
 -6.13590350E-15  5.21614806E-01  9.12914987E-16 -5.52962643E-15  3.55586812E-15
 -2.00835577E-15 -3.85920775E-01  4.56211148E-15  1.02821786E-15  1.99694762E-17
  3.93158246E-16 -2.26348773E-15 -7.40598767E-15  3.26585190E-15  5.47425016E-01
 -9.36870635E-16  5.28618524E-15 -5.16769109E-15  2.84584540E-15 -4.77707090E-01
 -6.08658273E-16  3.63680111E-15 -1.08383380E-14  1.23497306E-14  4.79864962E-01
 -2.69013232E-15  1.53287766E-14 -1.88449803E-14  3.26358216E-16 -5.47425016E-01
 -8.58309177E-17  7.04134917E-16 -4.57191044E-15  2.06752596E-15  4.77707090E-01
 -2.26870224E-16  1.19853267E-15 -5.74090234E-15  2.02816547E-15 -4.79864962E-01
 -5.79686452E-15 -1.75971955E-14 -2.17421934E-15  4.95551693E-15  4.50696722E-15
 -2.61650726E-14 -1.38431005E-14  8.62024334E-16  2.60956514E-01 -2.89908373E-15
  1.68965218E-14 -4.85124101E-15  8.31386262E-16 -1.43006204E-01  1.24390674E-14
 -1.48428988E-14 -5.48954907E-15 -1.03807537E-15  5.91232818E-15 -4.63726346E-15
 -1.50046942E-15 -2.60956514E-01  6.80294229E-16 -3.99582463E-15 -2.72165238E-15
 -4.03453027E-16  1.43006204E-01 -1.20761926E-15  5.20395929E-15  8.06469519E-17
  6.92837511E-02 -3.97776025E-01 -3.31531061E-01 -8.78850529E-02  1.43434899E-14
  3.30532066E-02 -2.01835785E-01 -3.98674687E-02 -2.71859497E-01 -8.75467206E-15
  4.29264579E-02 -2.58650724E-01  1.22959793E-01 -1.82392813E-01  3.17840052E-15
  6.92837511E-02 -3.97776025E-01  3.31531061E-01  8.78850529E-02  6.07802361E-16
  3.30532066E-02 -2.01835785E-01  3.98674687E-02  2.71859497E-01  4.05055962E-15
  4.29264579E-02 -2.58650724E-01 -1.22959793E-01  1.82392813E-01 -9.74164597E-15
  4.09860386E-01  4.06693722E-01  4.09860386E-01  4.06693722E-01 -5.97086824E-02
  3.28608515E-01  3.83878512E-01  1.90909474E-01 -5.12023706E-15  3.83087977E-02
 -2.18373239E-01  1.46276120E-01  9.13245055E-02  5.05834058E-15  7.07402923E-02
  3.37849841E-01 -9.93157103E-02 -5.97086824E-02  3.28608515E-01 -3.83878512E-01
 -1.90909474E-01 -1.08413945E-14  3.83087977E-02 -2.18373239E-01 -1.46276120E-01
 -9.13245055E-02  6.60543488E-15  7.07402923E-02  3.37849841E-01 -9.93157103E-02
 -5.46364233E-02  3.09938161E-01  2.69019982E-01  2.24117921E-01  5.67779395E-15
  1.40103935E-02 -7.51536415E-02  7.64310205E-02  2.95818975E-01 -4.35292573E-15
 -3.06143032E-02  1.79862520E-01  3.23026776E-02  2.23582903E-01  7.42496324E-17
  5.46364233E-02 -3.09938161E-01  2.69019982E-01  2.24117921E-01  9.10040076E-16
 -1.40103935E-02  7.51536415E-02  7.64310205E-02  2.95818975E-01  8.94799706E-16
  3.06143032E-02 -1.79862520E-01  3.23026776E-02  2.23582903E-01 -4.48652657E-15
 -2.71376563E-01 -2.13833244E-01  2.71376563E-01  2.13833244E-01 -1.84456860E-02
  9.70024671E-02  3.42320369E-01  2.82383584E-01 -3.42108858E-15 -6.24382261E-03
  3.72587201E-02  2.08283430E-01  3.14212236E-01  2.33138328E-15  3.23557178E-01
  2.90344142E-01 -3.83246938E-01  1.84456860E-02 -9.70024671E-02  3.42320369E-01
  2.82383584E-01 -5.74342142E-15  6.24382261E-03 -3.72587201E-02  2.08283430E-01
  3.14212236E-01  2.31691752E-15 -3.23557178E-01 -2.90344142E-01  3.83246938E-01
 -4.12124212E-02  2.28388076E-01  4.39129653E-01 -7.94746564E-02  1.48481852E-14
  1.57055751E-02 -9.48376867E-02  2.19927338E-01 -1.47802082E-01 -1.26264149E-14
  1.04185222E-02 -6.86611247E-02  3.45184580E-01 -2.62934307E-01  1.34551382E-14
  4.12124212E-02 -2.28388076E-01  4.39129653E-01 -7.94746564E-02 -1.50396216E-14
 -1.57055751E-02  9.48376867E-02  2.19927338E-01 -1.47802082E-01  1.42059514E-14
 -1.04185222E-02  6.86611247E-02  3.45184580E-01 -2.62934307E-01 -1.29027807E-14
  1.04508973E-01  4.61914908E-01 -1.04508973E-01 -4.61914908E-01 -9.94376530E-02
  5.73055449E-01  2.80491776E-01 -4.12044959E-02  7.87183517E-15  5.67537929E-02
 -3.29752061E-01  5.10262666E-02 -4.50219099E-02 -4.13139230E-15 -2.98544852E-01
  2.45581808E-01  1.41982405E-01  9.94376530E-02 -5.73055449E-01  2.80491776E-01
 -4.12044959E-02 -5.90417685E-15 -5.67537929E-02  3.29752061E-01  5.10262666E-02
 -4.50219099E-02  2.90171221E-15  2.98544852E-01 -2.45581808E-01 -1.41982405E-01
  3.42420921E-02 -2.05927285E-01 -9.34352679E-03 -2.92069915E-02 -7.30427607E-16
 -3.75493719E-02  2.31159854E-01  1.43499161E-01 -9.71628364E-03  2.13705084E-15
 -4.29930868E-02  2.65753471E-01 -2.03175033E-01  1.55282882E-01 -4.94331917E-15
  3.42420921E-02 -2.05927285E-01  9.34352679E-03  2.92069915E-02  7.19826502E-15
 -3.75493719E-02  2.31159854E-01 -1.43499161E-01  9.71628364E-03 -4.30906746E-15
 -4.29930868E-02  2.65753471E-01  2.03175033E-01 -1.55282882E-01  2.54878501E-15
 -1.91560782E-01 -3.22781580E-01 -1.91560782E-01 -3.22781580E-01  5.52119499E-02
 -3.33821370E-01  1.48843057E-01  2.86166256E-01 -6.34942352E-15 -4.35691395E-02
  2.55501167E-01  2.68661194E-01  3.34431689E-01  3.78702178E-15  5.21583485E-01
  2.02148813E-01 -5.03386054E-01  5.52119499E-02 -3.33821370E-01 -1.48843057E-01
 -2.86166256E-01 -1.75717561E-15 -4.35691395E-02  2.55501167E-01 -2.68661194E-01
 -3.34431689E-01  2.61457366E-15  5.21583485E-01  2.02148813E-01 -5.03386054E-01
 -6.88657530E-02  3.99789804E-01  6.47895106E-02 -1.01405049E-01  9.32136553E-16
  6.50457594E-02 -3.87262913E-01  6.62040748E-02 -1.11873484E-01  8.58394291E-17
 -9.16698777E-02  5.57648608E-01 -9.90691194E-02  2.22401742E-02 -1.19655343E-15
  6.88657530E-02 -3.99789804E-01  6.47895106E-02 -1.01405049E-01  2.13306637E-15
 -6.50457594E-02  3.87262913E-01  6.62040748E-02 -1.11873484E-01 -1.15835371E-15
  9.16698777E-02 -5.57648608E-01 -9.90691194E-02  2.22401742E-02  4.93593753E-17
  2.79879960E-01 -3.02477737E-01 -2.79879960E-01  3.02477737E-01 -6.00513664E-02
  3.78028936E-01  1.36854182E-01 -2.61289944E-01 -8.13901144E-16 -8.12289455E-02
  5.16096008E-01 -2.18296565E-01  1.98458032E-01  1.07406538E-15 -3.81074949E-01
 -4.15621168E-01 -3.38335332E-01  6.00513664E-02 -3.78028936E-01  1.36854182E-01
 -2.61289944E-01 -4.62181306E-16  8.12289455E-02 -5.16096008E-01 -2.18296565E-01
  1.98458032E-01  2.94418811E-16  3.81074949E-01  4.15621168E-01  3.38335332E-01
 -4.07977563E-02  2.42055931E-01  1.95971470E-01 -2.06850663E-01  1.65358854E-15
 -7.37080542E-02  4.55675858E-01 -1.29730318E-01  4.74686140E-02 -2.48148173E-16
  8.56290622E-02 -5.26501469E-01 -1.79702579E-02  1.55745196E-03 -1.21219695E-15
 -4.07977563E-02  2.42055931E-01 -1.95971470E-01  2.06850663E-01  2.04151999E-15
 -7.37080542E-02  4.55675858E-01  1.29730318E-01 -4.74686140E-02 -3.78708376E-16
  8.56290622E-02 -5.26501469E-01  1.79702579E-02 -1.55745196E-03 -4.61529999E-16
 -2.52974766E-01  1.81364527E-01 -2.52974766E-01  1.81364527E-01  4.62778580E-02
 -2.92212907E-01 -1.88955510E-01  2.41064554E-01 -2.94381988E-15  9.79869011E-02
 -6.19947303E-01  1.88704742E-01 -1.79328239E-01  2.26278455E-15  3.41629743E-01
  4.40516446E-01  3.95023456E-01  4.62778580E-02 -2.92212907E-01  1.88955510E-01
 -2.41064554E-01 -1.47029184E-15  9.79869011E-02 -6.19947303E-01 -1.88704742E-01
  1.79328239E-01  1.06060305E-15  3.41629743E-01  4.40516446E-01  3.95023456E-01
 -3.95368019E-02  2.44027412E-01 -1.42872007E-01 -1.60938136E-01  2.18531407E-15
  7.20991818E-02 -4.44266263E-01 -2.37762125E-01 -3.78949447E-01 -4.40153734E-16
 -2.30272976E-02  1.31951962E-01 -6.07683326E-02 -2.46235982E-01  5.28361067E-16
  3.95368019E-02 -2.44027412E-01 -1.42872007E-01 -1.60938136E-01  1.02363857E-15
 -7.20991818E-02  4.44266263E-01 -2.37762125E-01 -3.78949447E-01  1.15329489E-15
  2.30272976E-02 -1.31951962E-01 -6.07683326E-02 -2.46235982E-01 -3.48649230E-16
  6.68128972E-01  6.67375809E-02 -6.68128972E-01 -6.67375809E-02  5.21148468E-02
 -3.30677488E-01  3.15471685E-02  1.85411285E-01 -1.12062160E-15  3.09982289E-03
 -2.58878828E-02  2.88640687E-01  9.57673820E-02  7.58262482E-16  3.69068691E-01
  2.96736965E-01 -1.68825010E-01 -5.21148468E-02  3.30677488E-01  3.15471685E-02
  1.85411285E-01 -2.42469630E-15 -3.09982289E-03  2.58878828E-02  2.88640687E-01
  9.57673820E-02  1.20814977E-15 -3.69068691E-01 -2.96736965E-01  1.68825010E-01
  1.16116127E-01 -7.08478046E-01 -4.41692405E-02 -4.09069721E-02  4.32047213E-15
 -9.18045900E-02  5.77250432E-01  2.55092693E-01  1.00179131E-01 -3.88409888E-15
 -4.96317926E-02  3.13765314E-01 -2.56345644E-01 -1.92814303E-01  2.58652612E-15
  1.16116127E-01 -7.08478046E-01  4.41692405E-02  4.09069721E-02 -1.57506148E-15
 -9.18045900E-02  5.77250432E-01 -2.55092693E-01 -1.00179131E-01  1.74184111E-15
 -4.96317926E-02  3.13765314E-01  2.56345644E-01  1.92814303E-01 -4.11776075E-15
 -4.13092533E-01 -1.94824896E-01 -4.13092533E-01 -1.94824896E-01 -9.86391623E-02
  5.99497249E-01  8.31136822E-02 -1.42049512E-01 -5.40372977E-16  6.22994585E-02
 -3.76960135E-01  4.21068069E-02  3.92299324E-02  4.37045256E-16 -3.98947494E-01
  2.39091262E-01  1.65043912E-01 -9.86391623E-02  5.99497249E-01 -8.31136822E-02
  1.42049512E-01 -2.09482034E-15  6.22994585E-02 -3.76960135E-01 -4.21068069E-02
 -3.92299324E-02  1.03003420E-15 -3.98947494E-01  2.39091262E-01  1.65043912E-01
 -5.78794585E-02  3.52920401E-01 -1.34779518E-01  1.36107035E-01  1.71303400E-15
  5.31092806E-02 -3.26395737E-01 -1.80894483E-01  1.37050789E-01 -1.59975574E-15
 -6.18771626E-02  3.81215492E-01 -1.98307302E-01  1.60852359E-01 -2.34567624E-16
  5.78794585E-02 -3.52920401E-01 -1.34779518E-01  1.36107035E-01 -7.99527486E-17
 -5.31092806E-02  3.26395737E-01 -1.80894483E-01  1.37050789E-01  4.53849398E-16
  6.18771626E-02 -3.81215492E-01 -1.98307302E-01  1.60852359E-01 -2.04717741E-15
  8.50201511E-02 -5.02687296E-01 -8.50201511E-02  5.02687296E-01 -6.43112990E-02
  3.93256806E-01 -1.51887313E-01 -5.19418926E-02 -1.32910887E-15  1.14601623E-01
 -7.24103415E-01  8.31618189E-02 -9.64335990E-02  1.10303715E-15 -2.75089582E-01
  3.91360105E-01  4.87773302E-01  6.43112990E-02 -3.93256806E-01 -1.51887313E-01
 -5.19418926E-02 -1.29288083E-15 -1.14601623E-01  7.24103415E-01  8.31618189E-02
 -9.64335990E-02  9.38230737E-17  2.75089582E-01 -3.91360105E-01 -4.87773302E-01
  1.57198948E-02 -9.75963849E-02 -9.97579711E-03 -3.62481969E-01  1.86745025E-15
 -1.09910935E-01  7.04970233E-01 -1.73737335E-01 -1.60859145E-02 -1.54686405E-16
  1.14164672E-01 -7.34532210E-01 -1.69793913E-01 -1.04070123E-01 -1.30558888E-15
  1.57198948E-02 -9.75963849E-02  9.97579711E-03  3.62481969E-01  2.02195451E-15
 -1.09910935E-01  7.04970233E-01  1.73737335E-01  1.60859145E-02 -1.43867999E-15
  1.14164672E-01 -7.34532210E-01  1.69793913E-01  1.04070123E-01 -6.66911141E-16
 -2.67359591E-01  3.71171985E-01 -2.67359591E-01  3.71171985E-01 -1.57392342E-02
  1.19886699E-01  1.07782357E-01  6.81174284E-03 -1.86979507E-15 -6.59834139E-02
  4.26031323E-01 -3.35949880E-01  1.32208453E-01  6.44883805E-16  9.51807920E-03
 -4.46485617E-01 -3.03705978E-01 -1.57392342E-02  1.19886699E-01 -1.07782357E-01
 -6.81174284E-03 -2.03858027E-15 -6.59834139E-02  4.26031323E-01  3.35949880E-01
 -1.32208453E-01  1.65763419E-15  9.51807920E-03 -4.46485617E-01 -3.03705978E-01
  9.77610897E-02 -6.60137528E-01  5.64457977E-01  1.33414563E-01  1.21726505E-15
 -3.00049490E-02  2.00325646E-01  2.12956977E-01 -4.33581778E-01  7.24318631E-16
 -5.37194824E-02  3.54558780E-01  2.02174089E-02 -4.14152125E-01 -1.01007266E-15
  9.77610897E-02 -6.60137528E-01 -5.64457977E-01 -1.33414563E-01  4.05774471E-15
 -3.00049490E-02  2.00325646E-01 -2.12956977E-01  4.33581778E-01 -2.40057123E-15
 -5.37194824E-02  3.54558780E-01 -2.02174089E-02  4.14152125E-01 -1.08404076E-15
  1.77994302E-01  8.55230217E-02  1.77994302E-01  8.55230217E-02  5.67280257E-02
 -3.73615351E-01  8.36146095E-02  1.44519238E-01 -3.78776134E-15 -2.16008002E-02
  1.39498944E-01 -1.62575195E-01 -2.96829648E-01  3.04320385E-15  2.67844692E-01
 -2.47282153E-01  1.83513445E-01  5.67280257E-02 -3.73615351E-01 -8.36146095E-02
 -1.44519238E-01 -1.93542049E-15 -2.16008002E-02  1.39498944E-01  1.62575195E-01
  2.96829648E-01  9.06195664E-16  2.67844692E-01 -2.47282153E-01  1.83513445E-01
  2.25486835E-03  2.77137270E-04  8.65564431E-02 -5.35419030E-01  3.47912482E-15
 -1.01167693E-01  6.89733343E-01  1.36814561E-02  2.47523732E-03 -1.41610845E-15
 -1.42228741E-02  1.12708749E-01 -4.79649751E-01 -2.93526776E-01  7.59917443E-17
 -2.25486835E-03 -2.77137269E-04  8.65564431E-02 -5.35419030E-01  2.25994904E-15
  1.01167693E-01 -6.89733343E-01  1.36814561E-02  2.47523732E-03  3.20014775E-16
  1.42228741E-02 -1.12708749E-01 -4.79649751E-01 -2.93526776E-01 -1.18202714E-15
 -2.82305534E-01 -8.83593976E-02  2.82305534E-01  8.83593976E-02  8.66051273E-03
 -7.18871050E-02 -3.33066057E-02 -3.32350014E-01 -6.88999409E-16 -1.27514291E-02
  1.00013656E-01  4.61896102E-01  1.08567082E-01  7.22620874E-16 -2.55048003E-01
  3.39944001E-01 -2.08160940E-01 -8.66051273E-03  7.18871050E-02 -3.33066057E-02
 -3.32350014E-01 -2.52012437E-15  1.27514291E-02 -1.00013656E-01  4.61896102E-01
  1.08567082E-01  1.49274402E-15  2.55048003E-01 -3.39944001E-01  2.08160940E-01
  2.60514403E-03 -1.63255096E-02  6.55481947E-02 -2.03469448E-01 -4.83316033E-16
 -2.32879478E-02  1.66175392E-01 -2.67408034E-01 -6.02162235E-01  1.88848264E-15
  1.77690091E-02 -1.30714560E-01 -4.95275749E-01  4.27317156E-01 -1.62170961E-15
  2.60514403E-03 -1.63255096E-02 -6.55481947E-02  2.03469448E-01  1.47166325E-16
 -2.32879478E-02  1.66175392E-01  2.67408034E-01  6.02162235E-01 -1.29506240E-15
  1.77690091E-02 -1.30714560E-01  4.95275749E-01 -4.27317156E-01  1.55262612E-15
  4.51685064E-01 -4.65529587E-01  4.51685064E-01 -4.65529587E-01 -4.00609376E-02
  2.82215450E-01 -1.84740977E-01  8.07656285E-02 -5.05746936E-16  4.13329848E-02
 -2.83642416E-01 -1.96049976E-01  1.06507253E-01 -6.65263034E-17 -9.69105611E-02
 -2.11182543E-02  1.28167009E-01 -4.00609376E-02  2.82215450E-01  1.84740977E-01
 -8.07656285E-02  4.18230887E-16  4.13329848E-02 -2.83642416E-01  1.96049976E-01
 -1.06507253E-01 -4.40046427E-16 -9.69105611E-02 -2.11182543E-02  1.28167009E-01
  7.44729938E-02 -5.22268230E-01  9.90825458E-04 -3.12286850E-01  1.46461429E-15
  2.12494181E-02 -1.43916078E-01  7.68414945E-01 -2.35342377E-01  4.18326102E-16
 -8.45000734E-02  5.90933007E-01  3.46237443E-01  3.66247953E-01 -1.68830010E-15
 -7.44729938E-02  5.22268230E-01  9.90825457E-04 -3.12286850E-01  2.58168677E-15
 -2.12494181E-02  1.43916078E-01  7.68414945E-01 -2.35342377E-01 -2.08530877E-16
  8.45000734E-02 -5.90933007E-01  3.46237443E-01  3.66247953E-01 -8.41701552E-16
  4.85078735E-02 -2.76679885E-01 -4.85078735E-02  2.76679885E-01  4.73134804E-02
 -3.24376681E-01 -7.08562051E-02 -4.07258504E-02 -1.51652658E-15  2.33697588E-03
 -1.85335248E-02  2.00655493E-01 -1.18244869E-01  1.79031629E-15  9.93639858E-02
  1.32210931E-01  1.13141516E-01 -4.73134804E-02  3.24376681E-01 -7.08562051E-02
 -4.07258504E-02 -1.42588597E-15 -2.33697588E-03  1.85335248E-02  2.00655493E-01
 -1.18244869E-01  1.63326818E-15 -9.93639858E-02 -1.32210931E-01 -1.13141516E-01
 -7.37984268E-02  4.99079298E-01  8.37958716E-02 -3.16761974E-01  3.93376612E-15
 -1.05102736E-02  8.86143539E-02  4.27467201E-02  1.62665998E-01 -2.15266356E-15
 -5.86600271E-02  4.00940799E-01 -1.93700533E-01 -2.81314429E-01 -9.69293551E-16
  7.37984268E-02 -4.99079298E-01  8.37958716E-02 -3.16761974E-01  4.15517329E-15
  1.05102736E-02 -8.86143539E-02  4.27467201E-02  1.62665998E-01 -6.75102405E-16
  5.86600271E-02 -4.00940799E-01 -1.93700533E-01 -2.81314429E-01 -9.84902649E-16
 -1.20403602E-01 -1.50226067E-01  1.20403602E-01  1.50226067E-01  4.13029887E-02
 -3.15554553E-01  5.14924388E-01  2.03988082E-01 -3.18744657E-15 -2.21112879E-02
  1.62767784E-01 -1.45537694E-01 -5.98235969E-01  3.74839189E-15  3.37455286E-01
 -2.63972605E-01  4.12924417E-01 -4.13029887E-02  3.15554553E-01  5.14924388E-01
  2.03988082E-01 -4.00135635E-15  2.21112879E-02 -1.62767784E-01 -1.45537694E-01
 -5.98235969E-01  3.75715323E-15 -3.37455286E-01  2.63972605E-01 -4.12924417E-01
  9.27033054E-03 -3.96082456E-02 -4.52159569E-01 -1.31845404E-01  3.45222224E-15
  1.90516559E-02 -1.34589413E-01  1.95505764E-01  2.13308284E-01 -2.21316548E-15
 -2.31828060E-02  1.55569324E-01  6.34486909E-02  2.94926350E-01 -2.16807028E-15
  9.27033054E-03 -3.96082456E-02  4.52159569E-01  1.31845404E-01  3.48416458E-15
  1.90516559E-02 -1.34589413E-01 -1.95505764E-01 -2.13308284E-01 -2.39888780E-16
 -2.31828060E-02  1.55569324E-01 -6.34486909E-02 -2.94926350E-01 -1.01066753E-15
 -1.52210938E-01 -2.36426569E-01 -1.52210938E-01 -2.36426569E-01 -2.01074728E-02
  1.24182950E-01  3.67595234E-01  4.61965996E-01 -3.98213602E-15  1.98776837E-02
 -1.43430438E-01 -4.48935571E-01 -3.49726409E-01  3.65168913E-15  3.42842826E-01
 -3.24213451E-01  4.20086505E-01 -2.01074728E-02  1.24182950E-01 -3.67595234E-01
 -4.61965996E-01 -2.91308849E-15  1.98776837E-02 -1.43430438E-01  4.48935571E-01
  3.49726409E-01  1.87153832E-15  3.42842826E-01 -3.24213451E-01  4.20086505E-01
 -2.99173518E-03  1.27680555E-02  2.10821894E-01 -2.04166460E-01  1.71088760E-15
  1.91446808E-02 -1.38936260E-01  4.77993139E-01 -4.62659349E-02 -1.82292126E-16
 -1.90781699E-02  1.38109132E-01  4.81798886E-01  7.93512612E-02 -8.68006007E-16
 -2.99173518E-03  1.27680555E-02 -2.10821894E-01  2.04166460E-01  1.49879207E-15
  1.91446808E-02 -1.38936260E-01 -4.77993139E-01  4.62659349E-02 -5.82713295E-16
 -1.90781699E-02  1.38109132E-01 -4.81798886E-01 -7.93512612E-02 -2.36132735E-16
 -1.76044498E-02  1.63447858E-01 -1.76044498E-02  1.63447858E-01 -6.16721811E-02
  4.79602256E-01 -5.26329333E-01  3.74140624E-01 -2.24727329E-15  5.91474938E-02
 -4.54154917E-01 -3.81731416E-01  5.42556515E-01  1.75685922E-16 -1.08272069E-03
 -2.37873976E-02 -1.61279677E-01 -6.16721811E-02  4.79602256E-01  5.26329333E-01
 -3.74140624E-01 -1.11197283E-15  5.91474938E-02 -4.54154917E-01  3.81731416E-01
 -5.42556515E-01  1.89138068E-15 -1.08272069E-03 -2.37873976E-02 -1.61279677E-01
  4.67657881E-03 -3.26732101E-02  1.25370156E-01 -4.60894295E-01  2.16212060E-15
 -4.09205522E-02  3.06779382E-01  1.34201074E-01 -1.24537219E-01 -6.38965418E-16
 -2.56604478E-02  1.94888953E-01 -1.84440419E-01 -1.37754800E-01 -2.73278301E-16
 -4.67657881E-03  3.26732101E-02  1.25370156E-01 -4.60894295E-01  2.84953138E-15
  4.09205522E-02 -3.06779382E-01  1.34201074E-01 -1.24537219E-01 -6.48002332E-17
  2.56604478E-02 -1.94888953E-01 -1.84440419E-01 -1.37754800E-01  1.09721025E-16
 -5.05357218E-02 -5.86322710E-02  5.05357218E-02  5.86322710E-02 -6.51560173E-02
  5.07539265E-01 -4.15989503E-01  6.62319617E-01 -3.07034805E-15  7.16792280E-02
 -5.59719663E-01 -5.41916048E-01  4.37173956E-01  5.38249695E-16  1.92677058E-01
 -1.10115906E-01 -9.59914117E-03  6.51560173E-02 -5.07539265E-01 -4.15989503E-01
  6.62319617E-01 -2.66340925E-15 -7.16792280E-02  5.59719663E-01 -5.41916048E-01
  4.37173956E-01  1.72383449E-16 -1.92677058E-01  1.10115906E-01  9.59914117E-03
  1.52324685E-04 -2.67236523E-03 -1.27243143E-01  7.26680135E-01 -1.32753270E-15
  1.22430028E-02 -9.36203471E-02 -5.35271710E-01  2.60981098E-01 -6.57081529E-16
 -1.29780854E-02  9.78307133E-02 -3.86750228E-01 -4.71630670E-01  7.22764789E-16
  1.52324685E-04 -2.67236523E-03  1.27243143E-01 -7.26680135E-01  1.59349115E-15
  1.22430028E-02 -9.36203471E-02  5.35271710E-01 -2.60981098E-01  5.51898131E-16
 -1.29780854E-02  9.78307133E-02  3.86750228E-01  4.71630670E-01 -9.90379668E-16
 -1.85205249E-02  3.85820776E-02 -1.85205249E-02  3.85820776E-02 -3.17818187E-02
  2.57176541E-01 -2.52771696E-01  4.51159284E-01 -1.16213830E-15  4.01754936E-02
 -3.25385047E-01 -3.12398802E-01  2.63921586E-01 -3.34771573E-17  1.62833106E-01
 -5.91216262E-02 -2.86023881E-02 -3.17818187E-02  2.57176541E-01  2.52771696E-01
 -4.51159284E-01  9.38878806E-16  4.01754936E-02 -3.25385047E-01  3.12398802E-01
 -2.63921586E-01  8.47849212E-16  1.62833106E-01 -5.91216262E-02 -2.86023881E-02
 -6.17733460E-02  4.73329425E-01 -6.40773591E-01 -1.42638399E-01  7.15930540E-17
  6.15527707E-02 -4.57226903E-01  2.05843920E-01  6.19333092E-01 -1.18016581E-15
 -6.11615204E-02  4.55453012E-01  4.35958826E-01 -5.07236801E-01  1.17501360E-15
  6.17733460E-02 -4.73329425E-01 -6.40773591E-01 -1.42638399E-01  2.65601776E-16
 -6.15527707E-02  4.57226903E-01  2.05843920E-01  6.19333092E-01 -1.19967304E-15
  6.11615204E-02 -4.55453012E-01  4.35958826E-01 -5.07236801E-01  1.20170820E-15
 -2.59971128E-01  2.84530736E-01  2.59971128E-01 -2.84530736E-01  1.28822386E-02
 -7.82228690E-02 -2.51757127E-01 -3.53198317E-02  1.40544939E-16  1.43282249E-03
 -2.02009638E-02  3.03542171E-02  1.58839670E-01 -3.88457049E-16 -4.02929159E-02
  4.52725077E-02 -1.31442880E-01 -1.28822386E-02  7.82228690E-02 -2.51757127E-01
 -3.53198317E-02 -1.37573647E-16 -1.43282249E-03  2.02009638E-02  3.03542171E-02
  1.58839670E-01 -4.81483270E-16  4.02929159E-02 -4.52725077E-02  1.31442880E-01
Alpha Orbital Energies                     R   N=          60
 -1.00179460E+01 -1.00178808E+01 -1.00075537E+01 -1.00075524E+01 -1.00066516E+01
 -1.00066179E+01 -1.00055932E+01 -1.00054840E+01 -9.99193933E+00 -9.99193925E+00
 -8.17968906E-01 -7.55042829E-01 -7.20681404E-01 -7.04133301E-01 -6.70200684E-01
 -5.85104046E-01 -5.60592806E-01 -5.31909989E-01 -5.12122224E-01 -4.61922366E-01
 -4.38532676E-01 -4.10393340E-01 -3.99581208E-01 -3.97105736E-01 -3.75506748E-01
 -3.57773607E-01 -3.48959575E-01 -3.30157019E-01 -3.05265737E-01 -2.95445946E-01
 -2.80882320E-01 -2.63147604E-01 -2.16034470E-01 -1.97518557E-01 -1.60057721E-01
  4.95838437E-02  9.07282395E-02  1.16449694E-01  1.81464070E-01  2.80319326E-01
  3.19225284E-01  3.29553971E-01  3.65405726E-01  3.70265992E-01  4.12872142E-01
  4.15962775E-01  4.21560145E-01  4.45728751E-01  4.68764600E-01  4.95870285E-01
  5.38765708E-01  5.70547969E-01  5.86753985E-01  6.10133748E-01  6.26516518E-01
  6.45740736E-01  6.92812294E-01  7.43017550E-01  8.06225046E-01  8.16027791E-01
Total SCF Density                          R   N=        1830
  2.06668596E+00 -2.05283881E-01  8.37298289E-01 -8.40508574E-04  3.01347993E-02
  6.04964139E-01 -2.15391623E-04  6.94650474E-03  3.07341756E-04  6.05358425E-01
 -4.51984558E-16 -4.63961368E-16  5.56239038E-16 -1.94753616E-15  7.68062736E-01
  2.58573388E-02 -6.76416576E-02  7.53912475E-02 -8.70672037E-02  4.11659324E-16
  2.06694282E+00 -6.82714541E-02  9.11463407E-02 -1.87787693E-01  2.16531826E-01
 -7.46501407E-16 -2.01991114E-01  8.17395908E-01 -7.79876961E-02  1.91617589E-01
 -1.85793647E-01  2.48210662E-01  5.72443660E-16 -2.03764477E-03  1.12501572E-02
  6.06168063E-01  8.65792882E-02 -2.21454475E-01  2.38912670E-01 -2.53719116E-01
  2.28381590E-15 -4.61582742E-03  2.94934283E-02  8.37030345E-03  6.19712202E-01
 -2.17977714E-16  6.80907774E-16 -4.17031529E-16  5.88537607E-16  4.77644229E-01
  2.09281469E-16  3.84910914E-16  8.71562142E-16  1.46456831E-16  7.96353566E-01
 -4.76921932E-03  1.42616678E-02 -2.06858360E-02  8.93148949E-03 -3.34790605E-17
  2.54091541E-02 -6.63443826E-02  1.13504964E-01  2.41479689E-02 -1.24405382E-16
  2.06686990E+00  1.44928610E-02 -3.27126976E-02  7.96198826E-02 -2.43558499E-02
 -1.69451869E-17 -6.63091745E-02  8.60007653E-02 -2.84368691E-01 -6.73900330E-02
  1.07281386E-15 -2.01527959E-01  8.15506124E-01  2.37690036E-02 -8.34183847E-02
  8.28207929E-02 -4.56535098E-02  3.63263941E-17 -1.13738876E-01  2.87682649E-01
 -4.47489333E-01 -8.92666891E-02  2.00977349E-16  3.66366012E-03 -2.17114990E-02
  6.13325207E-01 -6.21529048E-03  3.26828264E-02 -4.48151741E-03  2.45180178E-02
 -6.83189221E-16 -2.21567901E-02  4.90881076E-02 -1.00706183E-01 -1.20171956E-03
  3.75605039E-16 -3.78183490E-03  2.42595127E-02 -1.27321118E-02  6.16919516E-01
  6.50291389E-16 -3.14985063E-16  1.19539758E-16 -1.59442830E-16 -6.08684726E-02
 -2.66515623E-17  2.65204091E-16  1.68887955E-16  8.55169898E-16  5.19361963E-01
  5.37922609E-17  5.23852272E-16  7.96939788E-16 -8.03157362E-17  7.94461976E-01
 -4.48826793E-03  1.55106480E-02 -1.31778788E-02 -2.96555660E-03  5.27562815E-16
 -4.86750822E-03  1.48969090E-02 -1.98720113E-02 -1.47625652E-02  3.36097458E-16
  2.60619833E-02 -6.89801195E-02  3.86803436E-02  1.08649096E-01 -4.35678618E-16
  2.06668596E+00  1.55106480E-02 -5.26339536E-02  4.90905691E-02  1.14106182E-02
 -2.42413916E-15  1.46343990E-02 -3.42016373E-02  6.57088295E-02  6.13356028E-02
 -1.30653742E-15 -6.82431781E-02  9.30448510E-02 -9.29102301E-02 -2.70893152E-01
  6.36037359E-16 -2.05283881E-01  8.37298289E-01  1.31778788E-02 -4.90905691E-02
  4.23758086E-02  1.90176231E-02  3.16717286E-15  1.51628534E-02 -6.21923983E-02
  5.41316343E-02  1.73047218E-02 -1.29448768E-16 -3.45189445E-02  8.50612312E-02
 -1.66058291E-02 -1.47608676E-01 -4.81892327E-16  8.40508574E-04 -3.01347993E-02
  6.04964139E-01  2.96555660E-03 -1.14106182E-02  1.90176231E-02 -5.45349656E-02
 -2.59107788E-15  1.63287803E-02 -5.36887325E-02  5.91040491E-02  5.03618756E-02
 -3.04932195E-16 -1.09624616E-01  2.72385958E-01 -1.48612635E-01 -4.20396956E-01
  1.82736181E-15  2.15391623E-04 -6.94650474E-03  3.07341756E-04  6.05358425E-01
  1.68465627E-16 -4.63963818E-16  2.38840422E-16 -3.60856050E-16 -3.14567907E-01
  2.79949481E-16 -1.17930743E-15  1.65146588E-16  5.89290639E-16 -5.88132533E-02
  4.28168117E-16 -1.36478059E-15  2.12354955E-16  2.28059574E-15  4.79058307E-01
  2.19571695E-16 -4.08381165E-16  1.78812861E-15 -8.84188945E-16  7.68062736E-01
 -4.86750822E-03  1.46343990E-02 -1.51628534E-02 -1.63287803E-02 -6.89785314E-16
 -4.39787486E-03  1.50469524E-02 -3.84948310E-03 -1.20848008E-02  3.29163410E-16
 -5.22604154E-03  1.67500703E-02  2.44465931E-03 -2.41582752E-02  4.55001639E-16
  2.58573388E-02 -6.76416576E-02 -7.53912475E-02  8.70672037E-02 -8.41438738E-16
  2.06694282E+00  1.48969090E-02 -3.42016373E-02  6.21923983E-02  5.36887325E-02
  1.12185546E-15  1.50469524E-02 -5.05251515E-02  1.37403854E-02  4.44991395E-02
 -4.58499123E-16  1.67550083E-02 -4.38915646E-02 -1.71433738E-02  8.92745812E-02
 -7.88575488E-16 -6.82714541E-02  9.11463407E-02  1.87787693E-01 -2.16531826E-01
  1.70508062E-15 -2.01991114E-01  8.17395908E-01  1.98720113E-02 -6.57088295E-02
  5.41316343E-02  5.91040491E-02 -1.93829723E-15  3.84948310E-03 -1.37403854E-02
 -4.19040911E-02  2.98156790E-02  5.78777916E-16 -7.24864132E-03  1.93234119E-02
  1.47654324E-02 -3.89660692E-02  3.07782669E-16  7.79876961E-02 -1.91617589E-01
 -1.85793647E-01  2.48210662E-01 -2.17761982E-15  2.03764477E-03 -1.12501572E-02
  6.06168063E-01  1.47625652E-02 -6.13356028E-02  1.73047218E-02  5.03618756E-02
  6.39522844E-16  1.20848008E-02 -4.44991395E-02  2.98156790E-02  3.14372434E-02
 -7.57330844E-16  2.31310378E-02 -8.84105102E-02  6.98421112E-03  8.99337505E-02
 -4.42741769E-16 -8.65792882E-02  2.21454475E-01  2.38912670E-01 -2.53719116E-01
  1.81531286E-15  4.61582742E-03 -2.94934283E-02  8.37030345E-03  6.19712202E-01
  5.61458754E-17 -7.67560664E-16  1.88839577E-16  1.16848022E-15 -5.88132533E-02
 -4.26260179E-16  2.50754847E-16 -1.63055540E-16 -1.30270379E-16 -3.25090824E-01
  1.61833897E-16  2.43521181E-16  5.29273896E-16 -4.32427577E-16 -5.26031087E-02
  4.42174665E-17  6.34736069E-16 -2.16317818E-15  2.07760856E-15  4.77644229E-01
  7.09418628E-16 -1.56846449E-16  3.69343461E-16 -1.68221065E-17  7.96353566E-01
  2.60619833E-02 -6.82431781E-02  3.45189445E-02  1.09624616E-01 -3.84351107E-16
 -5.22604154E-03  1.67550083E-02  7.24864132E-03 -2.31310378E-02  3.38410147E-16
 -4.37364702E-03  1.49426084E-02  8.25557557E-03 -9.74121141E-03  5.06677246E-16
 -4.76921932E-03  1.42616678E-02  2.06858360E-02 -8.93148949E-03 -5.44435581E-16
  2.54091541E-02 -6.63443826E-02 -1.13504964E-01 -2.41479689E-02 -2.26551069E-16
  2.06686990E+00 -6.89801195E-02  9.30448510E-02 -8.50612312E-02 -2.72385958E-01
  1.06051361E-15  1.67500703E-02 -4.38915646E-02 -1.93234119E-02  8.84105102E-02
 -1.44149352E-15  1.49426084E-02 -5.00910536E-02 -2.99248535E-02  3.61106992E-02
 -8.17268394E-16  1.44928610E-02 -3.27126976E-02 -7.96198826E-02  2.43558499E-02
  2.04909781E-15 -6.63091745E-02  8.60007653E-02  2.84368691E-01  6.73900330E-02
  1.31038795E-15 -2.01527959E-01  8.15506124E-01 -3.86803436E-02  9.29102301E-02
 -1.66058291E-02 -1.48612635E-01  1.12008484E-15 -2.44465931E-03  1.71433738E-02
  1.47654324E-02  6.98421112E-03 -1.47394846E-15 -8.25557557E-03  2.99248535E-02
 -8.65650479E-03 -4.77367867E-02 -3.71820568E-16 -2.37690036E-02  8.34183847E-02
  8.28207929E-02 -4.56535098E-02  1.66963197E-15  1.13738876E-01 -2.87682649E-01
 -4.47489333E-01 -8.92666891E-02  1.54424823E-16 -3.66366012E-03  2.17114990E-02
  6.13325207E-01 -1.08649096E-01  2.70893152E-01 -1.47608676E-01 -4.20396956E-01
  1.88548154E-15  2.41582752E-02 -8.92745812E-02 -3.89660692E-02  8.99337505E-02
 -3.95654892E-16  9.74121141E-03 -3.61106992E-02 -4.77367867E-02 -1.64173582E-03
 -9.47078601E-16  6.21529048E-03 -3.26828264E-02 -4.48151741E-03  2.45180178E-02
  2.87956857E-16  2.21567901E-02 -4.90881076E-02 -1.00706183E-01 -1.20171956E-03
  1.99146417E-15  3.78183490E-03 -2.42595127E-02 -1.27321118E-02  6.16919516E-01
 -2.71634935E-16 -1.17579163E-15  3.67795157E-16  2.62612275E-15  4.79058307E-01
 -4.48772707E-17  8.34224809E-16  3.93619647E-16 -3.46834341E-16 -5.26031087E-02
 -3.96851693E-17  5.63026048E-16  7.37302623E-16 -1.31425986E-15 -3.32024901E-01
 -1.64899483E-16  1.26669389E-16 -1.06686099E-15  5.35459265E-17 -6.08684726E-02
 -8.40438621E-18  2.50500214E-17  2.74258533E-16  2.56794785E-16  5.19361963E-01
 -1.61434567E-16  6.57003833E-16 -2.63407259E-16  8.78804428E-16  7.94461976E-01
  2.70172829E-02 -1.02684151E-01  3.17088271E-02 -1.24641518E-01  4.77466190E-16
 -1.13947170E-01  2.90926104E-01  1.74745017E-01  5.19824754E-01 -1.08377800E-15
  2.75019974E-02 -1.01844384E-01 -9.51367872E-02 -8.23801473E-02  1.25346050E-16
 -1.83001397E-02  6.85329631E-02  3.44477605E-02  9.24318784E-02 -1.36272545E-16
 -2.17767496E-03  7.55253682E-03  4.02639009E-03  6.22429145E-03 -2.52161206E-16
 -1.81632307E-02  6.84839075E-02  2.61435348E-02  9.42734241E-02 -9.47076861E-16
  5.87050124E-01 -1.86100981E-02  7.03247633E-02 -6.61120681E-02  7.14940535E-02
  9.51481111E-16  2.74070976E-02 -1.01534344E-01  1.19481501E-01 -3.65235800E-02
  1.07745637E-16 -1.14376769E-01  2.91713614E-01 -3.64137986E-01  4.09824069E-01
 -1.33361882E-15  2.63710358E-02 -9.91706550E-02  1.78715775E-02 -1.26256699E-01
  1.67786883E-15 -1.82088727E-02  6.87282691E-02 -6.07779209E-02  7.54377890E-02
 -3.19653343E-16 -2.13130902E-03  7.42087254E-03 -6.04536493E-03  4.43270947E-03
 -2.30715243E-16 -7.54131086E-02  5.87099102E-01 -1.83001397E-02  6.85329631E-02
 -3.44477605E-02 -9.24318784E-02  2.43990070E-16 -2.17767496E-03  7.55253682E-03
 -4.02639009E-03 -6.22429145E-03 -1.43742515E-16 -1.81632307E-02  6.84839075E-02
 -2.61435348E-02 -9.42734241E-02 -1.32845814E-16  2.70172829E-02 -1.02684151E-01
 -3.17088271E-02  1.24641518E-01 -3.82820406E-16 -1.13947170E-01  2.90926104E-01
 -1.74745017E-01 -5.19824754E-01 -1.92378173E-16  2.75019974E-02 -1.01844384E-01
  9.51367872E-02  8.23801473E-02 -7.00965131E-16  1.93770435E-02 -4.60797991E-02
  5.87050124E-01  2.63710358E-02 -9.91706550E-02 -1.78715775E-02  1.26256699E-01
  1.25611946E-15 -1.82088727E-02  6.87282691E-02  6.07779209E-02 -7.54377890E-02
  3.56604824E-16 -2.13130902E-03  7.42087254E-03  6.04536493E-03 -4.43270947E-03
  1.53307800E-16 -1.86100981E-02  7.03247633E-02  6.61120681E-02 -7.14940535E-02
  5.31799040E-16  2.74070976E-02 -1.01534344E-01 -1.19481501E-01  3.65235800E-02
 -1.19508699E-15 -1.14376769E-01  2.91713614E-01  3.64137986E-01 -4.09824069E-01
  4.07790638E-16 -4.60797991E-02  1.89255309E-02 -7.54131086E-02  5.87099102E-01
  9.87606925E-05 -2.34319472E-04  1.05682240E-03 -4.15396330E-04  3.99685333E-16
  3.06035751E-03 -1.11695221E-02  1.52001362E-02  3.85664398E-03 -1.71456841E-16
 -5.03509868E-03  1.70182902E-02 -1.77986289E-02 -1.44144024E-02 -7.96282681E-17
  1.94906469E-02 -5.44273691E-02  9.89913922E-02  2.10882185E-02  3.04370199E-16
 -5.64467889E-03  1.99994243E-02 -2.31881996E-02  2.93734992E-03 -6.90674089E-17
  3.32126302E-03 -1.23186744E-02  1.65388815E-02  2.88975364E-03 -5.52810860E-16
  6.67519048E-03  1.28713682E-02  1.50094430E-02  6.16701493E-03  2.06764464E+00
  4.44515827E-04 -1.95639765E-03 -8.50674768E-04  2.22333456E-03 -2.64440786E-16
 -1.18532422E-02  4.07043276E-02 -6.32008463E-02 -1.64287390E-02  8.87140700E-16
  1.80323811E-02 -5.47153526E-02  7.43015804E-02  5.15096533E-02  3.71777698E-16
 -5.46933446E-02  9.76349241E-02 -2.83062611E-01 -5.86278605E-02 -1.13052645E-15
  2.20696429E-02 -7.21508359E-02  9.93418649E-02 -9.68121875E-03  6.00140551E-16
 -1.34432988E-02  4.72897484E-02 -7.13549555E-02 -1.18596056E-02  9.99207332E-16
 -2.78649028E-02 -5.09586585E-02 -5.97797293E-02 -2.74738297E-02 -2.07421602E-01
  8.37945585E-01 -2.22047171E-03  9.13565444E-03 -9.38280424E-03 -3.02639422E-03
 -4.54861867E-16 -1.45866959E-02  5.73425500E-02 -7.45295938E-02 -1.61528396E-02
  1.27813812E-15  1.92184234E-02 -7.00623227E-02  6.06281845E-02  6.91514556E-02
  6.46902059E-16 -9.93962695E-02  2.87410428E-01 -4.63154053E-01 -9.40416320E-02
 -1.78728353E-15  2.23486119E-02 -8.35366186E-02  8.78042026E-02 -4.93039111E-02
 -2.25445098E-16 -1.49396124E-02  5.95199472E-02 -7.48903023E-02 -1.40038835E-02
  3.04665588E-16 -3.57825168E-02 -6.06128356E-02 -5.85643128E-02 -3.70225066E-02
  1.94552665E-04  3.41125734E-02  5.98042434E-01 -1.36643125E-03  5.90249356E-03
 -3.77766751E-03 -2.99292954E-03  1.65642888E-16 -5.48930863E-03  2.36664290E-02
 -2.35900800E-02 -1.81828422E-03  1.73108463E-15  1.36926308E-02 -5.53568076E-02
  2.32116192E-02  4.21542946E-02  1.32631750E-15 -2.36554221E-02  7.91229107E-02
 -1.10851188E-01 -1.77714602E-02 -2.31505686E-15 -8.93905310E-03  4.02801328E-02
 -1.10294889E-02 -1.08922315E-02 -6.86187882E-16  1.99007584E-04 -2.41027885E-03
 -4.44542078E-03  2.95967007E-03 -2.90878743E-16 -1.11185551E-02 -2.92931322E-02
  3.85725735E-03 -7.45925884E-03  4.86440982E-03 -3.60197761E-02 -4.76383675E-04
  6.18852340E-01 -7.10163169E-16  7.69172102E-16  4.72561524E-16  1.07910891E-15
  1.29383324E-02 -3.65366915E-17  7.47788972E-16 -7.82811638E-16 -1.29101790E-16
 -4.45370049E-02 -8.44428885E-16  6.27819144E-17  1.00976826E-15 -1.26328891E-15
 -4.37619526E-02 -4.31179401E-16  2.27941776E-15 -1.65381505E-15  1.17840209E-15
  1.62960081E-01  1.67984068E-16 -8.42626592E-16  6.38795467E-16 -1.47594902E-15
 -4.13604778E-02  6.41277914E-16  4.42975320E-16 -1.24539025E-15 -9.03125430E-17
 -3.08799765E-02 -5.03365050E-16 -5.12254054E-16  9.80745679E-17 -2.26572114E-15
  5.53008072E-16  3.50491199E-16 -7.69706388E-16  1.45464174E-15  7.82740386E-01
 -4.71838474E-04  1.91718405E-03 -1.75941046E-03  1.04084722E-03 -2.53960067E-16
  9.82700360E-04 -3.34294651E-03  3.90530348E-03  6.07311573E-04  3.77508532E-16
 -3.64441462E-03  1.24301765E-02 -1.19064962E-02  1.67183082E-03 -7.90029933E-17
 -4.86002140E-03  1.72394869E-02 -2.28940898E-02  4.61281971E-03  4.54788997E-16
  3.09843558E-03 -1.17004859E-02  1.00855616E-02 -5.73707381E-03  4.47031563E-16
 -1.33683623E-03  5.41185890E-03 -6.00252408E-03 -6.19944715E-04  1.66440891E-16
 -3.74513843E-04  7.62679875E-03 -3.27503991E-03 -2.99311798E-03  3.01259113E-02
 -7.71353919E-02  8.54976532E-02 -9.21622746E-02 -2.21024979E-16  2.06738115E+00
  1.78948342E-03 -6.95432488E-03  7.10882653E-03 -4.57147368E-03  2.20067297E-17
 -3.76707565E-03  1.23273998E-02 -1.61652545E-02 -1.91630402E-03 -1.15130154E-15
  1.20665744E-02 -4.10136053E-02  4.54835011E-02 -6.33887217E-03 -4.80661504E-16
  1.39684943E-02 -4.31974079E-02  7.42744790E-02 -2.37672646E-02  1.28623493E-15
 -1.08612779E-02  3.75501367E-02 -3.97209349E-02  1.94562417E-02  4.43423875E-16
  5.00206403E-03 -1.90361316E-02  2.38586943E-02  1.33743247E-03  1.37305086E-16
  5.83733648E-04 -2.74611457E-02  1.06794991E-02  1.17643294E-02 -7.73519051E-02
  9.57176373E-02 -1.95087486E-01  2.21131497E-01 -1.07748664E-15 -2.02065279E-01
  8.11272186E-01  1.08555530E-03 -5.35740121E-03  3.15585432E-03 -6.50281437E-04
  2.50515728E-15 -1.79374337E-03  5.65122127E-03 -5.28204243E-03 -4.40224424E-03
 -8.98627840E-16  9.69800546E-03 -3.70912231E-02  2.80298840E-02  9.90098097E-04
 -9.12197864E-16  2.21725792E-02 -9.23701021E-02  9.22940135E-02 -1.71355381E-03
  2.58962597E-15 -9.86836522E-03  4.04700728E-02 -2.81432829E-02  2.46655908E-02
 -7.92281990E-16  4.38434623E-03 -1.95910738E-02  1.87291346E-02  4.24552076E-03
 -1.11988218E-15  9.07909556E-04  5.13954278E-03  1.29374742E-02  1.10030267E-02
 -8.97366646E-02  2.13059774E-01 -1.90859120E-01  2.38007575E-01 -2.86897800E-15
  2.92762274E-03 -3.20638841E-02  6.19900194E-01  2.39733451E-03 -9.78993194E-03
  7.97112753E-03 -9.31860403E-03  3.34856959E-15 -3.81901464E-03  1.52899247E-02
 -2.07721892E-02  8.71630639E-04 -1.22850262E-15  7.37387957E-03 -2.98017990E-02
  3.79737957E-02 -5.16446884E-02 -1.84838683E-15 -3.00894971E-03  4.73259177E-03
 -3.39929601E-02  1.10936650E-02  3.70356580E-15  9.01695788E-03 -3.51715696E-02
  3.37728511E-02 -1.71512435E-02 -1.76059098E-15 -3.15884294E-03  1.21822198E-02
 -1.75332957E-02 -2.53575829E-03 -1.19396627E-15  7.57312083E-03 -3.40865112E-02
 -2.05097263E-03 -1.04171227E-02  8.71040962E-02 -2.01291092E-01  2.46961049E-01
 -2.11101922E-01 -3.12421207E-15 -3.34681022E-03  3.37899664E-02  1.26047997E-02
  6.21469384E-01 -4.62594630E-16  1.20381479E-16  4.59811167E-16  6.08779392E-17
  1.46317849E-01  5.30477284E-16 -2.36178765E-16 -4.51505084E-16  6.58087994E-16
  9.82477671E-03 -2.46678651E-16 -8.11376202E-16  3.38251247E-16  9.24697884E-17
 -1.74873160E-01 -6.83975398E-17  2.88684226E-16  1.19993089E-15 -1.54245831E-15
 -6.53374393E-02  6.54475048E-16 -8.68855470E-16 -1.49313673E-15  6.86537648E-17
 -1.84007250E-01 -7.25969989E-16  1.49700122E-15  1.35725292E-15 -6.18208112E-16
  1.21092573E-02 -2.25516703E-16  1.39766710E-15 -5.79552482E-16  6.16103828E-16
 -4.60973893E-16 -8.14385476E-17 -1.98767465E-15  3.58963059E-16  7.67202855E-01
 -6.52041424E-16 -4.48398860E-16  2.34934389E-15  2.46963912E-15  8.24064539E-01
  1.30660020E-03 -6.56185770E-03  4.00819708E-03 -5.41856514E-03  1.72012567E-15
  6.66507477E-03 -2.72699351E-02  3.05073709E-02  9.30196566E-03  4.96756657E-16
 -1.49009561E-02  5.64477671E-02 -2.80985941E-02 -7.70385776E-02 -3.28396051E-16
  2.74301915E-02 -1.11749032E-01  1.18195395E-01  7.11506247E-02  8.73835077E-16
  1.17026353E-02 -4.36652902E-02  3.46587473E-02 -1.32327126E-02 -2.46382868E-15
 -1.26357052E-03  3.00857811E-03 -3.10443886E-03  5.95595050E-03 -1.65650945E-15
  2.41398269E-02  1.31269810E-02  1.80856010E-02 -3.87050760E-03 -1.14054584E-01
  2.85835719E-01 -1.36452625E-01 -5.30808707E-01 -2.16887313E-15  2.92181873E-02
 -9.61886828E-02 -2.65712269E-02  1.20510961E-01  2.93392947E-16  5.88304282E-01
 -1.95013250E-03  8.50421220E-03 -6.42582358E-03  1.70107197E-03 -2.65542476E-15
 -1.92642261E-04  1.66223145E-03 -2.56756582E-03  1.59206400E-04  1.52609116E-15
 -4.43723923E-03  1.69452684E-02 -1.81563238E-02  2.48827991E-02  1.50692573E-15
 -2.23933204E-02  9.38690292E-02 -1.18456236E-01 -1.29439343E-02 -3.24160192E-15
  6.08014227E-03 -2.41816257E-02  2.38222123E-02 -2.42046696E-02  4.82848561E-16
 -4.18908864E-03  1.76356696E-02 -2.06703360E-02 -2.64633017E-03  8.80725791E-16
 -8.07396848E-03 -6.09250591E-03 -1.20926065E-02 -1.27694424E-02  2.84179829E-02
 -8.83479263E-02  1.08870080E-01 -2.87747909E-02  3.32652907E-15 -1.12228016E-01
  2.82231026E-01 -5.36136971E-01 -1.33083462E-01 -2.32446073E-15 -9.12470497E-02
  5.85953817E-01  1.44811948E-03 -7.48178771E-03  2.14988450E-03 -3.66701785E-04
  4.71206350E-15  1.84010743E-04  9.82744128E-05  6.45940413E-03 -2.69162280E-03
 -1.20676223E-15  7.37024143E-03 -2.55164523E-02  1.39055207E-02 -3.75330964E-02
 -2.04195028E-15  1.62978772E-02 -6.79376713E-02  8.27092460E-02  3.02505312E-03
  4.28157488E-15 -1.20815148E-03  1.79605392E-03 -8.68266217E-03  1.43275743E-02
 -2.52730264E-15  1.75994579E-03 -6.98742278E-03  8.92450882E-03 -1.59863043E-04
 -1.69801646E-15  8.80382407E-03  8.66667272E-03  5.38491257E-03  7.34199098E-03
  2.50043537E-02 -8.09169570E-02  2.91815778E-02 -1.18425334E-01 -3.43735461E-15
 -1.12566156E-01  2.81423980E-01  1.48449831E-01  5.31967614E-01  3.30851454E-15
  1.41386799E-01 -1.60482676E-01  5.89052371E-01  1.94906469E-02 -5.44273691E-02
 -9.89913922E-02 -2.10882185E-02 -4.11143447E-16 -5.64467889E-03  1.99994243E-02
  2.31881996E-02 -2.93734992E-03  2.92557456E-16  3.32126302E-03 -1.23186744E-02
 -1.65388815E-02 -2.88975364E-03  7.09516694E-16  9.87606925E-05 -2.34319472E-04
 -1.05682240E-03  4.15396330E-04 -4.96226020E-16  3.06035751E-03 -1.11695221E-02
 -1.52001362E-02 -3.85664398E-03  3.86377799E-16 -5.03509868E-03  1.70182902E-02
  1.77986289E-02  1.44144024E-02  2.48428416E-16  1.50094430E-02  6.16701493E-03
  6.67519048E-03  1.28713682E-02  6.52484716E-04 -3.11677772E-03 -2.57943406E-03
 -2.10896481E-04 -3.29556431E-16  9.22316415E-05 -3.80388955E-04 -7.47490010E-05
 -1.37902201E-03  2.43074778E-16  4.26308609E-04  5.74766610E-05  3.52256519E-05
  2.06764464E+00 -5.46933446E-02  9.76349241E-02  2.83062611E-01  5.86278605E-02
 -3.91581549E-16  2.20696429E-02 -7.21508359E-02 -9.93418649E-02  9.68121875E-03
  4.23792543E-17 -1.34432988E-02  4.72897484E-02  7.13549555E-02  1.18596056E-02
  1.96293062E-17  4.44515827E-04 -1.95639765E-03  8.50674768E-04 -2.22333456E-03
 -6.58816697E-16 -1.18532422E-02  4.07043276E-02  6.32008463E-02  1.64287390E-02
 -5.40294507E-17  1.80323811E-02 -5.47153526E-02 -7.43015804E-02 -5.15096533E-02
  1.03284453E-16 -5.97797293E-02 -2.74738297E-02 -2.78649028E-02 -5.09586585E-02
 -3.11677772E-03  1.43266054E-02  1.26559030E-02  1.23973934E-03  6.56993826E-17
 -3.70557013E-04  1.52203180E-03  2.75522166E-04  6.31699370E-03 -2.20118611E-16
 -2.00392439E-03 -4.70444668E-05  3.27840777E-05 -2.07421602E-01  8.37945585E-01
  9.93962695E-02 -2.87410428E-01 -4.63154053E-01 -9.40416320E-02  3.17387712E-16
 -2.23486119E-02  8.35366186E-02  8.78042026E-02 -4.93039111E-02  2.09505561E-16
  1.49396124E-02 -5.95199472E-02 -7.48903023E-02 -1.40038835E-02  1.95345435E-17
  2.22047171E-03 -9.13565444E-03 -9.38280424E-03 -3.02639422E-03  2.67107022E-17
  1.45866959E-02 -5.73425500E-02 -7.45295938E-02 -1.61528396E-02 -3.09495317E-16
 -1.92184234E-02  7.00623227E-02  6.06281845E-02  6.91514556E-02 -3.43362507E-16
  5.85643128E-02  3.70225066E-02  3.57825168E-02  6.06128356E-02  2.57943406E-03
 -1.26559030E-02 -8.81037145E-03  2.61166282E-04 -3.61173447E-16  5.98389237E-04
 -2.51862149E-03 -5.83320155E-04 -7.50315572E-03  4.41123031E-16  4.74084078E-04
  1.37512844E-03 -1.76796613E-04 -1.94552665E-04 -3.41125734E-02  5.98042434E-01
  2.36554221E-02 -7.91229107E-02 -1.10851188E-01 -1.77714602E-02 -3.02778544E-17
  8.93905310E-03 -4.02801328E-02 -1.10294889E-02 -1.08922315E-02 -1.14908097E-15
 -1.99007584E-04  2.41027885E-03 -4.44542078E-03  2.95967007E-03 -2.77823642E-16
  1.36643125E-03 -5.90249356E-03 -3.77766751E-03 -2.99292954E-03  6.82544567E-16
  5.48930863E-03 -2.36664290E-02 -2.35900800E-02 -1.81828422E-03  3.34776329E-16
 -1.36926308E-02  5.53568076E-02  2.32116192E-02  4.21542946E-02  2.50727078E-16
 -3.85725735E-03  7.45925884E-03  1.11185551E-02  2.92931322E-02  2.10896481E-04
 -1.23973934E-03  2.61166282E-04  6.53036735E-04  1.04252812E-15  4.42586496E-05
  2.16897739E-05 -1.68093530E-04 -1.50788764E-03  9.35519045E-16 -8.08994518E-04
  5.94322597E-04 -9.47239365E-04 -4.86440982E-03  3.60197761E-02 -4.76383675E-04
  6.18852340E-01  3.47330977E-16 -1.27801394E-16  6.97740442E-16 -1.19306816E-15
  1.62960081E-01  5.51033687E-16  9.33246173E-16 -1.24248655E-16 -4.25177461E-16
 -4.13604778E-02 -9.01564640E-16  1.25174019E-15  1.49241315E-16 -1.98742914E-15
 -3.08799765E-02  2.39543228E-17  1.14327061E-17 -8.57900615E-16  7.25613139E-16
  1.29383324E-02  6.25743252E-16 -1.40188508E-15  1.53909403E-15 -2.83033374E-16
 -4.45370049E-02  2.53598206E-16 -1.23009255E-15 -1.59137131E-15 -7.67755126E-16
 -4.37619526E-02  1.48367938E-16 -5.57755330E-16 -6.21314768E-16 -1.95332227E-15
 -3.03760356E-16  1.02525902E-15  1.87008471E-15  2.92821741E-15  1.58706312E-02
  1.38038369E-15 -2.50969654E-15 -2.75424435E-15 -5.16723636E-15 -3.57797263E-03
 -8.45151248E-16  3.39320189E-15 -3.78103650E-15  3.39288791E-16  5.13240612E-16
 -6.28838349E-16  6.70860593E-16  7.82740386E-01 -4.86002140E-03  1.72394869E-02
  2.28940898E-02 -4.61281971E-03 -1.25049197E-17  3.09843558E-03 -1.17004859E-02
 -1.00855616E-02  5.73707381E-03  7.58082239E-18 -1.33683623E-03  5.41185890E-03
  6.00252408E-03  6.19944715E-04  5.23627225E-17 -4.71838474E-04  1.91718405E-03
  1.75941046E-03 -1.04084722E-03 -3.07276346E-16  9.82700360E-04 -3.34294651E-03
 -3.90530348E-03 -6.07311573E-04 -1.79389149E-16 -3.64441462E-03  1.24301765E-02
  1.19064962E-02 -1.67183082E-03 -1.81651913E-16 -3.27503991E-03 -2.99311798E-03
 -3.74513843E-04  7.62679875E-03  9.22316415E-05 -3.70557013E-04 -5.98389237E-04
 -4.42586496E-05  3.73964457E-16 -1.73777073E-04  7.25966811E-04  4.34107601E-04
  2.11464406E-04 -2.47351776E-16 -1.88339570E-04 -5.16929211E-04  1.47063506E-04
  3.01259113E-02 -7.71353919E-02 -8.54976532E-02  9.21622746E-02 -1.73387616E-16
  2.06738115E+00  1.39684943E-02 -4.31974079E-02 -7.42744790E-02  2.37672646E-02
 -6.71558226E-16 -1.08612779E-02  3.75501367E-02  3.97209349E-02 -1.94562417E-02
 -2.07086098E-16  5.00206403E-03 -1.90361316E-02 -2.38586943E-02 -1.33743247E-03
 -7.61741300E-17  1.78948342E-03 -6.95432488E-03 -7.10882653E-03  4.57147368E-03
  3.79052978E-17 -3.76707565E-03  1.23273998E-02  1.61652545E-02  1.91630402E-03
  4.54430363E-16  1.20665744E-02 -4.10136053E-02 -4.54835011E-02  6.33887217E-03
  2.53767173E-16  1.06794991E-02  1.17643294E-02  5.83733648E-04 -2.74611457E-02
 -3.80388955E-04  1.52203180E-03  2.51862149E-03 -2.16897739E-05  5.09066573E-16
  7.25966811E-04 -2.93614708E-03 -1.98370943E-03 -7.88172902E-04  2.18021658E-16
  8.08887389E-04  2.17716790E-03 -7.99577351E-04 -7.73519051E-02  9.57176373E-02
  1.95087486E-01 -2.21131497E-01  4.35748159E-16 -2.02065279E-01  8.11272186E-01
 -2.21725792E-02  9.23701021E-02  9.22940135E-02 -1.71355381E-03  2.16175154E-16
  9.86836522E-03 -4.04700728E-02 -2.81432829E-02  2.46655908E-02  1.94213673E-16
 -4.38434623E-03  1.95910738E-02  1.87291346E-02  4.24552076E-03  1.61923169E-16
 -1.08555530E-03  5.35740121E-03  3.15585432E-03 -6.50281437E-04 -7.92524285E-16
  1.79374337E-03 -5.65122127E-03 -5.28204243E-03 -4.40224424E-03 -1.11262066E-15
 -9.69800546E-03  3.70912231E-02  2.80298840E-02  9.90098097E-04 -2.16345828E-16
 -1.29374742E-02 -1.10030267E-02 -9.07909556E-04 -5.13954278E-03  7.47490010E-05
 -2.75522166E-04 -5.83320155E-04 -1.68093530E-04 -2.82420840E-16 -4.34107601E-04
  1.98370943E-03  6.56973179E-04  1.14959448E-03 -2.70239001E-16 -5.10758462E-04
 -1.14473306E-03 -9.34744297E-05  8.97366646E-02 -2.13059774E-01 -1.90859120E-01
  2.38007575E-01  1.88435384E-16 -2.92762274E-03  3.20638841E-02  6.19900194E-01
  3.00894971E-03 -4.73259177E-03 -3.39929601E-02  1.10936650E-02 -3.10502848E-16
 -9.01695788E-03  3.51715696E-02  3.37728511E-02 -1.71512435E-02 -5.84445621E-16
  3.15884294E-03 -1.21822198E-02 -1.75332957E-02 -2.53575829E-03 -8.54422956E-17
 -2.39733451E-03  9.78993194E-03  7.97112753E-03 -9.31860403E-03  5.54751833E-16
  3.81901464E-03 -1.52899247E-02 -2.07721892E-02  8.71630639E-04  2.37403325E-16
 -7.37387957E-03  2.98017990E-02  3.79737957E-02 -5.16446884E-02 -1.87328959E-16
  2.05097263E-03  1.04171227E-02 -7.57312083E-03  3.40865112E-02  1.37902201E-03
 -6.31699370E-03 -7.50315572E-03 -1.50788764E-03  2.76160878E-16 -2.11464406E-04
  7.88172902E-04  1.14959448E-03 -2.95304468E-03  3.45807228E-16 -4.81128638E-05
 -1.54774855E-03  9.94805583E-04 -8.71040962E-02  2.01291092E-01  2.46961049E-01
 -2.11101922E-01  1.49589643E-15  3.34681022E-03 -3.37899664E-02  1.26047997E-02
  6.21469384E-01 -3.95011783E-16 -5.93283266E-16 -2.00112129E-17 -1.74747743E-15
 -6.53374393E-02  2.52636009E-16  3.29110748E-16  3.31588237E-16 -4.71543699E-16
 -1.84007250E-01  6.11938639E-16 -8.13324595E-16  1.83562032E-17  1.42948030E-16
  1.21092573E-02  2.67248992E-16 -1.99261299E-15  2.21611612E-15 -2.12283017E-15
  1.46317849E-01 -3.78373693E-17  8.24975382E-16 -1.35144760E-15  7.00224825E-16
  9.82477671E-03 -2.27708702E-16  4.40998571E-16  1.20306122E-15 -1.64109383E-15
 -1.74873160E-01  4.61019203E-16  1.08462197E-15  2.84933250E-16  7.75957820E-16
  4.75122790E-17 -6.84810468E-16  3.35660330E-16  2.27056989E-16 -3.57797263E-03
 -3.15809593E-17 -2.82108446E-16  1.91743488E-15  2.14177178E-15 -7.55545458E-02
  1.88024574E-15 -2.04408224E-15  4.60471406E-15  2.88613687E-16 -2.51729005E-16
 -3.09613662E-16  2.93174477E-15  7.67202855E-01  7.49371979E-16 -3.47488876E-16
  3.51359132E-16  2.99363793E-16  8.24064539E-01  2.74301915E-02 -1.11749032E-01
 -1.18195395E-01 -7.11506247E-02  2.79628565E-16  1.17026353E-02 -4.36652902E-02
 -3.46587473E-02  1.32327126E-02  2.77674912E-16 -1.26357052E-03  3.00857811E-03
  3.10443886E-03 -5.95595050E-03  4.89030248E-16  1.30660020E-03 -6.56185770E-03
 -4.00819708E-03  5.41856514E-03 -3.55703694E-16  6.66507477E-03 -2.72699351E-02
 -3.05073709E-02 -9.30196566E-03 -7.02169101E-16 -1.49009561E-02  5.64477671E-02
  2.80985941E-02  7.70385776E-02 -4.27194486E-16  1.80856010E-02 -3.87050760E-03
  2.41398269E-02  1.31269810E-02  4.26308609E-04 -2.00392439E-03 -4.74084078E-04
  8.08994518E-04 -7.54514137E-16 -1.88339570E-04  8.08887389E-04  5.10758462E-04
  4.81128638E-05 -4.05943921E-16  4.33308980E-04 -2.03007375E-04  6.77765443E-06
 -1.14054584E-01  2.85835719E-01  1.36452625E-01  5.30808707E-01 -1.12531450E-15
  2.92181873E-02 -9.61886828E-02  2.65712269E-02 -1.20510961E-01  6.91799833E-16
  5.88304282E-01 -2.23933204E-02  9.38690292E-02  1.18456236E-01  1.29439343E-02
 -3.78284971E-16  6.08014227E-03 -2.41816257E-02 -2.38222123E-02  2.42046696E-02
 -3.75096774E-16 -4.18908864E-03  1.76356696E-02  2.06703360E-02  2.64633017E-03
  2.70037787E-16 -1.95013250E-03  8.50421220E-03  6.42582358E-03 -1.70107197E-03
  2.97796018E-16 -1.92642261E-04  1.66223145E-03  2.56756582E-03 -1.59206400E-04
  4.58014913E-16 -4.43723923E-03  1.69452684E-02  1.81563238E-02 -2.48827991E-02
  5.24647695E-16 -1.20926065E-02 -1.27694424E-02 -8.07396848E-03 -6.09250591E-03
  5.74766610E-05 -4.70444668E-05 -1.37512844E-03 -5.94322597E-04 -2.19104403E-16
 -5.16929211E-04  2.17716790E-03  1.14473306E-03  1.54774855E-03 -5.26054857E-16
 -2.03007375E-04 -1.75907820E-03  6.25867206E-04  2.84179829E-02 -8.83479263E-02
 -1.08870080E-01  2.87747909E-02  4.67518975E-17 -1.12228016E-01  2.82231026E-01
  5.36136971E-01  1.33083462E-01 -4.02281747E-16 -9.12470497E-02  5.85953817E-01
  1.62978772E-02 -6.79376713E-02 -8.27092460E-02 -3.02505312E-03 -6.85666118E-17
 -1.20815148E-03  1.79605392E-03  8.68266217E-03 -1.43275743E-02  5.41189912E-18
  1.75994579E-03 -6.98742278E-03 -8.92450882E-03  1.59863043E-04 -4.90416481E-18
  1.44811948E-03 -7.48178771E-03 -2.14988450E-03  3.66701785E-04  4.92300116E-17
  1.84010743E-04  9.82744128E-05 -6.45940413E-03  2.69162280E-03 -3.99488084E-17
  7.37024143E-03 -2.55164523E-02 -1.39055207E-02  3.75330964E-02 -1.68992932E-16
  5.38491257E-03  7.34199098E-03  8.80382407E-03  8.66667272E-03  3.52256519E-05
  3.27840777E-05  1.76796613E-04  9.47239365E-04  1.79371180E-17  1.47063506E-04
 -7.99577351E-04  9.34744297E-05 -9.94805583E-04  6.53666921E-17  6.77765443E-06
  6.25867206E-04 -4.76633207E-04  2.50043537E-02 -8.09169570E-02 -2.91815778E-02
  1.18425334E-01 -9.03591596E-17 -1.12566156E-01  2.81423980E-01 -1.48449831E-01
 -5.31967614E-01  1.20777565E-15  1.41386799E-01 -1.60482676E-01  5.89052371E-01
Pure Switching                             I                1
Dipole_Data                                R   N=           3
  4.17642008E-13  7.31578990E-14  2.80125695E-15
Quadrupole_Data                            R   N=           6
 -5.09644157E+01 -1.10686463E-01 -5.01432026E+01 -6.52586280E-16 -2.74264500E-14
 -5.85742297E+01
Octapole_Data                              R   N=          10
 -2.37854417E-13  9.59319809E-13  7.23836033E-14 -2.13673868E-13  4.91319339E-14
  2.43296430E-14  4.21746517E-15  1.09049533E-13  1.58931793E-14  2.14076027E-15
Hexadecapole_Data                          R   N=          15
 -1.81116257E+03  4.95824200E-01 -3.58424325E+02  3.46923088E+00 -3.29579189E+02
 -1.49455132E-13 -8.93027403E-14 -3.69360645E-14  1.87813292E-13 -3.56711925E+02
 -6.70390276E-02 -7.21347382E+01 -1.07435136E-13  3.22700702E-13 -4.75456307E+01
Dipole_Data                                R   N=           3
 -1.22032573E+00  7.83313783E-02  8.08804028E-15
Quadrupole_Data                            R   N=           6
 -5.09633445E+01 -1.10414750E-01 -5.01445110E+01 -5.15765930E-15 -1.35617603E-14
 -5.85740564E+01
Octapole_Data                              R   N=          10
 -2.07953239E+01  1.18590131E+00 -1.12960276E+00 -5.59536502E-02  2.35610518E-14
  5.09606906E-16  3.71238763E-15 -4.04704662E-01  4.43866637E-02  4.04215092E-15
Hexadecapole_Data                          R   N=          15
 -1.81117256E+03  5.10566333E-01 -3.58424852E+02  3.47062088E+00 -3.29582893E+02
 -1.26689099E-13  1.57240854E-14 -5.34372393E-14  2.17903804E-13 -3.56708283E+02
 -6.71130879E-02 -7.21356561E+01 -1.09722522E-13  3.31894089E-13 -4.75453116E+01
Cartesian Forces                           R   N=          60
  5.01097643E-02  8.73384928E-03  2.29035449E-16 -5.73527719E-03  1.90922804E-02
  1.98096419E-16  2.06469584E-03  2.02234804E-02 -2.80767210E-16 -5.17141069E-02
 -8.61850496E-03 -7.55913367E-18  7.11318566E-03 -1.93473654E-02  3.12257952E-16
 -9.66960261E-04 -1.94609598E-02  6.04398878E-18  1.53348917E-04 -1.16186299E-03
  1.68264748E-16  3.16300668E-03 -1.45833590E-03 -1.32014518E-16 -4.43783825E-04
  1.26853338E-03  9.58217359E-17 -3.51615921E-03  1.37797359E-03 -8.84398804E-17
  3.88912697E-02 -5.72659897E-03  4.19318529E-16 -2.24815671E-02  1.34292693E-02
 -7.21402124E-16 -2.85015186E-03 -1.29400516E-04  1.37945280E-16  1.10710337E-03
 -2.15093289E-03 -2.82527977E-16 -3.46291810E-04 -2.40729733E-03  1.31127670E-16
 -4.05187256E-02  3.60973966E-03 -2.34140183E-16  2.44248430E-02 -1.31473821E-02
 -3.66253257E-16  3.14787792E-03  5.39578377E-04  2.63269334E-16 -1.75972018E-03
  1.87873710E-03  5.67325172E-17  1.57648534E-04  3.45519936E-03  9.51906602E-17
Dipole_Data                                R   N=           3
 -1.17043049E-07  1.70961558E-07 -1.02857346E-14
Quadrupole_Data                            R   N=           6
 -5.09644153E+01 -1.10687323E-01 -5.01432028E+01 -1.78622574E-14 -1.82536101E-14
 -5.85742297E+01
Octapole_Data                              R   N=          10
 -2.29321465E-06  1.03772757E-06  3.30820701E-08  4.65905681E-07 -9.94797352E-14
 -1.34538206E-14 -5.71073765E-15 -4.34016981E-08  5.14928418E-08 -5.72004963E-15
Hexadecapole_Data                          R   N=          15
 -1.81116256E+03  4.95816686E-01 -3.58424326E+02  3.46922841E+00 -3.29579191E+02
 -3.49481330E-13  3.07787130E-14 -6.09778190E-14  2.13276557E-13 -3.56711925E+02
 -6.70392570E-02 -7.21347382E+01 -1.17281596E-13  3.29114100E-13 -4.75456307E+01
Cartesian Forces                           R   N=          60
  5.05530072E-02  8.61232493E-03 -2.43914991E-16 -6.22786790E-03  1.91346769E-02
 -4.93950443E-17  1.36893565E-03  1.96977438E-02  1.64427697E-16 -5.05530036E-02
 -8.61232200E-03 -2.35602515E-16  6.22786694E-03 -1.91346758E-02  8.14506641E-17
 -1.36893850E-03 -1.96977430E-02  3.40052687E-16  2.89060253E-04 -1.21821321E-03
  3.17785627E-17  3.36264121E-03 -1.42715151E-03  4.49643932E-18 -2.89060528E-04
  1.21821156E-03  1.14870023E-17 -3.36263862E-03  1.42714878E-03 -2.36575277E-16
  3.93764104E-02 -4.58122592E-03  3.55232027E-16 -2.33333068E-02  1.31542002E-02
 -2.12123856E-17 -2.99056981E-03 -3.25934172E-04  1.07089257E-16  1.51895691E-03
 -2.00874399E-03 -7.14790428E-17 -2.41357838E-04 -2.93728601E-03 -2.58453010E-16
 -3.93764119E-02  4.58122837E-03 -1.68717995E-16  2.33333046E-02 -1.31541983E-02
 -2.09859635E-16  2.99056943E-03  3.25931667E-04  1.29384152E-16 -1.51895478E-03
  2.00874406E-03  2.13185030E-16  2.41357600E-04  2.93728370E-03  5.66263771E-17
Dipole_Data                                R   N=           3
 -5.70104075E-01 -2.88209233E-01  3.47868003E-15
Quadrupole_Data                            R   N=           6
 -5.09645013E+01 -1.10653479E-01 -5.01437995E+01  8.51142259E-17 -1.46176373E-14
 -5.85741892E+01
Octapole_Data                              R   N=          10
 -9.33529029E+00 -1.06583162E+00 -6.34985752E-01 -1.36032276E+00 -1.27616522E-14
 -1.61692247E-14  6.68853810E-15 -1.82591216E-01 -6.95967317E-02  2.17770930E-15
Hexadecapole_Data                          R   N=          15
 -1.81117206E+03  5.00452540E-01 -3.58426319E+02  3.46831457E+00 -3.29582447E+02
 -1.38472150E-13  9.96611795E-14 -5.41729800E-14  2.19572291E-13 -3.56711490E+02
 -6.70272852E-02 -7.21349689E+01 -1.07612483E-13  3.31396988E-13 -4.75455441E+01
Cartesian Forces                           R   N=          60
  5.02368144E-02  8.98139839E-03  4.71776983E-17 -6.05620015E-03  1.90109341E-02
 -1.34082962E-16  1.85176435E-03  2.00142910E-02  1.44218427E-16 -5.10456240E-02
 -8.27422951E-03 -1.76265843E-16  6.49425426E-03 -1.93044254E-02 -3.03454858E-16
 -9.58182049E-04 -1.94544126E-02 -1.61217256E-16  2.55700914E-04 -1.28986394E-03
 -6.35733067E-18  3.24396396E-03 -1.57390732E-03  3.83500534E-18 -3.45345179E-04
  1.10783430E-03  4.29729844E-17 -3.47929020E-03  1.27777831E-03 -4.20644714E-17
  3.89825893E-02 -5.12135121E-03  2.82014628E-16 -2.29576651E-02  1.33773256E-02
  2.93268969E-16 -2.95269586E-03 -3.12720893E-04  2.47143244E-16  1.42121823E-03
 -2.16152740E-03  2.00670393E-16 -2.42554837E-04 -2.74267619E-03 -5.46995861E-16
 -3.99188807E-02  4.06732048E-03 -5.01142478E-16  2.37604726E-02 -1.29795059E-02
  1.88105437E-16  3.05481431E-03  3.76818456E-04  2.50934837E-17 -1.57562679E-03
  1.87830181E-03  3.27637257E-16  2.30472500E-04  3.12261793E-03  6.94435345E-17
Dipole_Data                                R   N=           3
 -6.48455307E-01  3.66598775E-01 -2.24211471E-15
Quadrupole_Data                            R   N=           6
 -5.09638417E+01 -1.10601344E-01 -5.01435916E+01 -1.74794027E-14 -2.21044730E-14
 -5.85741367E+01
Octapole_Data                              R   N=          10
 -1.14340194E+01  2.25123156E+00 -4.93211277E-01  1.30455968E+00 -4.77867065E-14
 -5.89833444E-15  5.38446092E-16 -2.21308111E-01  1.14017063E-01 -1.21942872E-15
Hexadecapole_Data                          R   N=          15
 -1.81115269E+03  4.99226060E-01 -3.58424967E+02  3.47007501E+00 -3.29580843E+02
 -2.71072736E-13 -1.29578424E-14 -6.36775854E-14  2.02462050E-13 -3.56710493E+02
 -6.70710079E-02 -7.21349142E+01 -1.16162261E-13  3.26646114E-13 -4.75454680E+01
Cartesian Forces                           R   N=          60
  5.02436722E-02  8.32952019E-03  6.35068665E-17 -5.79967535E-03  1.91769438E-02
 -2.23198877E-16  1.49815528E-03  1.98316444E-02  4.98746049E-16 -5.10430349E-02
 -8.92386705E-03 -2.22694716E-16  6.74142883E-03 -1.91371780E-02  8.56758457E-18
 -1.29208320E-03 -1.96295521E-02  3.21420947E-16  1.85283743E-04 -1.06604459E-03
  1.47628268E-17  3.28980250E-03 -1.30121107E-03 -4.69793239E-17 -3.85885207E-04
  1.35506497E-03 -3.05459629E-17 -3.40778013E-03  1.51659199E-03 -1.91183931E-16
  3.91212433E-02 -5.13903652E-03 -1.21662233E-16 -2.28005984E-02  1.31365343E-02
  1.79470280E-16 -2.88685325E-03 -1.56531166E-04 -1.28491726E-16  1.24821507E-03
 -1.99390945E-03 -1.78350834E-17 -3.40652224E-04 -2.58804356E-03 -4.01136171E-17
 -3.98141960E-02  4.07737603E-03 -4.32122537E-16  2.39407701E-02 -1.32523993E-02
  1.42874755E-16  3.08382204E-03  5.03930282E-04  6.34302858E-17 -1.74503272E-03
  2.00534044E-03  6.25107009E-17  1.63398211E-04  3.25482644E-03  9.95377111E-17
Dipole_Data                                R   N=           3
 -6.09295106E-01  3.91955811E-02 -5.40185555E-02
Quadrupole_Data                            R   N=           6
 -5.09640631E+01 -1.10638700E-01 -5.01434685E+01  5.46644399E-04 -7.68050391E-05
 -5.85742025E+01
Octapole_Data                              R   N=          10
 -1.03849200E+01  5.92721553E-01 -5.64107221E-01 -2.78787002E-02 -3.34058194E-01
  3.26550426E-03 -5.95656583E-02 -2.01955918E-01  2.22103143E-02 -3.04331344E-02
Hexadecapole_Data                          R   N=          15
 -1.81116272E+03  4.99007083E-01 -3.58424139E+02  3.46957678E+00 -3.29579844E+02
  8.19458042E-03 -9.81606451E-04  3.21876327E-04 -1.13367256E-04 -3.56711094E+02
 -6.70641121E-02 -7.21349714E+01  3.59845045E-04 -5.30545618E-05 -4.75455656E+01
Cartesian Forces                           R   N=          60
  5.02405153E-02  8.65623888E-03 -3.48846529E-05 -5.93150803E-03  1.90930772E-02
  1.74242688E-04  1.67990006E-03  1.99247859E-02  1.56048981E-04 -5.10445290E-02
 -8.59977299E-03 -6.64035982E-05  6.62144056E-03 -1.92200521E-02  1.76390847E-04
 -1.13016006E-03 -1.95437254E-02  1.58034720E-04  2.18925611E-04 -1.19044351E-03
 -1.46826528E-04  3.26845342E-03 -1.44487818E-03 -1.52672685E-04 -3.64064206E-04
  1.24393446E-03 -1.50953603E-04 -3.44509485E-03  1.40452455E-03 -1.46119740E-04
  3.90512257E-02 -5.13280869E-03  1.65588405E-04 -2.28781391E-02  1.32590208E-02
  3.58888708E-04 -2.91813541E-03 -2.25427879E-04 -1.62167177E-04  1.33453758E-03
 -2.07849201E-03 -1.81253889E-04 -2.91140045E-04 -2.67388936E-03 -1.81181206E-04
 -3.98658265E-02  4.07493182E-03  1.36581746E-04  2.38496456E-02 -1.31180128E-02
  4.05752093E-04  3.06765276E-03  4.31154963E-04 -1.53820985E-04 -1.66015974E-03
  1.94257788E-03 -1.70624353E-04  1.96460259E-04  3.19725646E-03 -1.84619772E-04
Dipole_Data                                R   N=           3
 -6.09294710E-01  3.91954400E-02  5.40185696E-02
Quadrupole_Data                            R   N=           6
 -5.09640656E+01 -1.10637752E-01 -5.01434676E+01 -5.46652672E-04  7.68014767E-05
 -5.85742025E+01
Octapole_Data                              R   N=          10
 -1.03849158E+01  5.92720243E-01 -5.64107303E-01 -2.78786297E-02  3.34057895E-01
 -3.26539742E-03  5.95656865E-02 -2.01955746E-01  2.22102555E-02  3.04331414E-02
Hexadecapole_Data                          R   N=          15
 -1.81116275E+03  4.99019984E-01 -3.58424136E+02  3.46957677E+00 -3.29579841E+02
 -8.19459184E-03  9.81583916E-04 -3.21881965E-04  1.13362527E-04 -3.56711095E+02
 -6.70637273E-02 -7.21349711E+01 -3.59849425E-04  5.30524841E-05 -4.75455656E+01
Cartesian Forces                           R   N=          60
  5.02405109E-02  8.65623413E-03  3.48829972E-05 -5.93151210E-03  1.90930821E-02
 -1.74242425E-04  1.67990848E-03  1.99247963E-02 -1.56048811E-04 -5.10445309E-02
 -8.59977713E-03  6.64018983E-05  6.62144933E-03 -1.92200571E-02 -1.76390585E-04
 -1.13016160E-03 -1.95437279E-02 -1.58034469E-04  2.18924152E-04 -1.19044786E-03
  1.46826928E-04  3.26845303E-03 -1.44487924E-03  1.52673124E-04 -3.64064334E-04
  1.24393741E-03  1.50954044E-04 -3.44509772E-03  1.40452806E-03  1.46120141E-04
  3.90512255E-02 -5.13281853E-03 -1.65589253E-04 -2.28781376E-02  1.32590209E-02
 -3.58887018E-04 -2.91813441E-03 -2.25423955E-04  1.62167523E-04  1.33453209E-03
 -2.07849282E-03  1.81253829E-04 -2.91139138E-04 -2.67388361E-03  1.81180445E-04
 -3.98658274E-02  4.07493775E-03 -1.36582585E-04  2.38496466E-02 -1.31180136E-02
 -4.05750294E-04  3.06765264E-03  4.31153128E-04  1.53821333E-04 -1.66015713E-03
  1.94257840E-03  1.70624224E-04  1.96459628E-04  3.19725361E-03  1.84618953E-04
Dipole_Data                                R   N=           3
  1.22032568E+00 -7.83313012E-02 -1.35903375E-08
Quadrupole_Data                            R   N=           6
 -5.09633440E+01 -1.10415088E-01 -5.01445109E+01 -1.15237220E-09  1.13264111E-12
 -5.85740564E+01
Octapole_Data                              R   N=          10
  2.07953227E+01 -1.18590084E+00  1.12960276E+00  5.59538474E-02 -4.10823521E-08
 -7.24248518E-09 -1.74962438E-08  4.04704641E-01 -4.43866402E-02 -7.70797338E-09
Hexadecapole_Data                          R   N=          15
 -1.81117254E+03  5.10562836E-01 -3.58424852E+02  3.47062092E+00 -3.29582893E+02
 -9.24822985E-09  6.28649992E-10 -6.14142951E-10 -1.78291510E-11 -3.56708283E+02
 -6.71132199E-02 -7.21356560E+01 -6.32411127E-10 -1.61374121E-12 -4.75453116E+01
Cartesian Forces                           R   N=          60
  5.17141054E-02  8.61850522E-03 -6.12910547E-11 -7.11318709E-03  1.93473657E-02
  4.03132883E-12  9.66960236E-04  1.94609609E-02  8.71965612E-13 -5.01097607E-02
 -8.73384806E-03 -4.84803998E-11  5.73527807E-03 -1.90922807E-02 -5.07404907E-13
 -2.06469736E-03 -2.02234809E-02  1.75187494E-12  4.43783892E-04 -1.26853375E-03
  1.13530962E-11  3.51616003E-03 -1.37797457E-03  1.40563227E-11 -1.53349037E-04
  1.16186281E-03  1.17690090E-11 -3.16300616E-03  1.45833548E-03  1.30251830E-11
  4.05187234E-02 -3.60973904E-03  2.51089219E-11 -2.44248449E-02  1.31473839E-02
 -4.29853105E-11 -3.14787812E-03 -5.39580144E-04 -6.76439417E-12  1.75972143E-03
 -1.87873711E-03  3.35071026E-11 -1.57648565E-04 -3.45520054E-03  1.66929557E-11
 -3.88912684E-02  5.72659935E-03  2.96375038E-11  2.24815678E-02 -1.34292703E-02
 -3.08484571E-11  2.85015187E-03  1.29401026E-04 -9.18975757E-12 -1.10710361E-03
  2.15093294E-03  2.51337827E-11  3.46291807E-04  2.40729765E-03  1.31277317E-11
Dipole_Data                                R   N=           3
  6.48455160E-01 -3.66598773E-01  1.72208934E-14
Quadrupole_Data                            R   N=           6
 -5.09638378E+01 -1.10603109E-01 -5.01435915E+01 -1.26458157E-14 -1.32304297E-14
 -5.85741367E+01
Octapole_Data                              R   N=          10
  1.14340215E+01 -2.25123162E+00  4.93211126E-01 -1.30455960E+00  9.07298082E-14
  1.50922803E-14  2.60241042E-14  2.21308060E-01 -1.14017062E-01  9.70962023E-15
Hexadecapole_Data                          R   N=          15
 -1.81115261E+03  4.99207110E-01 -3.58424967E+02  3.47007500E+00 -3.29580842E+02
 -2.95158636E-13 -3.77709881E-16 -5.41265346E-14  2.19126968E-13 -3.56710491E+02
 -6.70717032E-02 -7.21349143E+01 -1.14638069E-13  3.31950192E-13 -4.75454679E+01
Cartesian Forces                           R   N=          60
  5.10430270E-02  8.92385978E-03 -2.12290691E-17 -6.74143476E-03  1.91371826E-02
 -4.61330780E-17  1.29208484E-03  1.96295563E-02 -4.38620891E-16 -5.02436715E-02
 -8.32952300E-03  5.51763752E-16  5.79967250E-03 -1.91769415E-02  1.43174195E-16
 -1.49814956E-03 -1.98316447E-02  5.42107103E-17  3.85885993E-04 -1.35506364E-03
  7.04486342E-17  3.40778078E-03 -1.51659241E-03  7.56976166E-17 -1.85284858E-04
  1.06604160E-03  1.78497967E-17 -3.28980253E-03  1.30121126E-03 -8.79018001E-17
  3.98141898E-02 -4.07737158E-03 -4.92749502E-16 -2.39407712E-02  1.32524042E-02
  2.04151276E-16 -3.08382174E-03 -5.03932977E-04  2.76693223E-16  1.74503795E-03
 -2.00534002E-03 -2.12740839E-16 -1.63399742E-04 -3.25483393E-03  6.39082315E-18
 -3.91212344E-02  5.13903190E-03 -2.75570078E-16  2.28006057E-02 -1.31365383E-02
 -2.58941843E-16  2.88685403E-03  1.56538757E-04  2.31168484E-16 -1.24822012E-03
  1.99390930E-03  1.44938727E-16  3.40651811E-04  2.58804646E-03  5.73998627E-17
Dipole_Data                                R   N=           3
  5.70103924E-01  2.88209308E-01  2.63519392E-15
Quadrupole_Data                            R   N=           6
 -5.09644999E+01 -1.10654097E-01 -5.01437996E+01 -5.94681407E-15 -1.29568434E-14
 -5.85741892E+01
Octapole_Data                              R   N=          10
  9.33529058E+00  1.06583173E+00  6.34986008E-01  1.36032291E+00  8.24899123E-15
 -5.72288365E-15  9.00678994E-15  1.82591153E-01  6.95967591E-02  6.63200459E-16
Hexadecapole_Data                          R   N=          15
 -1.81117203E+03  5.00445975E-01 -3.58426319E+02  3.46831458E+00 -3.29582446E+02
 -2.61381436E-13  3.73366002E-14 -4.70599543E-14  2.19739593E-13 -3.56711490E+02
 -6.70275305E-02 -7.21349689E+01 -1.10074427E-13  3.30991052E-13 -4.75455441E+01
Cartesian Forces                           R   N=          60
  5.10456196E-02  8.27422775E-03  3.70409622E-16 -6.49425651E-03  1.93044286E-02
 -4.37529864E-16  9.58183525E-04  1.94544116E-02  1.73225776E-16 -5.02368172E-02
 -8.98139793E-03  2.30887015E-16  6.05619845E-03 -1.90109317E-02 -1.19315589E-16
 -1.85176026E-03 -2.00142928E-02 -2.92160362E-16  3.45345223E-04 -1.10783497E-03
  2.41478144E-16  3.47928998E-03 -1.27777790E-03  1.35166343E-16 -2.55701694E-04
  1.28986118E-03  1.20849909E-16 -3.24396447E-03  1.57390783E-03 -2.37391664E-16
  3.99188797E-02 -4.06731697E-03  1.05288036E-16 -2.37604717E-02  1.29795066E-02
  2.84260390E-16 -3.05481432E-03 -3.76819330E-04  2.45738942E-17  1.57562911E-03
 -1.87830153E-03 -7.56074269E-17 -2.30473286E-04 -3.12262139E-03 -1.27103813E-16
 -3.89825850E-02  5.12135069E-03 -7.72917011E-16  2.29576683E-02 -1.33773272E-02
 -2.73725922E-16  2.95269595E-03  3.12723404E-04  3.10467673E-16 -1.42121981E-03
  2.16152740E-03  2.58314936E-16  2.42554539E-04  2.74267657E-03  8.08299129E-17
Dipole_Data                                R   N=           3
  6.09295329E-01 -3.91957147E-02 -5.40185557E-02
Quadrupole_Data                            R   N=           6
 -5.09640668E+01 -1.10636940E-01 -5.01434685E+01 -5.46644750E-04  7.68041415E-05
 -5.85742025E+01
Octapole_Data                              R   N=          10
  1.03849208E+01 -5.92722401E-01  5.64107067E-01  2.78782864E-02 -3.34058189E-01
  3.26550186E-03 -5.95656587E-02  2.01955993E-01 -2.22103539E-02 -3.04331345E-02
Hexadecapole_Data                          R   N=          15
 -1.81116280E+03  4.99025856E-01 -3.58424139E+02  3.46957672E+00 -3.29579844E+02
 -8.19458306E-03  9.81607702E-04 -3.21876604E-04  1.13366005E-04 -3.56711096E+02
 -6.70634166E-02 -7.21349713E+01 -3.59845186E-04  5.30540261E-05 -4.75455656E+01
Cartesian Forces                           R   N=          60
  5.10445366E-02  8.59978010E-03 -6.64036443E-05 -6.62143440E-03  1.92200470E-02
  1.76390856E-04  1.13015763E-03  1.95437204E-02  1.58034694E-04 -5.02405174E-02
 -8.65623645E-03 -3.48846273E-05  5.93150968E-03 -1.90930799E-02  1.74242655E-04
 -1.67990497E-03 -1.99247862E-02  1.56049047E-04  3.64063769E-04 -1.24393464E-03
 -1.50953610E-04  3.44509378E-03 -1.40452353E-03 -1.46119731E-04 -2.18924188E-04
  1.19044719E-03 -1.46826511E-04 -3.26845371E-03  1.44487839E-03 -1.52672693E-04
  3.98658346E-02 -4.07493837E-03  1.36581592E-04 -2.38496436E-02  1.31180081E-02
  4.05752297E-04 -3.06765294E-03 -4.31150918E-04 -1.53820952E-04  1.66015296E-03
 -1.94257847E-03 -1.70624390E-04 -1.96458749E-04 -3.19724819E-03 -1.84619816E-04
 -3.90512328E-02  5.13281108E-03  1.65588206E-04  2.28781326E-02 -1.32590166E-02
  3.58888913E-04  2.91813472E-03  2.25421592E-04 -1.62167155E-04 -1.33453415E-03
  2.07849197E-03 -1.81253911E-04  2.91140465E-04  2.67388741E-03 -1.81181219E-04
Dipole_Data                                R   N=           3
  6.09294745E-01 -3.91954213E-02  5.40185696E-02
Quadrupole_Data                            R   N=           6
 -5.09640657E+01 -1.10637747E-01 -5.01434676E+01  5.46652677E-04 -7.68014677E-05
 -5.85742025E+01
Octapole_Data                              R   N=          10
  1.03849155E+01 -5.92720149E-01  5.64107249E-01  2.78786120E-02  3.34057895E-01
 -3.26539757E-03  5.95656865E-02  2.01955760E-01 -2.22102483E-02  3.04331414E-02
Hexadecapole_Data                          R   N=          15
 -1.81116275E+03  4.99020051E-01 -3.58424136E+02  3.46957676E+00 -3.29579841E+02
  8.19459170E-03 -9.81583845E-04  3.21881921E-04 -1.13362542E-04 -3.56711095E+02
 -6.70637252E-02 -7.21349711E+01  3.59849427E-04 -5.30524769E-05 -4.75455656E+01
Cartesian Forces                           R   N=          60
  5.10445314E-02  8.59977728E-03  6.64019195E-05 -6.62144910E-03  1.92200565E-02
 -1.76390595E-04  1.13016184E-03  1.95437286E-02 -1.58034458E-04 -5.02405105E-02
 -8.65623402E-03  3.48829848E-05  5.93151250E-03 -1.90930826E-02 -1.74242414E-04
 -1.67990847E-03 -1.99247956E-02 -1.56048822E-04  3.64064276E-04 -1.24393740E-03
  1.50954043E-04  3.44509775E-03 -1.40452820E-03  1.46120137E-04 -2.18924196E-04
  1.19044794E-03  1.46826924E-04 -3.26845300E-03  1.44487911E-03  1.52673124E-04
  3.98658268E-02 -4.07493798E-03 -1.36582584E-04 -2.38496468E-02  1.31180139E-02
 -4.05750297E-04 -3.06765262E-03 -4.31153346E-04  1.53821333E-04  1.66015709E-03
 -1.94257844E-03  1.70624224E-04 -1.96459586E-04 -3.19725352E-03  1.84618955E-04
 -3.90512261E-02  5.13281831E-03 -1.65589248E-04  2.28781373E-02 -1.32590206E-02
 -3.58887024E-04  2.91813443E-03  2.25423713E-04  1.62167520E-04 -1.33453209E-03
  2.07849278E-03  1.81253829E-04  2.91139174E-04  2.67388365E-03  1.81180446E-04
Dipole_Data                                R   N=           3
  7.84086599E-02 -6.54834230E-01 -5.88706114E-09
Quadrupole_Data                            R   N=           6
 -5.09644835E+01 -1.10723806E-01 -5.01438704E+01  2.35467829E-10  2.65403484E-10
 -5.85741345E+01
Octapole_Data                              R   N=          10
  2.09965747E+00 -3.31717193E+00 -1.41735520E-01 -2.66492676E+00 -1.23654522E-08
 -5.31367193E-09 -9.74925674E-09  3.87423648E-02 -1.83627599E-01 -3.45719431E-09
Hexadecapole_Data                          R   N=          15
 -1.81115138E+03  4.97150242E-01 -3.58429073E+02  3.46769772E+00 -3.29585319E+02
  1.85608275E-09 -1.30433050E-10  1.38224332E-10  5.03949236E-10 -3.56711801E+02
 -6.70055287E-02 -7.21346363E+01  1.29945810E-10  1.44814627E-10 -4.75454488E+01
Cartesian Forces                           R   N=          60
  5.05471087E-02  9.25901133E-03 -2.57952645E-11 -6.46396355E-03  1.89738988E-02
 -2.18758973E-11  1.69066478E-03  1.98713672E-02 -2.11332341E-11 -5.05568113E-02
 -7.95758715E-03 -2.09490651E-11  5.96026263E-03 -1.93070563E-02 -2.10183834E-11
 -1.00304931E-03 -1.95136304E-02 -1.95421631E-11  3.50974216E-04 -1.40269160E-03
  2.45264678E-11  3.29741032E-03 -1.65281097E-03  2.44552656E-11 -2.40069052E-04
  9.31677482E-04  2.26305492E-11 -3.41460652E-03  1.14126384E-03  2.45966300E-11
  3.92585808E-02 -4.57108397E-03  1.53076087E-11 -2.35090284E-02  1.34065118E-02
 -7.06349041E-11 -3.04552642E-03 -5.05310687E-04  7.33793800E-12  1.68994111E-03
 -2.15411837E-03  3.46169861E-11 -1.59872724E-04 -3.04577542E-03  2.83441287E-11
 -3.95016338E-02  4.57873793E-03  2.14151270E-11  2.31715114E-02 -1.28927345E-02
 -7.31569851E-11  2.95058891E-03  2.22024391E-04  1.02505426E-11 -1.34746941E-03
  1.85939070E-03  3.63117627E-11  3.24987688E-04  2.75891593E-03  2.43128902E-11
Dipole_Data                                R   N=           3
  3.92050213E-02 -3.27417250E-01 -5.40162133E-02
Quadrupole_Data                            R   N=           6
 -5.09643453E+01 -1.10714931E-01 -5.01433095E+01 -7.54774433E-05  2.41241650E-04
 -5.85742217E+01
Octapole_Data                              R   N=          10
  1.04985788E+00 -1.65859870E+00 -7.08693921E-02 -1.33246962E+00 -3.34032295E-01
  3.26426554E-03 -5.95680260E-02  1.93714796E-02 -9.18136295E-02 -3.04318899E-02
Hexadecapole_Data                          R   N=          15
 -1.81115741E+03  4.95671799E-01 -3.58425196E+02  3.46884495E+00 -3.29580454E+02
 -1.89710005E-03  1.04068556E-03  1.04123042E-06  6.46609278E-04 -3.56711968E+02
 -6.70366092E-02 -7.21347170E+01 -5.59990045E-05  1.54277883E-04 -4.75455993E+01
Cartesian Forces                           R   N=          60
  5.05502929E-02  8.93642923E-03 -5.11968331E-05 -6.34949277E-03  1.90534927E-02
  1.83136608E-04  1.53478338E-03  1.97863458E-02  1.61922667E-04 -5.05551304E-02
 -8.28570659E-03 -5.01386846E-05  6.09763061E-03 -1.92200375E-02  1.67495485E-04
 -1.19096771E-03 -1.96074445E-02  1.52159796E-04  3.18457583E-04 -1.32297028E-03
 -1.43822369E-04  3.33158593E-03 -1.54732116E-03 -1.45652966E-04 -2.63004686E-04
  1.08740563E-03 -1.53946357E-04 -3.39019085E-03  1.29152453E-03 -1.53131192E-04
  3.93167900E-02 -4.57873112E-03  1.43191757E-04 -2.34201758E-02  1.32824325E-02
  3.90999685E-04 -3.01639813E-03 -4.06428631E-04 -1.62124789E-04  1.60427296E-03
 -2.08219204E-03 -1.77207901E-04 -2.00143424E-04 -3.00007558E-03 -1.79359547E-04
 -3.94383238E-02  4.58261031E-03  1.59042296E-04  2.32514145E-02 -1.30255230E-02
  3.73531714E-04  2.96892415E-03  2.64743778E-04 -1.53859762E-04 -1.43302867E-03
  1.93483788E-03 -1.74646015E-04  2.82704181E-04  2.85660800E-03 -1.86393591E-04
Dipole_Data                                R   N=           3
  3.92051712E-02 -3.27417297E-01  5.40162230E-02
Quadrupole_Data                            R   N=           6
 -5.09643451E+01 -1.10715316E-01 -5.01433086E+01  7.54718699E-05 -2.41242894E-04
 -5.85742217E+01
Octapole_Data                              R   N=          10
  1.04986382E+00 -1.65860049E+00 -7.08697008E-02 -1.33246975E+00  3.34032025E-01
 -3.26416873E-03  5.95680484E-02  1.93715395E-02 -9.18136468E-02  3.04318946E-02
Hexadecapole_Data                          R   N=          15
 -1.81115739E+03  4.95670477E-01 -3.58425193E+02  3.46884500E+00 -3.29580452E+02
  1.89704402E-03 -1.04068276E-03 -1.04480623E-06 -6.46610606E-04 -3.56711968E+02
 -6.70367527E-02 -7.21347167E+01  5.59958476E-05 -1.54278554E-04 -4.75455993E+01
Cartesian Forces                           R   N=          60
  5.05502890E-02  8.93643186E-03  5.11951454E-05 -6.34950315E-03  1.90534964E-02
 -1.83136372E-04  1.53478631E-03  1.97863524E-02 -1.61922330E-04 -5.05551249E-02
 -8.28569976E-03  5.01369108E-05  6.09763673E-03 -1.92200454E-02 -1.67495169E-04
 -1.19097308E-03 -1.96074540E-02 -1.52159631E-04  3.18458266E-04 -1.32297172E-03
  1.43822776E-04  3.33158885E-03 -1.54732522E-03  1.45653353E-04 -2.63004094E-04
  1.08740851E-03  1.53946770E-04 -3.39019097E-03  1.29152555E-03  1.53131624E-04
  3.93167868E-02 -4.57873797E-03 -1.43192629E-04 -2.34201783E-02  1.32824355E-02
 -3.90997895E-04 -3.01639793E-03 -4.06428877E-04  1.62125132E-04  1.60427045E-03
 -2.08219283E-03  1.77207825E-04 -2.00142628E-04 -3.00007270E-03  1.79358751E-04
 -3.94383164E-02  4.58261235E-03 -1.59043317E-04  2.32514181E-02 -1.30255276E-02
 -3.73529762E-04  2.96892362E-03  2.64745601E-04  1.53860099E-04 -1.43303090E-03
  1.93483801E-03  1.74645912E-04  2.82704231E-04  2.85661003E-03  1.86392806E-04
Dipole_Data                                R   N=           3
 -7.84086811E-02  6.54834211E-01  5.89572781E-10
Quadrupole_Data                            R   N=           6
 -5.09644830E+01 -1.10724046E-01 -5.01438704E+01 -1.70196642E-10  2.42330222E-11
 -5.85741345E+01
Octapole_Data                              R   N=          10
 -2.09965703E+00  3.31717190E+00  1.41735819E-01  2.66492683E+00 -2.23073641E-09
 -9.00694412E-10 -2.97776875E-10 -3.87423771E-02  1.83627592E-01  2.65340943E-10
Hexadecapole_Data                          R   N=          15
 -1.81115137E+03  4.97147512E-01 -3.58429073E+02  3.46769775E+00 -3.29585319E+02
 -2.28129717E-09  2.78443594E-10 -5.83145157E-11  1.18296543E-10 -3.56711801E+02
 -6.70056231E-02 -7.21346363E+01 -1.16686584E-10  3.11586732E-11 -4.75454488E+01
Cartesian Forces                           R   N=          60
  5.05568069E-02  7.95758426E-03  6.34793963E-11 -5.96026221E-03  1.93070589E-02
 -2.37722357E-11  1.00305172E-03  1.95136288E-02 -2.30806372E-11 -5.05471122E-02
 -9.25901318E-03  6.56897467E-11  6.46396349E-03 -1.89738958E-02 -3.20992069E-11
 -1.69066109E-03 -1.98713678E-02 -2.84379473E-11  2.40068602E-04 -9.31678580E-04
  1.05038130E-12  3.41460498E-03 -1.14126207E-03  1.16165879E-12 -3.50974965E-04
  1.40268956E-03  4.42593345E-12 -3.29741190E-03  1.65281255E-03  2.93179146E-12
  3.95016350E-02 -4.57873613E-03  2.04638134E-11 -2.31715105E-02  1.28927350E-02
 -6.35757658E-11 -2.95058897E-03 -2.22024555E-04  1.06930523E-11  1.34747014E-03
 -1.85939058E-03 -3.64876325E-12 -3.24988121E-04 -2.75891761E-03  1.94355245E-11
 -3.92585790E-02  4.57108430E-03  3.14320395E-11  2.35090308E-02 -1.34065128E-02
 -7.74947689E-11  3.04552659E-03  5.05312062E-04  8.45003805E-12 -1.68994178E-03
  2.15411841E-03 -8.82970665E-15  1.59872438E-04  3.04577524E-03  2.29047788E-11
Dipole_Data                                R   N=           3
 -3.92050213E-02  3.27417250E-01 -5.40162133E-02
Quadrupole_Data                            R   N=           6
 -5.09643453E+01 -1.10714931E-01 -5.01433095E+01  7.54774433E-05 -2.41241650E-04
 -5.85742217E+01
Octapole_Data                              R   N=          10
 -1.04985788E+00  1.65859870E+00  7.08693921E-02  1.33246962E+00 -3.34032295E-01
  3.26426555E-03 -5.95680259E-02 -1.93714796E-02  9.18136295E-02 -3.04318899E-02
Hexadecapole_Data                          R   N=          15
 -1.81115741E+03  4.95671800E-01 -3.58425196E+02  3.46884495E+00 -3.29580454E+02
  1.89710005E-03 -1.04068556E-03 -1.04123055E-06 -6.46609277E-04 -3.56711968E+02
 -6.70366092E-02 -7.21347170E+01  5.59990043E-05 -1.54277882E-04 -4.75455993E+01
Cartesian Forces                           R   N=          60
  5.05551304E-02  8.28570659E-03 -5.01386845E-05 -6.09763061E-03  1.92200375E-02
  1.67495485E-04  1.19096771E-03  1.96074445E-02  1.52159796E-04 -5.05502929E-02
 -8.93642923E-03 -5.11968330E-05  6.34949277E-03 -1.90534927E-02  1.83136608E-04
 -1.53478338E-03 -1.97863458E-02  1.61922667E-04  2.63004686E-04 -1.08740563E-03
 -1.53946357E-04  3.39019085E-03 -1.29152453E-03 -1.53131192E-04 -3.18457583E-04
  1.32297028E-03 -1.43822369E-04 -3.33158593E-03  1.54732116E-03 -1.45652966E-04
  3.94383238E-02 -4.58261031E-03  1.59042296E-04 -2.32514145E-02  1.30255230E-02
  3.73531714E-04 -2.96892415E-03 -2.64743778E-04 -1.53859762E-04  1.43302867E-03
 -1.93483788E-03 -1.74646015E-04 -2.82704181E-04 -2.85660800E-03 -1.86393591E-04
 -3.93167900E-02  4.57873112E-03  1.43191757E-04  2.34201758E-02 -1.32824325E-02
  3.90999685E-04  3.01639813E-03  4.06428631E-04 -1.62124789E-04 -1.60427296E-03
  2.08219204E-03 -1.77207901E-04  2.00143424E-04  3.00007558E-03 -1.79359547E-04
Dipole_Data                                R   N=           3
 -3.92051712E-02  3.27417297E-01  5.40162230E-02
Quadrupole_Data                            R   N=           6
 -5.09643451E+01 -1.10715316E-01 -5.01433086E+01 -7.54718699E-05  2.41242894E-04
 -5.85742217E+01
Octapole_Data                              R   N=          10
 -1.04986382E+00  1.65860049E+00  7.08697008E-02  1.33246975E+00  3.34032025E-01
 -3.26416873E-03  5.95680484E-02 -1.93715395E-02  9.18136468E-02  3.04318946E-02
Hexadecapole_Data                          R   N=          15
 -1.81115739E+03  4.95670477E-01 -3.58425193E+02  3.46884500E+00 -3.29580452E+02
 -1.89704402E-03  1.04068276E-03  1.04480616E-06  6.46610607E-04 -3.56711968E+02
 -6.70367527E-02 -7.21347167E+01 -5.59958478E-05  1.54278554E-04 -4.75455993E+01
Cartesian Forces                           R   N=          60
  5.05551249E-02  8.28569976E-03  5.01369108E-05 -6.09763673E-03  1.92200454E-02
 -1.67495169E-04  1.19097308E-03  1.96074540E-02 -1.52159631E-04 -5.05502890E-02
 -8.93643186E-03  5.11951454E-05  6.34950315E-03 -1.90534964E-02 -1.83136372E-04
 -1.53478631E-03 -1.97863524E-02 -1.61922330E-04  2.63004094E-04 -1.08740851E-03
  1.53946770E-04  3.39019097E-03 -1.29152555E-03  1.53131624E-04 -3.18458266E-04
  1.32297172E-03  1.43822776E-04 -3.33158885E-03  1.54732522E-03  1.45653353E-04
  3.94383164E-02 -4.58261235E-03 -1.59043317E-04 -2.32514181E-02  1.30255276E-02
 -3.73529762E-04 -2.96892362E-03 -2.64745601E-04  1.53860099E-04  1.43303090E-03
 -1.93483801E-03  1.74645912E-04 -2.82704231E-04 -2.85661003E-03  1.86392806E-04
 -3.93167868E-02  4.57873797E-03 -1.43192629E-04  2.34201783E-02 -1.32824355E-02
 -3.90997895E-04  3.01639793E-03  4.06428877E-04  1.62125132E-04 -1.60427045E-03
  2.08219283E-03  1.77207825E-04  2.00142628E-04  3.00007270E-03  1.79358751E-04
Dipole_Data                                R   N=           3
  3.72567015E-07 -1.29402090E-07 -1.08029352E-01
Quadrupole_Data                            R   N=           6
 -5.09640645E+01 -1.10762450E-01 -5.01429622E+01 -4.30928764E-10  3.21130581E-10
 -5.85742928E+01
Octapole_Data                              R   N=          10
  2.47306049E-06 -8.47239112E-07 -9.07902941E-07 -6.37058400E-07 -6.68048119E-01
  6.52832272E-03 -1.19130862E-01  1.42045168E-07 -3.85303632E-08 -6.08619956E-02
Hexadecapole_Data                          R   N=          15
 -1.81115309E+03  4.93890749E-01 -3.58423058E+02  3.46922529E+00 -3.29578117E+02
 -9.88526131E-09  5.02859674E-09  1.01934901E-09  2.36045257E-09 -3.56712219E+02
 -6.70628596E-02 -7.21347552E+01 -2.27490243E-10  1.85790748E-10 -4.75456870E+01
Cartesian Forces                           R   N=          60
  5.05528815E-02  8.61132508E-03 -1.01318220E-04 -6.22640092E-03  1.91372262E-02
  3.50638735E-04  1.36676836E-03  1.96995982E-02  3.14096037E-04 -5.05528689E-02
 -8.61132092E-03 -1.01317654E-04  6.22640293E-03 -1.91372368E-02  3.50638223E-04
 -1.36677347E-03 -1.96995938E-02  3.14096597E-04  2.89283663E-04 -1.21713770E-03
 -2.97784617E-04  3.36226578E-03 -1.42635420E-03 -2.98797599E-04 -2.89282110E-04
  1.21714380E-03 -2.97784525E-04 -3.36226469E-03  1.42635253E-03 -2.98797679E-04
  3.93772913E-02 -4.58531829E-03  3.02245174E-04 -2.33363044E-02  1.31578933E-02
  7.64541215E-04 -2.99144774E-03 -3.26815194E-04 -3.15997760E-04  1.51798788E-03
 -2.00981757E-03 -3.51856893E-04 -2.40549131E-04 -2.93645267E-03 -3.65766384E-04
 -3.93772945E-02  4.58530779E-03  3.02245185E-04  2.33362981E-02 -1.31578890E-02
  7.64541082E-04  2.99144761E-03  3.26813777E-04 -3.15997750E-04 -1.51799226E-03
  2.00981646E-03 -3.51856855E-04  2.40550894E-04  2.93645899E-03 -3.65766312E-04
Dipole_Data                                R   N=           3
 -2.13081234E-08 -7.60605960E-09  1.08029380E-01
Quadrupole_Data                            R   N=           6
 -5.09640657E+01 -1.10762311E-01 -5.01429629E+01 -3.96042446E-11 -1.44877227E-11
 -5.85742928E+01
Octapole_Data                              R   N=          10
  8.65719969E-08 -3.97374097E-08  3.12322861E-08  1.23028931E-08  6.68047966E-01
 -6.52824429E-03  1.19130917E-01 -8.59812385E-09 -2.95955525E-09  6.08620119E-02
Hexadecapole_Data                          R   N=          15
 -1.81115311E+03  4.93891928E-01 -3.58423061E+02  3.46922530E+00 -3.29578122E+02
 -2.83717445E-11 -1.20144431E-10  3.08890851E-11  1.95613111E-11 -3.56712219E+02
 -6.70628102E-02 -7.21347553E+01 -2.23287496E-11 -9.02728751E-12 -4.75456870E+01
Cartesian Forces                           R   N=          60
  5.05528738E-02  8.61132289E-03  1.01317539E-04 -6.22640203E-03  1.91372270E-02
 -3.50638274E-04  1.36677292E-03  1.96995909E-02 -3.14096172E-04 -5.05528743E-02
 -8.61132298E-03  1.01317578E-04  6.22640164E-03 -1.91372263E-02 -3.50638298E-04
 -1.36677302E-03 -1.96995917E-02 -3.14096146E-04  2.89282884E-04 -1.21714044E-03
  2.97784588E-04  3.36226500E-03 -1.42635279E-03  2.98797651E-04 -2.89282837E-04
  1.21714035E-03  2.97784591E-04 -3.36226502E-03  1.42635292E-03  2.98797648E-04
  3.93772956E-02 -4.58530992E-03 -3.02245658E-04 -2.33362992E-02  1.31578885E-02
 -7.64539925E-04 -2.99144818E-03 -3.26814390E-04  3.15997842E-04  1.51798948E-03
 -2.00981682E-03  3.51856565E-04 -2.40550230E-04 -2.93645580E-03  3.65765821E-04
 -3.93772949E-02  4.58531020E-03 -3.02245658E-04  2.33362995E-02 -1.31578888E-02
 -7.64539923E-04  2.99144815E-03  3.26814622E-04  3.15997843E-04 -1.51798943E-03
  2.00981686E-03  3.51856565E-04  2.40550182E-04  2.93645570E-03  3.65765822E-04
Cartesian Force Constants                  R   N=        1830
  6.86947964E-01 -3.36978487E-02  8.25096885E-01  1.48786935E-16 -1.82281582E-15
  1.53016913E-01 -2.40210866E-01  8.74592047E-02 -4.19989378E-16  7.98996981E-01
  1.74355736E-01 -2.97953860E-01  7.90488229E-16  2.60425929E-02  8.69530134E-01
 -2.42253020E-16  5.43068408E-16 -6.23295533E-02 -9.65831338E-18 -1.83561740E-15
  1.36873866E-01 -6.10465614E-02  8.09230610E-02 -3.69436306E-17 -3.96367180E-01
 -1.01314082E-01 -3.26438469E-17  8.33347298E-01  8.27809567E-03  6.79885020E-02
 -7.62916199E-18 -5.14011111E-04 -1.58215668E-01  2.43502125E-16 -4.10980193E-02
  8.36556420E-01 -1.71083015E-16  1.91807823E-16  9.10738666E-03  5.71260139E-17
  2.06612705E-16 -6.32187253E-02  5.31600182E-16 -1.83657113E-15  1.37981129E-01
  5.82734437E-03  1.92283380E-02  5.13628050E-17 -1.05054077E-02 -4.07801271E-02
 -3.28488417E-17 -1.51862541E-01 -1.09748390E-01  8.74156187E-17  6.86947964E-01
  1.92283380E-02 -8.98186049E-02 -1.03565286E-17 -1.14630933E-01  1.63126906E-02
  9.58949747E-17 -2.68367389E-02 -3.80679357E-01  1.01627694E-15 -3.36978487E-02
  8.25096885E-01  5.37099342E-17 -1.57573452E-16 -9.57514476E-03  3.85755393E-17
 -2.52082062E-17  8.92489910E-03  1.90167886E-17  1.01604440E-15 -6.46675630E-02
  8.43458910E-16 -2.39524288E-15  1.53016913E-01 -1.05054077E-02 -1.14630933E-01
 -2.12238213E-16 -8.11528273E-02  2.70090062E-02  2.20384288E-17  7.40667042E-02
  6.13503195E-02  8.11551619E-17 -2.40210866E-01  8.74592047E-02 -5.58211279E-16
  7.98996981E-01 -4.07801271E-02  1.63126906E-02  6.48472934E-17  2.70090062E-02
 -6.77055489E-03 -1.00804721E-16 -2.16569027E-03 -6.11755146E-02  1.79558409E-16
  1.74355736E-01 -2.97953860E-01  9.32815957E-16  2.60425929E-02  8.69530134E-01
  9.93549006E-17  7.04629488E-17  8.92489910E-03  4.47136454E-17 -3.18315994E-17
 -7.70257909E-03 -2.01745472E-17  5.91841941E-17  7.60494546E-03 -7.42091410E-16
  9.55230369E-16 -6.23295533E-02  2.56301369E-16 -1.71652009E-15  1.36873866E-01
 -1.51862541E-01 -2.68367389E-02  3.91038792E-16  7.40667042E-02 -2.16569027E-03
 -9.89819324E-17 -4.80749136E-02 -4.56311433E-02 -3.21703928E-17 -6.10465614E-02
  8.09230610E-02 -1.07672404E-16 -3.96367180E-01 -1.01314082E-01  1.50766910E-16
  8.33347298E-01 -1.09748390E-01 -3.80679357E-01  8.59810617E-16  6.13503195E-02
 -6.11755146E-02  2.09790469E-16 -4.56311433E-02 -3.83105741E-02 -1.45403809E-16
  8.27809567E-03  6.79885020E-02  2.08915520E-16 -5.14011111E-04 -1.58215668E-01
  9.84136991E-18 -4.10980193E-02  8.36556420E-01  3.48805964E-16  7.39616769E-16
 -6.46675630E-02 -2.36047670E-16  2.85087896E-16  7.60494546E-03  7.08741524E-17
 -1.37432210E-17 -7.43483746E-03 -1.48910712E-16 -5.39204844E-17  9.10738666E-03
  5.64422602E-16  1.10878979E-16 -6.32187253E-02 -1.44067799E-16 -1.61063000E-15
  1.37981129E-01  1.01034421E-02  2.49075146E-02 -3.19425226E-17 -1.01178488E-01
 -1.01468296E-01  2.81344957E-16 -4.70182900E-03 -3.36905595E-02  5.99667057E-17
 -5.46900218E-03  1.10385449E-03 -7.56704926E-18 -5.51706027E-04  5.69819611E-04
  3.59656586E-18 -3.70205979E-03  2.42055536E-03  2.10660048E-17  1.01369014E-01
 -1.27406339E-02 -1.47751656E-02 -1.48987263E-17 -1.01167218E-01 -3.72335750E-01
  7.44103466E-16  5.89791506E-03  7.58660908E-04  3.02391669E-18 -3.23267803E-04
  1.29065065E-03  2.86764331E-17  8.06091913E-04  1.09057062E-03 -1.57890072E-17
  3.80241074E-03 -1.32338297E-03  2.13695048E-18  1.05742091E-01  3.83164986E-01
  8.91079763E-17  5.00005047E-17  2.50627792E-03  2.57522936E-16  7.41350458E-16
 -4.17820946E-02  7.24625191E-19  2.06403695E-17  3.53336608E-03  1.94572851E-17
 -6.17145414E-18  8.93577221E-03  1.97645816E-17  9.78936155E-18 -9.74369688E-04
 -6.99549293E-17 -4.88260701E-17  7.89596973E-03 -3.12268128E-16 -7.45890132E-16
  2.96627130E-02 -4.06472350E-03 -3.43131394E-03  6.04152234E-18 -1.41350936E-02
  2.73428862E-02 -6.62436247E-17 -2.12867500E-01  1.66675773E-01 -5.44126031E-16
  1.23283064E-02 -1.18149412E-02  1.96831918E-17 -1.46878791E-03 -2.34731785E-03
 -2.05723341E-17  2.26347496E-04 -9.48493027E-04  8.37764010E-18  1.98437833E-03
  2.63353135E-04  1.42860652E-18  2.25411942E-01 -1.97725197E-03  4.58948954E-05
  1.29594261E-18 -1.21396539E-02  9.73481049E-03  4.26356197E-18  1.66796918E-01
 -2.57134110E-01  4.73873919E-16  2.33376480E-02 -1.58082139E-02  3.59369585E-17
 -3.83004867E-03 -3.93655235E-03  1.75873169E-17 -1.11717440E-03  3.60446341E-04
  5.26975425E-18  5.70829037E-05  1.14638246E-03 -9.70069650E-18 -1.73754342E-01
  2.63598827E-01 -5.74544131E-17  1.27572444E-16  8.84873999E-03  1.57238086E-16
 -4.42894744E-17  3.88143335E-03 -5.33982013E-16  4.73691566E-16 -4.30072460E-02
 -2.95977182E-17 -8.32545091E-19  2.81797040E-03 -1.58003637E-17  5.85584361E-17
  7.93780837E-03  9.82671653E-18 -4.98625007E-17 -9.98983431E-04 -4.36676403E-19
 -1.25086900E-17 -4.98621135E-03  5.63562366E-16 -5.01513210E-16  2.95754349E-02
 -5.46900218E-03  1.10385449E-03 -3.19154977E-19 -5.51706027E-04  5.69819611E-04
 -7.00088651E-18 -3.70205979E-03  2.42055536E-03 -1.40775823E-17  1.01034421E-02
  2.49075146E-02 -1.46774540E-17 -1.01178488E-01 -1.01468296E-01  2.40352679E-16
 -4.70182900E-03 -3.36905595E-02  2.32714882E-17  1.23545703E-04 -1.63873568E-04
  2.42822895E-18  5.43748962E-04  1.14926498E-03 -3.10671457E-18  1.01369014E-01
 -3.23267803E-04  1.29065065E-03  3.55990440E-18  8.06091913E-04  1.09057062E-03
  1.27723473E-17  3.80241074E-03 -1.32338297E-03  2.69268277E-17 -1.27406339E-02
 -1.47751656E-02  3.63625035E-17 -1.01167218E-01 -3.72335750E-01  4.83193818E-16
  5.89791506E-03  7.58660908E-04  5.97400957E-17 -1.63873568E-04 -2.11615281E-04
 -2.66341587E-18 -6.45039647E-04 -7.24406144E-04 -6.20200851E-19  1.05742091E-01
  3.83164985E-01 -1.73902984E-17 -4.32618566E-17  8.93577221E-03 -4.63681177E-17
  7.07097956E-18 -9.74369688E-04 -8.99569008E-18  5.87071772E-17  7.89596973E-03
  1.38219905E-16  3.42725614E-17  2.50627792E-03  8.34747017E-17  4.80466246E-16
 -4.17820946E-02  1.15638905E-16  5.16196237E-17  3.53336608E-03  7.41660461E-19
 -1.79876794E-18 -1.16805817E-03 -6.75015460E-18 -2.15232739E-18  1.58179300E-04
 -2.33517637E-16 -5.52544059E-16  2.96627130E-02  1.23283064E-02 -1.18149412E-02
  1.09660554E-17 -1.46878791E-03 -2.34731785E-03 -3.14226003E-18  2.26347496E-04
 -9.48493027E-04  2.51474720E-18 -4.06472350E-03 -3.43131394E-03 -7.11915926E-18
 -1.41350936E-02  2.73428862E-02 -3.75688546E-17 -2.12867500E-01  1.66675773E-01
 -4.58412161E-16  5.43748962E-04 -6.45039647E-04  7.71547592E-19 -8.96347552E-05
  2.29232678E-04 -4.96319773E-18  1.98437833E-03  2.63353135E-04  1.24205981E-18
  2.25411942E-01  2.33376480E-02 -1.58082139E-02 -2.30394237E-17 -3.83004867E-03
 -3.93655235E-03 -4.06829707E-18 -1.11717440E-03  3.60446341E-04  7.67911733E-18
 -1.97725197E-03  4.58948954E-05 -1.44534198E-17 -1.21396539E-02  9.73481049E-03
  2.19077501E-17  1.66796918E-01 -2.57134110E-01  4.40074880E-16  1.14926498E-03
 -7.24406144E-04  7.21483287E-18  2.29232678E-04 -4.60665593E-05  4.41720705E-19
  5.70829037E-05  1.14638246E-03 -1.28994595E-17 -1.73754342E-01  2.63598827E-01
 -2.62958298E-16 -1.48041361E-18  2.81797040E-03  4.25005508E-17  7.06065642E-18
  7.93780837E-03  1.65112818E-17  6.63844679E-17 -9.98983431E-04  4.76618394E-17
 -1.02019023E-16  8.84873999E-03 -4.77653941E-17  5.66720339E-18  3.88143335E-03
 -3.71390330E-16  4.33184567E-16 -4.30072460E-02 -1.06416577E-17  1.13661603E-17
  1.58179300E-04  3.57097384E-18 -1.05997441E-17 -1.15631856E-03 -1.48226544E-17
 -2.64065307E-17 -4.98621135E-03  5.25880048E-16 -4.03841486E-16  2.95754349E-02
 -4.15151977E-03  1.55400695E-04 -8.93563300E-17  8.44470139E-03 -1.06023651E-03
  1.95126139E-16 -2.39996370E-02 -2.16736739E-02 -1.89000097E-16 -1.87867122E-01
 -1.68393868E-02 -4.09254571E-17 -3.88997787E-02  3.50525014E-03  7.39129844E-17
  5.04893722E-03  5.36563204E-03  7.87562568E-17  2.21973902E-04  1.25743432E-04
 -6.76985082E-19 -8.18949637E-04  2.12456921E-03 -2.98151940E-17  1.47240233E-03
 -2.07761569E-03 -9.50858252E-18 -2.87920413E-04 -2.80159463E-04 -5.22838938E-18
  7.13709115E-01  1.38889342E-03 -3.21497855E-04  5.11791601E-18 -5.02832541E-04
 -6.40845284E-03 -1.65244374E-17 -3.40789874E-02  2.00508713E-04 -1.32659216E-16
 -4.25428034E-02 -1.23417579E-01  1.83559081E-16  3.12006884E-02  7.36925736E-03
  8.30829578E-17  1.39049826E-03 -4.62938328E-03  4.71741625E-17 -1.51416505E-03
  3.89518511E-06  7.94862928E-18  1.91986294E-03  1.34613412E-03  5.79612402E-18
  1.67893185E-03  1.72503034E-03 -2.70024497E-17  1.28436771E-03  4.88928752E-04
  1.80649240E-17 -1.90709008E-01  9.57727615E-01  3.64462365E-17  1.17129800E-18
 -1.02520420E-03 -7.12666401E-17  4.31057954E-17  6.99688090E-03  4.21610620E-17
 -7.08163032E-17  3.53944626E-03  2.48840182E-17  2.98865151E-16 -6.94284901E-02
 -9.12012282E-17  7.02300418E-17  3.91817355E-03 -1.72704147E-17 -4.81768927E-17
  7.60527146E-03  9.38711404E-18 -1.67661046E-18  1.27850432E-04  1.00013637E-17
 -1.98982104E-17 -4.13362364E-03 -5.89011750E-18 -2.76419638E-17 -4.10060248E-03
  4.59302073E-20  5.69095413E-18  5.87337932E-05  3.03555532E-16 -5.89855640E-16
  1.35569039E-01  9.93834850E-04  9.10638315E-04  2.66829417E-17 -8.30430758E-04
  1.57827229E-03 -7.75652749E-17  1.15452279E-03  4.94529106E-03  1.40331756E-16
 -4.64199735E-02  2.31699211E-02 -1.89892244E-16  1.29742880E-03 -6.38831268E-03
 -1.71245657E-17 -2.74185974E-03 -6.29655939E-04 -2.07975604E-17  5.70441786E-05
 -1.09634354E-05  3.81712091E-18 -2.82227600E-03  7.65961922E-04 -1.57426561E-17
 -1.01769327E-04 -1.18507177E-04  3.81339464E-18 -3.44631271E-04 -1.32627126E-04
 -3.06933250E-18 -3.91964489E-01  2.92425441E-01 -1.42377559E-16  9.13205060E-01
 -1.49260568E-03  2.70380659E-04 -3.64462268E-17  2.58160653E-03 -5.35067282E-04
  5.80331145E-17 -4.56735244E-03 -6.20706184E-03  1.64029140E-18  1.38000785E-02
  1.74003862E-02  1.71046808E-16 -6.59063381E-03  1.88815641E-04  3.66684895E-17
  9.29097840E-04  1.75505251E-03  3.04451703E-17 -1.70580568E-05  5.31970130E-06
 -6.85426393E-18 -4.25382186E-03  9.79581845E-05 -3.63098083E-18 -2.88865176E-04
  1.32885186E-04 -1.56726953E-17 -3.14534244E-04 -9.71751963E-05 -3.48296346E-19
  2.74056162E-01 -4.36081218E-01 -6.91725014E-17 -1.55193126E-01  9.05909206E-01
 -3.53283039E-17 -7.32638062E-17 -6.00432298E-05 -5.48135689E-18  3.16859593E-17
 -4.80948520E-04  3.40721767E-17  1.17686828E-17  9.27771864E-04 -1.66758407E-16
  1.46729303E-16  6.17683026E-03 -1.43625413E-16 -2.46712621E-17  1.20008372E-03
  1.48765034E-16  9.06070767E-17 -2.04886013E-04  5.11051150E-18 -1.93272704E-18
  3.91025302E-05  1.38972192E-17  5.90282936E-18  4.30721328E-04  3.67497659E-18
  9.14116635E-19  1.34725041E-04 -1.86614746E-17 -2.79084613E-18 -8.46903381E-05
 -1.85496331E-16  5.71783359E-17 -4.67784369E-02 -2.89302311E-16 -5.84379017E-16
  1.12847008E-01  1.64215560E-04  9.33046122E-05 -7.95004735E-18  3.04176446E-04
 -1.74413854E-03  7.86312501E-19 -5.64438098E-03  1.85979738E-03 -4.79052597E-17
 -6.14290979E-03 -3.10119573E-02 -4.42663615E-17  2.28169860E-03 -2.08796338E-03
 -4.86380921E-19  1.59397981E-04  1.05653873E-04 -5.78973028E-18 -4.77626243E-04
 -8.44098963E-06 -4.29881441E-18  5.30141325E-05 -6.70875815E-05  4.30842723E-18
  2.86002547E-04  6.37887916E-04 -1.99978298E-17 -1.45908888E-05  1.50214179E-05
  4.94979067E-18 -8.03149643E-02 -7.81916103E-02 -2.20907759E-16  9.38135280E-03
  3.04365624E-02  1.11261933E-16  8.17976513E-02  3.54113355E-05  1.77368828E-04
  1.13569640E-18  1.69902895E-04 -1.25449641E-04 -3.35937331E-19  9.71292576E-05
  5.30280312E-04 -1.61174735E-17  3.97465468E-03 -1.75170018E-03 -4.13866045E-17
  1.85659800E-03  1.59494260E-03 -1.35804431E-17 -5.73155856E-05 -1.94625886E-04
 -2.18260409E-17 -3.25657347E-05  2.86836610E-05 -2.32998944E-18  8.86661273E-05
  1.48815212E-04 -4.00324976E-18 -4.30068162E-04 -2.74457865E-06  1.71455793E-17
  3.83835137E-05  1.43978444E-05  6.90132287E-19 -7.48560759E-02 -3.91307773E-01
  4.30583079E-16 -1.12439604E-02 -1.33199855E-02 -8.83699946E-17  7.84239571E-02
  4.03131291E-01  1.55492081E-17 -2.07018705E-17  1.00148601E-04 -4.71862439E-17
 -7.53955777E-18 -2.39550406E-05 -3.96607861E-18  1.86565785E-17  2.04266058E-03
 -3.60027822E-17 -4.64633141E-17  2.23961499E-03  1.49674187E-18 -5.04750563E-17
 -6.25997883E-04  8.25816512E-18 -1.51494068E-18 -5.41616915E-05 -2.92977948E-18
 -5.85327128E-19 -2.03178527E-04  6.50325113E-18 -5.34387070E-19 -2.17591363E-05
  1.15867735E-17 -2.45470876E-18 -4.58455256E-05  1.41471898E-18  1.15464904E-18
  7.96239437E-06 -8.96729016E-17  2.85541633E-16 -4.29241985E-02 -9.76422069E-17
  6.60884188E-18  5.58420025E-03  2.06471145E-16 -2.42705375E-16  2.89942120E-02
  1.01493930E-04  1.34936169E-04 -6.44765070E-18 -4.13923411E-06 -1.63318322E-04
  5.03921349E-18  5.92798439E-04  2.81725732E-04 -4.12506110E-18  2.39471838E-04
  2.52218803E-03 -1.48050192E-17 -4.08989064E-04 -4.66446789E-04 -5.42847036E-18
 -1.85004103E-04  3.78783178E-04 -3.98352919E-18 -1.27600794E-05  1.12076262E-05
 -7.31983383E-19  1.12306929E-04  1.20771629E-04 -3.09858876E-19 -2.50874487E-05
  7.67158260E-05 -1.29447556E-18 -4.65616979E-05 -3.69891067E-05 -6.78422271E-19
 -1.46689626E-02 -1.13081497E-02 -1.04764689E-17 -3.91905409E-01 -7.04846416E-02
 -2.70989717E-17  1.73233486E-03  8.72370076E-05  9.39951889E-18  4.05239820E-01
 -9.98050351E-05  3.74464688E-05  7.27489459E-19 -3.05865166E-05  3.33810286E-04
  6.69224415E-18 -4.04093855E-04 -6.32773718E-04 -2.29886437E-18  8.34641182E-04
 -3.86492472E-03  2.17826618E-17  1.04166146E-03  9.14603008E-04  1.23333795E-18
  7.45905722E-05 -3.22268213E-04  1.05216458E-18  4.99279141E-05  9.25110607E-06
  1.85445379E-19  2.62879765E-04  5.05338327E-04 -1.21162797E-17 -1.98858079E-06
  3.04902131E-05  1.95677916E-18  1.22181422E-04  4.20492359E-05  6.50485075E-20
  3.05114017E-02  9.11788809E-03  4.52533867E-17 -7.29806458E-02 -8.51211190E-02
  2.73273785E-16 -5.92098072E-04  1.82287230E-03  1.85782581E-17  7.20962839E-02
  7.73098755E-02  1.86177856E-17 -2.87819725E-18  1.43378566E-04 -5.47639558E-18
  1.46998736E-17 -2.42973650E-04 -8.55648185E-18 -5.02361984E-17 -4.71262298E-04
  1.78691148E-16  6.64290370E-17  1.31572578E-02 -6.04608362E-17  4.85588514E-17
 -6.46173617E-05  3.08167943E-17  3.02316296E-18 -9.36586388E-04  3.70509815E-18
  4.45236901E-19  7.27201442E-06  7.32178553E-18  2.11979651E-18  5.96064093E-05
 -8.39109980E-19 -5.61110933E-18  3.97522657E-04 -1.39457452E-19 -1.79162886E-18
  1.07843247E-06 -1.67001286E-16 -8.39502853E-17  6.79708670E-03  4.84610274E-17
  2.33396439E-16 -3.90279356E-02  1.31335398E-17  1.11991678E-17 -9.26692655E-03
  7.74765551E-17 -2.58916631E-16  2.66024421E-02 -8.09421335E-05  2.83449930E-05
  4.29754595E-18  2.38191347E-04 -3.11685400E-04  1.38879786E-17 -3.46150676E-03
  2.43131232E-03  4.86365439E-17  1.11549639E-03 -2.37358667E-03 -1.08434316E-17
  8.38123158E-05 -1.05948296E-04  2.33012938E-17  5.89673360E-05 -1.58992370E-04
  5.36767879E-18 -4.83908956E-05 -3.75808645E-05  2.00037792E-19 -3.70011916E-03
 -1.26883324E-03 -5.26544241E-17  1.07167510E-04 -7.02752708E-05 -1.20767373E-19
  7.45259207E-07  7.69695654E-06 -4.25471024E-18  1.26537677E-02  2.78408756E-02
  1.31248511E-16 -8.84085753E-02 -7.90849007E-02  5.52340187E-16 -3.53096649E-03
  1.85367359E-03  1.07905328E-17 -7.48138055E-04 -3.08807278E-02 -1.06557993E-16
  8.56977906E-02 -1.54889759E-04 -2.58629080E-05  8.05765474E-18 -4.43442785E-05
  4.67228525E-04  9.50771954E-18 -2.60882290E-03  8.47532290E-04  1.46110300E-17
 -1.67587311E-03 -2.03439570E-04 -3.16782108E-17 -6.74100651E-05 -7.99931887E-05
 -4.05201677E-19 -3.21995124E-05 -1.72683198E-04 -1.94368127E-18 -4.87359603E-05
  1.32878787E-06  6.29341920E-19 -7.20801658E-04  2.19015881E-04 -3.02191872E-17
 -2.28669160E-05 -1.50695500E-05  6.80838206E-18  3.01889617E-06 -2.47426291E-06
 -1.32276760E-18 -8.50246026E-03 -1.58966022E-02 -6.52260770E-17 -7.70704387E-02
 -3.84564919E-01  1.60477006E-16  2.03169868E-03 -7.57619288E-04  4.36907736E-17
  6.77841685E-03 -2.00387239E-04  3.32214153E-17  8.21735575E-02  4.00309798E-01
 -6.76727348E-18  6.90544751E-17 -6.86536976E-05  4.06582896E-17 -4.83737782E-17
  2.35619287E-05 -1.64391134E-17  4.17307168E-17  3.82068958E-04 -2.24520989E-16
 -2.41524696E-17 -8.82053683E-03  1.49194656E-16 -8.62934808E-17  8.41616494E-05
 -1.18799587E-16 -3.89045170E-17  3.74235881E-04 -6.81200323E-18  2.17719188E-18
  1.73086950E-05 -2.71637059E-17 -7.06705518E-18  6.24177021E-04  1.06784561E-18
  7.82505012E-18 -1.55699295E-04 -4.70154657E-18 -2.51009846E-18 -1.30132210E-05
  1.55743095E-16  1.78043787E-16  4.60017883E-03  6.38948521E-16  1.64676919E-16
 -4.07910191E-02  1.23393730E-17 -3.65882112E-17  1.41959707E-02 -1.92050445E-17
 -9.65807645E-17  2.86940677E-03 -5.98146345E-16 -1.32594192E-16  2.66107281E-02
 -1.87867122E-01 -1.68393868E-02  1.86751865E-16 -3.88997787E-02  3.50525014E-03
  1.04277465E-16  5.04893722E-03  5.36563204E-03 -1.39058981E-17 -4.15151977E-03
  1.55400695E-04  3.56414658E-17  8.44470139E-03 -1.06023651E-03 -6.65954805E-17
 -2.39996370E-02 -2.16736739E-02 -1.69163254E-16  1.47240233E-03 -2.07761569E-03
 -4.33986397E-18 -2.87920413E-04 -2.80159463E-04  5.07153257E-18  2.21973902E-04
  1.25743432E-04  1.18022411E-18 -8.18949637E-04  2.12456921E-03  1.13763085E-16
  1.90204960E-03 -7.32574845E-04  1.87313782E-18 -4.94840895E-04  8.50211387E-04
  9.61144518E-18  4.95568816E-05  5.31045102E-06  1.09925556E-17 -4.75591024E-05
 -4.79921003E-05 -3.77146285E-17  1.32391057E-05  7.95025941E-05  2.61314066E-17
  7.13709115E-01 -4.25428034E-02 -1.23417579E-01  2.05589993E-16  3.12006884E-02
  7.36925736E-03  2.15869154E-17  1.39049826E-03 -4.62938328E-03  2.50832631E-17
  1.38889342E-03 -3.21497855E-04  2.60636800E-17 -5.02832541E-04 -6.40845284E-03
  6.13238182E-17 -3.40789874E-02  2.00508713E-04 -6.95450143E-18  1.67893185E-03
  1.72503034E-03 -1.23879606E-17  1.28436771E-03  4.88928752E-04 -8.87161576E-18
 -1.51416505E-03  3.89518512E-06  3.20348540E-18  1.91986294E-03  1.34613412E-03
 -3.44567172E-17 -7.32574845E-04 -1.05046247E-04 -1.42972161E-17  4.17052563E-04
  2.88674217E-05  2.44045010E-18  1.43709982E-04  2.50663898E-05 -3.78086341E-18
 -6.47620402E-05 -2.60985351E-05  8.77757340E-18 -4.54275109E-05  1.60458403E-04
 -9.44918550E-18 -1.90709008E-01  9.57727615E-01  2.74553971E-16  4.08040076E-16
 -6.94284901E-02  1.00231580E-16 -9.11561611E-17  3.91817355E-03 -5.20039956E-17
 -7.17856108E-18  7.60527146E-03 -1.70348117E-18  2.25993362E-17 -1.02520420E-03
  3.65200764E-18  2.40988602E-17  6.99688090E-03  8.35658870E-17  1.43380408E-17
  3.53944626E-03 -1.55678873E-17 -1.73643989E-18 -4.10060248E-03  2.04779621E-17
  2.00003103E-18  5.87337932E-05  9.51479947E-18 -7.93018704E-18  1.27850432E-04
 -8.61857376E-18 -1.64577532E-18 -4.13362364E-03 -2.00473627E-17 -6.35721168E-18
 -9.70610726E-04  9.86994608E-19  1.99508463E-18  1.00336431E-04 -2.43569630E-18
  2.52947496E-18 -1.31004121E-08  2.07954043E-19 -8.64594647E-19 -2.04683654E-05
 -1.20645021E-17 -7.52770106E-18  6.86510176E-05  4.27431637E-16 -1.27018924E-15
  1.35569039E-01 -4.64199735E-02  2.31699211E-02 -1.13721984E-16  1.29742880E-03
 -6.38831268E-03 -7.92661084E-17 -2.74185974E-03 -6.29655939E-04  1.90175863E-17
  9.93834850E-04  9.10638315E-04 -4.08762315E-17 -8.30430758E-04  1.57827229E-03
  2.12071851E-17  1.15452279E-03  4.94529106E-03  8.27376457E-17 -1.01769327E-04
 -1.18507177E-04  6.78220156E-19 -3.44631271E-04 -1.32627126E-04  2.50394371E-18
  5.70441786E-05 -1.09634354E-05  6.88938822E-18 -2.82227600E-03  7.65961922E-04
 -4.50892406E-17 -4.94840895E-04  4.17052563E-04  1.05945081E-18 -2.06740261E-05
 -3.65575197E-04  1.89903973E-18 -8.26912289E-05 -1.21580190E-05 -6.00056583E-18
  3.40691370E-05  3.98427603E-05  1.61810231E-17  1.43072263E-05 -1.06450012E-04
 -1.50038669E-17 -3.91964489E-01  2.92425441E-01 -5.87925506E-16  9.13205060E-01
  1.38000785E-02  1.74003862E-02 -1.53860862E-17 -6.59063381E-03  1.88815641E-04
  3.72824248E-17  9.29097840E-04  1.75505251E-03 -1.74059147E-17 -1.49260568E-03
  2.70380659E-04  2.42360260E-17  2.58160653E-03 -5.35067282E-04 -2.46910292E-17
 -4.56735244E-03 -6.20706184E-03 -4.27432107E-17 -2.88865176E-04  1.32885186E-04
 -5.02047418E-18 -3.14534244E-04 -9.71751963E-05  8.93067689E-19 -1.70580568E-05
  5.31970130E-06 -4.69275754E-18 -4.25382186E-03  9.79581845E-05  3.55860721E-17
  8.50211387E-04  2.88674217E-05  4.78662130E-18 -3.65575197E-04  1.82675068E-04
 -7.87114695E-18 -3.51430444E-05 -8.24401361E-06  5.99894860E-18  2.84407069E-05
  2.28820343E-05 -1.89560950E-17  6.09841557E-06 -5.96388593E-05  2.25241630E-17
  2.74056162E-01 -4.36081218E-01  3.24169851E-16 -1.55193126E-01  9.05909206E-01
 -1.50992883E-16 -9.87332031E-17  6.17683026E-03  7.52305611E-17 -7.09906861E-18
  1.20008372E-03 -1.43666911E-18 -1.55669539E-17 -2.04886013E-04 -1.89340221E-17
  7.99063208E-18 -6.00432298E-05 -2.39841674E-17 -1.07782964E-17 -4.80948520E-04
 -1.08277352E-17  1.39160676E-17  9.27771864E-04  1.19613102E-19  1.70440701E-18
  1.34725041E-04  8.57059175E-19  2.59228035E-18 -8.46903381E-05 -5.14595794E-19
  1.33008539E-19  3.91025302E-05 -2.09638331E-17 -4.60887958E-18  4.30721328E-04
  2.33406478E-17 -1.18095030E-17  1.00336431E-04 -9.23534203E-18  1.36256725E-17
  1.01026917E-05  2.97658321E-18  1.12467374E-18 -5.50829998E-06  8.16557736E-19
 -1.62009424E-18 -1.48341520E-05 -4.23634388E-18 -3.30231812E-18 -2.57952983E-06
 -5.70354478E-16  5.23248410E-16 -4.67784369E-02 -4.45489143E-16 -1.57400561E-15
  1.12847008E-01 -6.14290979E-03 -3.10119573E-02  9.58639368E-17  2.28169860E-03
 -2.08796338E-03  1.50984895E-17  1.59397981E-04  1.05653873E-04 -7.62623224E-18
  1.64215560E-04  9.33046122E-05  1.45152665E-17  3.04176446E-04 -1.74413854E-03
  2.93014915E-18 -5.64438098E-03  1.85979738E-03  5.38271722E-18  2.86002547E-04
  6.37887916E-04 -3.90562831E-18 -1.45908888E-05  1.50214179E-05  6.74456497E-19
 -4.77626243E-04 -8.44098963E-06 -4.79050291E-18  5.30141325E-05 -6.70875815E-05
  4.96019537E-18  4.95568816E-05  1.43709982E-04  1.25098495E-19 -8.26912289E-05
 -3.51430444E-05 -6.59114746E-18 -8.29363821E-06  1.75937749E-07  1.23865709E-18
  1.07512239E-05  1.98355435E-05 -3.37783795E-18 -3.72881686E-06 -2.91656414E-05
  7.11415484E-18 -8.03149643E-02 -7.81916103E-02 -1.89522505E-16  9.38135280E-03
  3.04365624E-02 -1.19527140E-16  8.17976513E-02  3.97465468E-03 -1.75170018E-03
 -2.98454125E-18  1.85659800E-03  1.59494260E-03 -1.23081812E-17 -5.73155856E-05
 -1.94625886E-04  8.86838827E-19  3.54113354E-05  1.77368828E-04 -1.28224451E-18
  1.69902895E-04 -1.25449641E-04  2.26410298E-18  9.71292576E-05  5.30280312E-04
  2.41523672E-17 -4.30068162E-04 -2.74457865E-06  1.04862029E-18  3.83835137E-05
  1.43978444E-05 -6.18511988E-19 -3.25657347E-05  2.86836610E-05 -2.50979865E-18
  8.86661273E-05  1.48815212E-04  3.75638243E-20  5.31045102E-06  2.50663898E-05
  2.07532908E-18 -1.21580190E-05 -8.24401361E-06 -7.51910583E-19  1.75937749E-07
 -4.93827800E-06  1.33761962E-19  6.22580326E-08  3.00360515E-06 -4.43702743E-19
  9.81733217E-07 -3.64132422E-06  4.59321744E-19 -7.48560759E-02 -3.91307773E-01
  5.50838166E-16 -1.12439604E-02 -1.33199855E-02  5.50720342E-17  7.84239571E-02
  4.03131291E-01 -1.59681737E-18  4.56873058E-17  2.23961499E-03 -1.15706396E-17
 -1.53757459E-17 -6.25997883E-04  1.70514300E-18 -6.09219940E-20 -5.41616915E-05
  4.84023248E-18 -3.42303856E-18  1.00148601E-04 -7.39791440E-18  9.02088737E-18
 -2.39550406E-05  6.33551896E-18  1.26027100E-17  2.04266058E-03  4.20842831E-18
  7.38346125E-19 -4.58455256E-05  1.10019403E-18 -6.70913832E-19  7.96239437E-06
  3.40788053E-18 -6.06516842E-18 -2.03178527E-04 -1.95819104E-17 -3.74422561E-18
 -2.17591363E-05  2.36433711E-18 -2.07010567E-19 -1.31004123E-08 -1.51373780E-18
 -3.08864490E-19 -5.50829998E-06 -2.23064023E-18  4.37278944E-19  7.81203792E-07
 -6.24323468E-20  2.83860713E-19  2.91334610E-06  2.25477967E-19 -3.55964401E-19
  3.08024278E-06 -1.88860487E-16  5.05823812E-16 -4.29241985E-02  1.60396542E-17
  4.88833021E-17  5.58420025E-03  1.85393139E-16 -6.18835541E-16  2.89942120E-02
  2.39471838E-04  2.52218803E-03 -1.10063012E-17 -4.08989064E-04 -4.66446789E-04
  1.75656039E-17 -1.85004103E-04  3.78783178E-04 -3.58232608E-18  1.01493930E-04
  1.34936169E-04  1.38271033E-17 -4.13923412E-06 -1.63318322E-04 -4.41749048E-18
  5.92798439E-04  2.81725732E-04 -1.31055035E-17 -2.50874487E-05  7.67158260E-05
  7.28964885E-20 -4.65616979E-05 -3.69891067E-05  3.32245339E-19 -1.27600794E-05
  1.12076262E-05 -9.59105351E-19  1.12306929E-04  1.20771629E-04  5.05581276E-18
 -4.75591024E-05 -6.47620402E-05 -2.08400932E-18  3.40691370E-05  2.84407069E-05
 -4.83396217E-18  1.07512239E-05  6.22580326E-08  1.72880590E-19 -1.44820093E-05
 -1.07102547E-05 -3.17055076E-18  4.04534978E-06  1.82489056E-05  6.44504725E-18
 -1.46689626E-02 -1.13081497E-02  8.59743212E-18 -3.91905409E-01 -7.04846416E-02
  4.41606076E-16  1.73233486E-03  8.72370076E-05  7.08750051E-19  4.05239820E-01
  8.34641182E-04 -3.86492472E-03  3.31978609E-17  1.04166146E-03  9.14603008E-04
 -5.96795130E-18  7.45905722E-05 -3.22268213E-04  8.38593650E-19 -9.98050351E-05
  3.74464688E-05 -3.23219479E-18 -3.05865166E-05  3.33810286E-04 -3.29232083E-18
 -4.04093855E-04 -6.32773718E-04  4.37181974E-18 -1.98858079E-06  3.04902131E-05
  6.75885454E-19  1.22181422E-04  4.20492359E-05 -5.05433621E-20  4.99279141E-05
  9.25110607E-06 -7.64064665E-20  2.62879765E-04  5.05338327E-04  1.34570772E-18
 -4.79921003E-05 -2.60985351E-05  8.98146625E-20  3.98427603E-05  2.28820343E-05
  8.57590740E-19  1.98355435E-05  3.00360515E-06  2.71592315E-19 -1.07102547E-05
 -5.59296474E-06  2.56771251E-19 -4.59829409E-06  2.36542415E-05 -1.12210579E-18
  3.05114017E-02  9.11788809E-03 -3.87273267E-17 -7.29806458E-02 -8.51211190E-02
  5.26470135E-16 -5.92098072E-04  1.82287230E-03 -2.26026734E-17  7.20962839E-02
  7.73098755E-02 -1.31671979E-16  1.38340725E-17  1.31572578E-02  4.88480575E-17
 -1.59318567E-17 -6.46173617E-05 -9.57506514E-19 -1.51756683E-17 -9.36586388E-04
  4.51566263E-18 -3.24973952E-19  1.43378566E-04 -2.14288521E-17  5.39213084E-18
 -2.42973650E-04  1.47985488E-17  2.57555211E-17 -4.71262298E-04 -2.00698157E-18
  9.84526355E-19  3.97522657E-04  3.69184071E-18 -1.84998085E-19  1.07843247E-06
  1.73682426E-18 -2.53229040E-18  7.27201442E-06 -1.70303825E-17 -1.05580334E-18
  5.96064093E-05 -8.76859815E-18  1.30505000E-18 -2.04683654E-05  1.01598612E-18
  1.68840494E-19 -1.48341520E-05 -4.54436228E-20  7.81696474E-19  2.91334610E-06
  1.06222088E-18 -6.82352550E-19  3.19147130E-05 -3.18893649E-18 -3.51542557E-18
 -2.42750975E-05  6.27492172E-17  1.30063256E-17  6.79708670E-03  3.94199923E-16
  5.01915775E-16 -3.90279356E-02 -7.56885807E-18 -2.59103604E-17 -9.26692655E-03
 -3.94641044E-16 -5.22264024E-16  2.66024421E-02  1.11549639E-03 -2.37358667E-03
  4.52342441E-18  8.38123158E-05 -1.05948296E-04 -5.88208837E-18  5.89673360E-05
 -1.58992370E-04  2.06070633E-18 -8.09421335E-05  2.83449930E-05  1.83826461E-19
  2.38191347E-04 -3.11685400E-04  1.73919022E-19 -3.46150676E-03  2.43131232E-03
 -5.33543653E-18  1.07167510E-04 -7.02752708E-05 -2.75429410E-19  7.45259207E-07
  7.69695654E-06  2.20156301E-19 -4.83908956E-05 -3.75808645E-05 -6.59267551E-19
 -3.70011916E-03 -1.26883324E-03  8.70026400E-20  1.32391057E-05 -4.54275109E-05
 -6.04577432E-19  1.43072263E-05  6.09841557E-06  2.24600913E-18 -3.72881686E-06
  9.81733217E-07 -3.99415524E-19  4.04534978E-06 -4.59829409E-06  1.32925540E-18
 -5.16249680E-06  1.53089634E-08 -2.00914285E-18  1.26537677E-02  2.78408756E-02
 -3.86879159E-17 -8.84085753E-02 -7.90849007E-02  8.26298805E-16 -3.53096649E-03
  1.85367359E-03  7.19546455E-18 -7.48138055E-04 -3.08807278E-02  5.59241667E-17
  8.56977906E-02 -1.67587311E-03 -2.03439570E-04 -3.67927077E-17 -6.74100651E-05
 -7.99931887E-05 -8.82681526E-18 -3.21995124E-05 -1.72683198E-04  3.57396563E-18
 -1.54889759E-04 -2.58629080E-05 -1.17497527E-17 -4.43442785E-05  4.67228525E-04
  5.13242329E-18 -2.60882290E-03  8.47532290E-04  8.06364901E-18 -2.28669160E-05
 -1.50695500E-05 -1.24644317E-18  3.01889617E-06 -2.47426291E-06  2.30935519E-19
 -4.87359603E-05  1.32878787E-06  1.15967145E-18 -7.20801658E-04  2.19015881E-04
 -9.62255203E-19  7.95025941E-05  1.60458403E-04  2.90146822E-18 -1.06450012E-04
 -5.96388593E-05  1.98246019E-18 -2.91656414E-05 -3.64132422E-06 -6.60215314E-20
  1.82489056E-05  2.36542415E-05  1.87633846E-18  1.53089634E-08 -4.66852830E-05
 -3.85367378E-18 -8.50246026E-03 -1.58966022E-02  8.19692197E-17 -7.70704387E-02
 -3.84564919E-01  5.80193254E-16  2.03169868E-03 -7.57619288E-04  5.27343055E-17
  6.77841685E-03 -2.00387239E-04  2.54313770E-17  8.21735575E-02  4.00309798E-01
 -1.02132203E-17 -3.02768445E-17 -8.82053683E-03 -8.47172300E-18 -4.89337914E-18
  8.41616494E-05 -2.76485893E-19  7.50640373E-18  3.74235881E-04 -2.61147230E-19
  2.16329556E-18 -6.86536977E-05  6.52478096E-18 -9.23015696E-18  2.35619287E-05
  1.03224841E-17  1.12726770E-17  3.82068958E-04  1.78899466E-18  5.72832437E-19
 -1.55699295E-04 -2.70518734E-18  1.87173061E-19 -1.30132210E-05 -1.82692383E-18
  2.35584615E-18  1.73086950E-05  5.85033974E-17 -6.93413787E-18  6.24177021E-04
  3.30492785E-18 -8.56368012E-19  6.86510176E-05 -6.64122263E-19 -8.36114046E-19
 -2.57952983E-06  1.30286352E-18 -3.61077237E-19  3.08024278E-06  9.09402556E-21
  4.28407335E-19 -2.42750975E-05  1.44435037E-18  1.70293488E-18  2.22470394E-05
  6.44245088E-17 -3.29112254E-17  4.60017883E-03  7.70718787E-16  7.02922065E-16
 -4.07910191E-02  9.45503628E-18  2.99366391E-17  1.41959707E-02 -5.70538478E-17
  2.86070099E-17  2.86940677E-03 -8.47098034E-16 -7.01855808E-16  2.66107281E-02
