 $CONTRL SCFTYP=RHF RUNTYP=energy NPRINT=3 COORD=ZMT NZVAR=0 $END
 $SYSTEM TIMLIM=2 MEMORY=100000 $END
 $STATPT OPTTOL=1.0E-5  $END
 $BASIS  GBASIS=STO NGAUSS=2 $END
 $GUESS  GUESS=HUCKEL $END
 $DATA
Methylene...1-A-1 state...RHF/STO-2G
Cnv  2

 c
 h   1 hc2     
 h   1 hc3        2 hch3      

hc2         1.090000
hc3         1.090000
hch3        110.000
 $END
